LAMMPS (8 Feb 2023)
WARNING: Using I/O redirection is unreliable with parallel runs. Better to use the -in switch to read input files. (src/src/lammps.cpp:531)
  using 128 OpenMP thread(s) per MPI task
Reading data file ...
  orthogonal box = (-0.84032756 -0.85450028 -0.85950539) to (193.48988 196.75322 197.90567)
  4 by 4 by 8 MPI processor grid
  reading atoms ...
  557304 atoms
  reading velocities ...
  557304 velocities
Finding 1-2 1-3 1-4 neighbors ...
  special bond factors lj:    0        0        0       
  special bond factors coul:  0        0        0       
     0 = max # of 1-2 neighbors
     0 = max # of 1-3 neighbors
     0 = max # of 1-4 neighbors
     1 = max # of special neighbors
  special bonds CPU = 0.095 seconds
  read_data CPU = 3.768 seconds
5940 atoms in group Al
71304 atoms in group La
47220 atoms in group Zr
148356 atoms in group Li
284484 atoms in group O
PPPM initialization ...
  using 12-bit tables for long-range coulomb (src/src/kspace.cpp:342)
  G vector (1/distance) = 0.2768656
  grid = 135 135 135
  stencil order = 5
  estimated absolute RMS force accuracy = 0.0017461808
  estimated relative force accuracy = 0.00012126555
  using double precision MKL FFT
  3d grid and FFT values/proc = 36800 36450
Generated 0 of 10 mixed pair_coeff terms from geometric mixing rule
Neighbor list info ...
  update: every = 1 steps, delay = 0 steps, check = yes
  max neighbors/atom: 5000, page size: 100000
  master list distance cutoff = 11.3
  ghost atom cutoff = 11.3
  binsize = 5.65, bins = 35 35 36
  3 neighbor lists, perpetual/occasional/extra = 3 0 0
  (1) pair buck/coul/long, perpetual
      attributes: half, newton on
      pair build: half/bin/newton
      stencil: half/bin/3d
      bin: standard
  (2) pair lennard/mdf, perpetual, skip from (3)
      attributes: half, newton on, cut 3.8
      pair build: skip
      stencil: none
      bin: none
  (3) neighbor class addition, perpetual, trim from (1)
      attributes: half, newton on, cut 3.8
      pair build: trim
      stencil: none
      bin: none
Setting up cg style minimization ...
  Unit style    : metal
  Current step  : 0
Per MPI rank memory allocation (min/avg/max) = 227 | 263 | 300.5 Mbytes
   Step          Temp          E_pair         E_mol          TotEng         Press     
         0   698.90828     -6366006.7      0             -6315659.4     -125.8484     
       689   698.90828     -6417618        0             -6367270.7     -18543.695    
Loop time of 103.593 on 16384 procs for 689 steps with 557304 atoms

85.0% CPU use with 128 MPI tasks x 128 OpenMP threads

Minimization stats:
  Stopping criterion = linesearch alpha is zero
  Energy initial, next-to-last, final = 
     -6366006.71549705  -6417618.04481866  -6417618.04481866
  Force two-norm initial, final = 1093.489 0.42290026
  Force max component initial, final = 6.6096403 0.12346965
  Final line search alpha, max atom move = 6.4597985e-08 7.9758909e-09
  Iterations, force evaluations = 689 1199

MPI task timing breakdown:
Section |  min time  |  avg time  |  max time  |%varavg| %total
---------------------------------------------------------------
Pair    | 55.577     | 69.183     | 81.634     | 118.6 | 66.78
Bond    | 0.00013287 | 0.00028464 | 0.0005667  |   0.0 |  0.00
Kspace  | 15.909     | 28.931     | 43.083     | 191.8 | 27.93
Neigh   | 2.0762     | 2.6081     | 3.1149     |  25.6 |  2.52
Comm    | 1.9074     | 2.1708     | 2.4085     |   8.8 |  2.10
Output  | 0          | 0          | 0          |   0.0 |  0.00
Modify  | 0          | 0          | 0          |   0.0 |  0.00
Other   |            | 0.7003     |            |       |  0.68

Nlocal:        4353.94 ave        4973 max        3748 min
Histogram: 64 0 0 0 0 0 0 0 0 64
Nghost:        13148.9 ave       14213 max       12091 min
Histogram: 64 0 0 0 0 0 0 0 0 64
Neighs:    1.06798e+06 ave 1.27262e+06 max      857809 min
Histogram: 22 32 10 0 0 0 0 10 25 29

Total # of neighbors = 1.3670105e+08
Ave neighs/atom = 245.28991
Ave special neighs/atom = 0
Neighbor list builds = 75
Dangerous builds = 0
PPPM initialization ...
  using 12-bit tables for long-range coulomb (src/src/kspace.cpp:342)
  G vector (1/distance) = 0.2768656
  grid = 135 135 135
  stencil order = 5
  estimated absolute RMS force accuracy = 0.0017461808
  estimated relative force accuracy = 0.00012126555
  using double precision MKL FFT
  3d grid and FFT values/proc = 36800 36450
Generated 0 of 10 mixed pair_coeff terms from geometric mixing rule
Setting up Verlet run ...
  Unit style    : metal
  Current step  : 0
  Time step     : 0.002
Per MPI rank memory allocation (min/avg/max) = 227.3 | 263 | 300.1 Mbytes
   Step          Temp          TotEng           Lx             Ly             Lz           Press     
         0   698.90828     -6367270.7      194.3302       197.60772      198.76518     -18543.695    
      1000   699.79919     -6315899.5      194.3302       197.60772      198.76518      2115.2143    
      2000   700.86137     -6315863.4      194.3302       197.60772      198.76518      2153.399     
      3000   700.90783     -6315867.6      194.3302       197.60772      198.76518      1651.002     
      4000   700.82622     -6315749        194.3302       197.60772      198.76518      893.34563    
      5000   700.53422     -6315672.1      194.3302       197.60772      198.76518      1077.8906    
      6000   699.89315     -6315638.8      194.3302       197.60772      198.76518      424.1991     
      7000   699.72729     -6315691.4      194.3302       197.60772      198.76518      348.9984     
      8000   700.5706      -6315728.9      194.3302       197.60772      198.76518      323.8195     
      9000   699.44238     -6315672.1      194.3302       197.60772      198.76518     -54.926015    
     10000   700.85836     -6315587.1      194.3302       197.60772      198.76518     -37.845879    
Loop time of 790.869 on 16384 procs for 10000 steps with 557304 atoms

Performance: 2.185 ns/day, 10.984 hours/ns, 12.644 timesteps/s, 7.047 Matom-step/s
84.8% CPU use with 128 MPI tasks x 128 OpenMP threads

MPI task timing breakdown:
Section |  min time  |  avg time  |  max time  |%varavg| %total
---------------------------------------------------------------
Pair    | 376.6      | 464.35     | 546.45     | 297.3 | 58.71
Bond    | 0.0016983  | 0.0024079  | 0.0036871  |   0.9 |  0.00
Kspace  | 130.74     | 225.52     | 326.32     | 500.5 | 28.52
Neigh   | 59.554     | 74.431     | 89.14      | 134.6 |  9.41
Comm    | 19.084     | 21.094     | 23.784     |  22.3 |  2.67
Output  | 0.001406   | 0.0014983  | 0.001744   |   0.1 |  0.00
Modify  | 2.2275     | 3.8273     | 5.6661     |  53.4 |  0.48
Other   |            | 1.642      |            |       |  0.21

Nlocal:        4353.94 ave        4930 max        3783 min
Histogram: 64 0 0 0 0 0 0 0 0 64
Nghost:        13124.1 ave       14144 max       12129 min
Histogram: 64 0 0 0 0 0 0 0 0 64
Neighs:    1.06226e+06 ave 1.26261e+06 max      858892 min
Histogram: 20 34 10 0 0 0 0 13 28 23

Total # of neighbors = 1.359695e+08
Ave neighs/atom = 243.97726
Ave special neighs/atom = 0
Neighbor list builds = 2061
Dangerous builds = 0
PPPM initialization ...
  using 12-bit tables for long-range coulomb (src/src/kspace.cpp:342)
  G vector (1/distance) = 0.2768656
  grid = 135 135 135
  stencil order = 5
  estimated absolute RMS force accuracy = 0.0017461808
  estimated relative force accuracy = 0.00012126555
  using double precision MKL FFT
  3d grid and FFT values/proc = 36800 36450
Generated 0 of 10 mixed pair_coeff terms from geometric mixing rule
Setting up Verlet run ...
  Unit style    : metal
  Current step  : 10000
  Time step     : 0.002
Per MPI rank memory allocation (min/avg/max) = 227.7 | 263.6 | 300.9 Mbytes
   Step          Temp          TotEng           Lx             Ly             Lz           Press     
     10000   700.85836     -6315587.1      194.3302       197.60772      198.76518     -37.845879    
     11000   699.6487      -6315720.5      194.3302       197.60772      198.76518     -44.411281    
     12000   701.15127     -6315638.5      194.3302       197.60772      198.76518     -233.69731    
     13000   700.01178     -6315777.8      194.3302       197.60772      198.76518     -174.65459    
     14000   700.28152     -6315682.9      194.3302       197.60772      198.76518     -78.242514    
     15000   701.02793     -6315486.9      194.3302       197.60772      198.76518     -68.49616     
     16000   699.9394      -6315689.4      194.3302       197.60772      198.76518     -290.96213    
     17000   699.63435     -6315572.4      194.3302       197.60772      198.76518     -246.52256    
     18000   700.31995     -6315644.5      194.3302       197.60772      198.76518     -292.26929    
     19000   700.45342     -6315578.3      194.3302       197.60772      198.76518     -72.004959    
     20000   700.17279     -6315590.9      194.3302       197.60772      198.76518     -159.26499    
     21000   700.37241     -6315567.2      194.3302       197.60772      198.76518     -120.42209    
     22000   700.33624     -6315658.4      194.3302       197.60772      198.76518     -334.07108    
     23000   700.28125     -6315623.1      194.3302       197.60772      198.76518     -141.15038    
     24000   699.08434     -6315696.6      194.3302       197.60772      198.76518     -58.349001    
     25000   700.13635     -6315626.8      194.3302       197.60772      198.76518     -173.63301    
     26000   699.52032     -6315682.7      194.3302       197.60772      198.76518     -75.711731    
     27000   701.10363     -6315480        194.3302       197.60772      198.76518      17.148998    
     28000   699.60937     -6315780.6      194.3302       197.60772      198.76518     -58.7101      
     29000   699.95235     -6315645.2      194.3302       197.60772      198.76518     -50.533583    
     30000   700.20535     -6315673        194.3302       197.60772      198.76518     -119.19783    
     31000   700.46426     -6315700.8      194.3302       197.60772      198.76518     -26.690413    
     32000   700.1376      -6315652.4      194.3302       197.60772      198.76518     -34.356844    
     33000   698.92751     -6315870.7      194.3302       197.60772      198.76518     -148.2305     
     34000   699.4579      -6315720.3      194.3302       197.60772      198.76518     -53.134084    
     35000   699.47408     -6315649.8      194.3302       197.60772      198.76518      67.362041    
     36000   699.01518     -6315666        194.3302       197.60772      198.76518     -74.893154    
     37000   699.39627     -6315702.5      194.3302       197.60772      198.76518     -63.408131    
     38000   700.35058     -6315668.7      194.3302       197.60772      198.76518      27.404086    
     39000   699.85829     -6315671.9      194.3302       197.60772      198.76518     -1.4875539    
     40000   699.55367     -6315635.5      194.3302       197.60772      198.76518     -18.87483     
     41000   699.88367     -6315704.3      194.3302       197.60772      198.76518     -6.8230033    
     42000   699.55251     -6315638        194.3302       197.60772      198.76518     -4.8542259    
     43000   700.77654     -6315577.5      194.3302       197.60772      198.76518      79.381031    
     44000   700.4125      -6315698.4      194.3302       197.60772      198.76518     -20.12544     
     45000   699.54309     -6315600.4      194.3302       197.60772      198.76518     -4.2148853    
     46000   700.88703     -6315689.4      194.3302       197.60772      198.76518     -57.90113     
     47000   700.74186     -6315625.4      194.3302       197.60772      198.76518      52.386491    
     48000   699.54786     -6315705.5      194.3302       197.60772      198.76518      35.082544    
     49000   700.58813     -6315671.5      194.3302       197.60772      198.76518      104.01673    
     50000   700.36582     -6315660.5      194.3302       197.60772      198.76518     -2.1910737    
     51000   699.99504     -6315656.1      194.3302       197.60772      198.76518      70.458461    
     52000   699.21511     -6315762.9      194.3302       197.60772      198.76518     -129.99339    
     53000   699.70522     -6315712.3      194.3302       197.60772      198.76518     -54.449477    
     54000   699.48768     -6315648.8      194.3302       197.60772      198.76518      61.543004    
     55000   701.30777     -6315637.3      194.3302       197.60772      198.76518     -34.397484    
     56000   700.17566     -6315641.7      194.3302       197.60772      198.76518      78.521279    
     57000   701.43641     -6315578.2      194.3302       197.60772      198.76518     -57.07876     
     58000   699.85737     -6315617.1      194.3302       197.60772      198.76518      97.762105    
     59000   701.0054      -6315625.8      194.3302       197.60772      198.76518     -30.096628    
     60000   701.38506     -6315651.8      194.3302       197.60772      198.76518     -40.083498    
     61000   699.19185     -6315662.5      194.3302       197.60772      198.76518      16.152164    
     62000   701.00311     -6315569.8      194.3302       197.60772      198.76518      112.72123    
     63000   699.90144     -6315615.4      194.3302       197.60772      198.76518      71.774281    
     64000   700.18308     -6315673.5      194.3302       197.60772      198.76518     -78.196794    
     65000   699.07185     -6315742.3      194.3302       197.60772      198.76518     -122.34007    
     66000   701.01515     -6315733.7      194.3302       197.60772      198.76518     -84.956893    
     67000   699.13214     -6315799.4      194.3302       197.60772      198.76518     -23.675244    
     68000   701.26397     -6315644.3      194.3302       197.60772      198.76518     -103.56499    
     69000   699.60124     -6315653.7      194.3302       197.60772      198.76518      152.79556    
     70000   700.0744      -6315721.9      194.3302       197.60772      198.76518     -51.700425    
     71000   700.4673      -6315691.9      194.3302       197.60772      198.76518     -3.6790988    
     72000   701.10396     -6315592.3      194.3302       197.60772      198.76518      66.183538    
     73000   700.93092     -6315664.4      194.3302       197.60772      198.76518     -91.159375    
     74000   700.06743     -6315674.8      194.3302       197.60772      198.76518     -52.461217    
     75000   700.79961     -6315622.4      194.3302       197.60772      198.76518     -43.802774    
     76000   698.63328     -6315734.1      194.3302       197.60772      198.76518      140.32164    
     77000   700.74381     -6315700.3      194.3302       197.60772      198.76518     -137.16929    
     78000   700.15773     -6315669.3      194.3302       197.60772      198.76518     -30.603269    
     79000   700.51499     -6315558.6      194.3302       197.60772      198.76518      31.588269    
     80000   699.74962     -6315668.1      194.3302       197.60772      198.76518     -200.29942    
     81000   700.4207      -6315599.5      194.3302       197.60772      198.76518     -3.938747     
     82000   700.78488     -6315596.8      194.3302       197.60772      198.76518     -80.966113    
     83000   699.54812     -6315764.5      194.3302       197.60772      198.76518     -99.687804    
     84000   700.67598     -6315636.1      194.3302       197.60772      198.76518     -13.614022    
     85000   699.30854     -6315695.5      194.3302       197.60772      198.76518      15.099384    
     86000   699.62254     -6315711.1      194.3302       197.60772      198.76518     -2.5295765    
     87000   700.18497     -6315574.8      194.3302       197.60772      198.76518     -12.752746    
     88000   699.38752     -6315734.4      194.3302       197.60772      198.76518     -115.38035    
     89000   699.41255     -6315712        194.3302       197.60772      198.76518     -45.387034    
     90000   700.66945     -6315550.6      194.3302       197.60772      198.76518     -47.857487    
     91000   699.77747     -6315777.2      194.3302       197.60772      198.76518      8.20032      
     92000   701.24172     -6315641.1      194.3302       197.60772      198.76518     -44.763211    
     93000   700.56515     -6315582.5      194.3302       197.60772      198.76518     -77.531178    
     94000   700.63081     -6315734.3      194.3302       197.60772      198.76518     -157.0401     
     95000   699.69762     -6315652.5      194.3302       197.60772      198.76518     -109.26005    
     96000   700.23397     -6315633.5      194.3302       197.60772      198.76518     -69.848771    
     97000   699.65947     -6315724.8      194.3302       197.60772      198.76518     -62.160921    
     98000   698.53101     -6315808.7      194.3302       197.60772      198.76518     -3.6748377    
     99000   700.51512     -6315636.5      194.3302       197.60772      198.76518      12.405166    
    100000   698.76823     -6315857.5      194.3302       197.60772      198.76518     -81.650789    
    101000   698.95553     -6315767.5      194.3302       197.60772      198.76518      78.385339    
    102000   701.19349     -6315691.5      194.3302       197.60772      198.76518      38.441394    
    103000   699.21373     -6315737.4      194.3302       197.60772      198.76518      182.90776    
    104000   700.36718     -6315712.5      194.3302       197.60772      198.76518      151.28385    
    105000   698.99494     -6315750.8      194.3302       197.60772      198.76518     -31.400466    
    106000   699.84287     -6315799.1      194.3302       197.60772      198.76518     -85.597268    
    107000   699.9792      -6315703        194.3302       197.60772      198.76518      121.98037    
    108000   699.88198     -6315651.5      194.3302       197.60772      198.76518      145.80443    
    109000   699.90693     -6315716.6      194.3302       197.60772      198.76518     -8.4541658    
    110000   700.65726     -6315567.7      194.3302       197.60772      198.76518      63.566248    
    111000   699.42005     -6315813.7      194.3302       197.60772      198.76518      25.927352    
    112000   699.41315     -6315657.4      194.3302       197.60772      198.76518     -77.103965    
    113000   699.66243     -6315765.7      194.3302       197.60772      198.76518     -93.019347    
    114000   701.13282     -6315539.8      194.3302       197.60772      198.76518      24.688327    
    115000   700.59353     -6315653.2      194.3302       197.60772      198.76518     -48.783317    
    116000   700.18882     -6315689.3      194.3302       197.60772      198.76518      71.534089    
    117000   700.56982     -6315649.3      194.3302       197.60772      198.76518     -26.474141    
    118000   699.54381     -6315685.1      194.3302       197.60772      198.76518     -33.662765    
    119000   698.89297     -6315844.7      194.3302       197.60772      198.76518      26.235408    
    120000   700.24717     -6315646.9      194.3302       197.60772      198.76518      109.36097    
    121000   700.98324     -6315537.6      194.3302       197.60772      198.76518      14.161297    
    122000   700.17768     -6315766.8      194.3302       197.60772      198.76518     -89.770786    
    123000   700.4103      -6315746.7      194.3302       197.60772      198.76518      43.390546    
    124000   699.11219     -6315736.8      194.3302       197.60772      198.76518     -105.3397     
    125000   701.23736     -6315588.2      194.3302       197.60772      198.76518      168.83191    
    126000   700.70468     -6315595.8      194.3302       197.60772      198.76518      65.911498    
    127000   699.65372     -6315717.8      194.3302       197.60772      198.76518      88.494538    
    128000   699.07177     -6315674.9      194.3302       197.60772      198.76518      62.825136    
    129000   700.21275     -6315664.4      194.3302       197.60772      198.76518      136.88965    
    130000   699.96858     -6315686.3      194.3302       197.60772      198.76518      3.5051129    
    131000   700.21311     -6315656.4      194.3302       197.60772      198.76518      49.94762     
    132000   700.712       -6315652.3      194.3302       197.60772      198.76518     -4.8934509    
    133000   700.1863      -6315670        194.3302       197.60772      198.76518      5.5900098    
    134000   700.67248     -6315624.1      194.3302       197.60772      198.76518     -5.3406877    
    135000   700.9244      -6315679.6      194.3302       197.60772      198.76518      11.365702    
    136000   701.20684     -6315563.8      194.3302       197.60772      198.76518     -82.313194    
    137000   699.60099     -6315673.2      194.3302       197.60772      198.76518      0.099736637  
    138000   700.66709     -6315609.9      194.3302       197.60772      198.76518      62.894425    
    139000   699.14508     -6315674.9      194.3302       197.60772      198.76518     -24.562174    
    140000   699.17157     -6315685.7      194.3302       197.60772      198.76518     -4.4344612    
    141000   699.26478     -6315691        194.3302       197.60772      198.76518      67.759669    
    142000   700.09007     -6315704.2      194.3302       197.60772      198.76518      63.372361    
    143000   699.6757      -6315764.1      194.3302       197.60772      198.76518      97.304271    
    144000   699.90693     -6315714.6      194.3302       197.60772      198.76518     -62.873735    
    145000   697.94922     -6315841.4      194.3302       197.60772      198.76518      107.16892    
    146000   698.92002     -6315664.9      194.3302       197.60772      198.76518     -56.619492    
    147000   698.89294     -6315818.8      194.3302       197.60772      198.76518      98.398277    
    148000   700.8788      -6315543        194.3302       197.60772      198.76518      73.610699    
    149000   699.93437     -6315714.2      194.3302       197.60772      198.76518     -22.372892    
    150000   699.87936     -6315678.5      194.3302       197.60772      198.76518     -28.526086    
    151000   700.17686     -6315698.2      194.3302       197.60772      198.76518     -43.315408    
    152000   700.7336      -6315644.2      194.3302       197.60772      198.76518     -5.3940811    
    153000   701.08511     -6315666.6      194.3302       197.60772      198.76518      37.996091    
    154000   701.74064     -6315516.5      194.3302       197.60772      198.76518      39.248355    
    155000   699.40207     -6315671.5      194.3302       197.60772      198.76518     -22.888451    
    156000   698.78625     -6315648.2      194.3302       197.60772      198.76518      32.006665    
    157000   700.88433     -6315556.5      194.3302       197.60772      198.76518     -50.450901    
    158000   698.94349     -6315711.7      194.3302       197.60772      198.76518     -40.255934    
    159000   699.0442      -6315687.1      194.3302       197.60772      198.76518     -7.8474839    
    160000   699.32704     -6315707.3      194.3302       197.60772      198.76518      49.371214    
    161000   700.20667     -6315579.4      194.3302       197.60772      198.76518     -48.477878    
    162000   699.14394     -6315715.3      194.3302       197.60772      198.76518     -26.577261    
    163000   699.73047     -6315752.2      194.3302       197.60772      198.76518      48.11723     
    164000   700.7974      -6315553.1      194.3302       197.60772      198.76518     -59.170351    
    165000   700.00796     -6315634.5      194.3302       197.60772      198.76518      5.0404351    
    166000   699.6196      -6315665.9      194.3302       197.60772      198.76518      81.083593    
    167000   699.394       -6315770.5      194.3302       197.60772      198.76518     -78.394788    
    168000   699.41607     -6315672.5      194.3302       197.60772      198.76518     -77.391397    
    169000   699.47819     -6315691.6      194.3302       197.60772      198.76518     -56.633136    
    170000   699.55201     -6315670.1      194.3302       197.60772      198.76518     -40.550553    
    171000   698.91494     -6315791        194.3302       197.60772      198.76518     -115.86307    
    172000   700.53707     -6315612.9      194.3302       197.60772      198.76518     -6.758978     
    173000   699.21305     -6315701.6      194.3302       197.60772      198.76518      86.969853    
    174000   699.96572     -6315695.4      194.3302       197.60772      198.76518     -37.533523    
    175000   698.75117     -6315751.7      194.3302       197.60772      198.76518     -89.228598    
    176000   699.87608     -6315714.9      194.3302       197.60772      198.76518     -207.07556    
    177000   700.15864     -6315679.9      194.3302       197.60772      198.76518     -149.93641    
    178000   699.94714     -6315698.1      194.3302       197.60772      198.76518     -136.20332    
    179000   700.25794     -6315695.3      194.3302       197.60772      198.76518     -148.83022    
    180000   700.24563     -6315533.4      194.3302       197.60772      198.76518     -93.315613    
    181000   699.63742     -6315780.5      194.3302       197.60772      198.76518     -176.07884    
    182000   698.99237     -6315660.7      194.3302       197.60772      198.76518      62.078986    
    183000   699.56679     -6315674        194.3302       197.60772      198.76518     -69.872693    
    184000   699.61437     -6315685.1      194.3302       197.60772      198.76518      133.40294    
    185000   699.99479     -6315670.5      194.3302       197.60772      198.76518     -9.4837782    
    186000   699.99638     -6315706.9      194.3302       197.60772      198.76518     -40.789162    
    187000   699.17032     -6315802.2      194.3302       197.60772      198.76518      75.136739    
    188000   700.55617     -6315719        194.3302       197.60772      198.76518     -29.016637    
    189000   700.57654     -6315563.2      194.3302       197.60772      198.76518     -56.312208    
    190000   699.87729     -6315663.2      194.3302       197.60772      198.76518     -27.011009    
    191000   698.90685     -6315774.5      194.3302       197.60772      198.76518     -20.649404    
    192000   700.51027     -6315637.1      194.3302       197.60772      198.76518      37.393401    
    193000   698.86558     -6315776.1      194.3302       197.60772      198.76518      235.25801    
    194000   700.79093     -6315649.5      194.3302       197.60772      198.76518     -100.67579    
    195000   700.80988     -6315672        194.3302       197.60772      198.76518     -7.6407023    
    196000   698.55362     -6315819.7      194.3302       197.60772      198.76518      103.02874    
    197000   700.69336     -6315550.2      194.3302       197.60772      198.76518      38.316713    
    198000   699.49472     -6315708.9      194.3302       197.60772      198.76518     -52.71323     
    199000   699.59347     -6315764.7      194.3302       197.60772      198.76518     -78.837154    
    200000   699.87115     -6315642.7      194.3302       197.60772      198.76518      104.00204    
    201000   699.50383     -6315707.4      194.3302       197.60772      198.76518     -78.026429    
    202000   700.09872     -6315713.6      194.3302       197.60772      198.76518     -48.213728    
    203000   700.00667     -6315674.7      194.3302       197.60772      198.76518     -112.88342    
    204000   699.80649     -6315690.1      194.3302       197.60772      198.76518     -42.428344    
    205000   700.08847     -6315649.2      194.3302       197.60772      198.76518     -93.94825     
    206000   699.20383     -6315769.4      194.3302       197.60772      198.76518     -53.413508    
    207000   700.80585     -6315541.9      194.3302       197.60772      198.76518     -41.740457    
    208000   699.76017     -6315701        194.3302       197.60772      198.76518     -71.678826    
    209000   699.66155     -6315677.1      194.3302       197.60772      198.76518     -72.131083    
    210000   700.37597     -6315658.8      194.3302       197.60772      198.76518     -53.548233    
    211000   699.87138     -6315621.9      194.3302       197.60772      198.76518      33.062995    
    212000   699.3912      -6315646.8      194.3302       197.60772      198.76518     -50.956995    
    213000   701.00347     -6315698.7      194.3302       197.60772      198.76518      10.536392    
    214000   700.68806     -6315638        194.3302       197.60772      198.76518     -38.463236    
    215000   700.76703     -6315704.9      194.3302       197.60772      198.76518     -159.52744    
    216000   699.3082      -6315814.6      194.3302       197.60772      198.76518     -13.875233    
    217000   700.29478     -6315592.2      194.3302       197.60772      198.76518     -127.56634    
    218000   700.02679     -6315690.8      194.3302       197.60772      198.76518     -88.746478    
    219000   701.3022      -6315536        194.3302       197.60772      198.76518     -22.818877    
    220000   701.05684     -6315669.3      194.3302       197.60772      198.76518     -154.83055    
    221000   701.05275     -6315702.9      194.3302       197.60772      198.76518      61.808286    
    222000   699.46608     -6315778.8      194.3302       197.60772      198.76518     -8.5735324    
    223000   699.30108     -6315658.6      194.3302       197.60772      198.76518     -163.34929    
    224000   699.91542     -6315710.4      194.3302       197.60772      198.76518     -24.2547      
    225000   699.43973     -6315776.6      194.3302       197.60772      198.76518     -109.54572    
    226000   699.05277     -6315822.2      194.3302       197.60772      198.76518     -243.58847    
    227000   698.78259     -6315766.5      194.3302       197.60772      198.76518     -40.705825    
    228000   700.82763     -6315561.1      194.3302       197.60772      198.76518     -47.876399    
    229000   700.59113     -6315578.5      194.3302       197.60772      198.76518     -122.38681    
    230000   699.74225     -6315671.8      194.3302       197.60772      198.76518     -64.843773    
    231000   700.19547     -6315781.4      194.3302       197.60772      198.76518     -116.16041    
    232000   700.39628     -6315788.8      194.3302       197.60772      198.76518     -66.902356    
    233000   700.10557     -6315664.4      194.3302       197.60772      198.76518     -51.649926    
    234000   699.11991     -6315692.2      194.3302       197.60772      198.76518     -2.2523684    
    235000   699.78392     -6315713.3      194.3302       197.60772      198.76518     -119.86467    
    236000   700.48814     -6315636.8      194.3302       197.60772      198.76518     -16.534465    
    237000   700.24696     -6315771.6      194.3302       197.60772      198.76518     -17.193331    
    238000   700.80095     -6315595.7      194.3302       197.60772      198.76518      96.578324    
    239000   699.85653     -6315565.3      194.3302       197.60772      198.76518      67.415401    
    240000   700.12124     -6315723.2      194.3302       197.60772      198.76518     -47.366509    
    241000   700.1879      -6315722.8      194.3302       197.60772      198.76518      44.417614    
    242000   699.79248     -6315676.3      194.3302       197.60772      198.76518      72.111077    
    243000   699.81848     -6315651.6      194.3302       197.60772      198.76518     -32.91576     
    244000   699.74308     -6315743.8      194.3302       197.60772      198.76518     -151.5116     
    245000   699.72784     -6315639.1      194.3302       197.60772      198.76518     -42.362413    
    246000   698.96192     -6315853.2      194.3302       197.60772      198.76518     -106.27045    
    247000   700.64413     -6315579.5      194.3302       197.60772      198.76518     -22.475782    
    248000   700.22873     -6315667.8      194.3302       197.60772      198.76518      134.54783    
    249000   700.07172     -6315681.2      194.3302       197.60772      198.76518      3.3509763    
    250000   699.51668     -6315798.8      194.3302       197.60772      198.76518     -71.911929    
    251000   699.89706     -6315606.1      194.3302       197.60772      198.76518      60.972209    
    252000   699.73426     -6315713.2      194.3302       197.60772      198.76518     -83.700472    
    253000   700.56158     -6315619.7      194.3302       197.60772      198.76518     -50.10836     
    254000   699.98381     -6315714.6      194.3302       197.60772      198.76518     -14.133224    
    255000   700.15769     -6315701.5      194.3302       197.60772      198.76518      23.791634    
    256000   701.25865     -6315627.1      194.3302       197.60772      198.76518      26.805836    
    257000   700.68027     -6315656.4      194.3302       197.60772      198.76518     -174.06472    
    258000   700.31804     -6315653.7      194.3302       197.60772      198.76518     -57.601024    
    259000   699.04323     -6315696.8      194.3302       197.60772      198.76518     -29.997644    
    260000   699.84052     -6315621.5      194.3302       197.60772      198.76518      116.29435    
    261000   700.05617     -6315557.9      194.3302       197.60772      198.76518     -68.507453    
    262000   699.875       -6315544.7      194.3302       197.60772      198.76518     -42.584901    
    263000   699.50924     -6315722.6      194.3302       197.60772      198.76518     -115.29537    
    264000   699.91206     -6315659.2      194.3302       197.60772      198.76518      21.830912    
    265000   700.21968     -6315633        194.3302       197.60772      198.76518     -148.65383    
    266000   700.73489     -6315569.9      194.3302       197.60772      198.76518     -147.70076    
    267000   700.49734     -6315761        194.3302       197.60772      198.76518     -264.02109    
    268000   699.0961      -6315688.1      194.3302       197.60772      198.76518     -152.34403    
    269000   699.33744     -6315686.4      194.3302       197.60772      198.76518     -165.46697    
    270000   700.11006     -6315755.5      194.3302       197.60772      198.76518     -110.11167    
    271000   699.38622     -6315731.7      194.3302       197.60772      198.76518     -60.751003    
    272000   699.25697     -6315692        194.3302       197.60772      198.76518     -106.63919    
    273000   700.55551     -6315650.7      194.3302       197.60772      198.76518     -32.513062    
    274000   698.38495     -6315848.7      194.3302       197.60772      198.76518     -90.6949      
    275000   699.91342     -6315589.1      194.3302       197.60772      198.76518      48.426814    
    276000   699.09443     -6315675.4      194.3302       197.60772      198.76518     -5.9166797    
    277000   700.6521      -6315672.4      194.3302       197.60772      198.76518     -97.215139    
    278000   699.1425      -6315740.7      194.3302       197.60772      198.76518     -78.722202    
    279000   699.13444     -6315790.1      194.3302       197.60772      198.76518     -103.19663    
    280000   699.38727     -6315793.4      194.3302       197.60772      198.76518     -126.46806    
    281000   699.98864     -6315586        194.3302       197.60772      198.76518      87.596362    
    282000   700.3563      -6315656.1      194.3302       197.60772      198.76518     -157.49623    
    283000   699.80687     -6315708.6      194.3302       197.60772      198.76518     -136.81669    
    284000   699.85164     -6315621.1      194.3302       197.60772      198.76518      3.7660293    
    285000   701.32678     -6315552.7      194.3302       197.60772      198.76518      38.592499    
    286000   699.90462     -6315719.6      194.3302       197.60772      198.76518     -112.93771    
    287000   700.53637     -6315647.7      194.3302       197.60772      198.76518     -5.4560847    
    288000   698.90138     -6315685.7      194.3302       197.60772      198.76518      67.352258    
    289000   700.58722     -6315591        194.3302       197.60772      198.76518     -51.626452    
    290000   698.54927     -6315781.1      194.3302       197.60772      198.76518     -72.216458    
    291000   699.43762     -6315701.8      194.3302       197.60772      198.76518     -139.97263    
    292000   699.54064     -6315672.1      194.3302       197.60772      198.76518     -149.96548    
    293000   700.02758     -6315815.7      194.3302       197.60772      198.76518     -185.39518    
    294000   699.78575     -6315729.8      194.3302       197.60772      198.76518      6.4834109    
    295000   700.8746      -6315630.4      194.3302       197.60772      198.76518     -50.661719    
    296000   701.48088     -6315615.4      194.3302       197.60772      198.76518     -36.997797    
    297000   700.77238     -6315674        194.3302       197.60772      198.76518      107.80425    
    298000   699.62048     -6315613.1      194.3302       197.60772      198.76518      28.413796    
    299000   699.30854     -6315739.1      194.3302       197.60772      198.76518     -125.89392    
    300000   699.43692     -6315706.5      194.3302       197.60772      198.76518     -55.166392    
    301000   699.57872     -6315701.7      194.3302       197.60772      198.76518     -150.28636    
    302000   699.4463      -6315737.3      194.3302       197.60772      198.76518      51.800616    
    303000   700.42842     -6315613.7      194.3302       197.60772      198.76518     -84.246033    
    304000   701.1809      -6315614.9      194.3302       197.60772      198.76518     -86.014041    
    305000   700.73665     -6315680.5      194.3302       197.60772      198.76518      3.615987     
    306000   698.89622     -6315746.5      194.3302       197.60772      198.76518     -88.301951    
    307000   700.50704     -6315646.8      194.3302       197.60772      198.76518     -3.4434626    
    308000   699.17883     -6315676        194.3302       197.60772      198.76518      76.305069    
    309000   700.51652     -6315623.8      194.3302       197.60772      198.76518     -48.84006     
    310000   701.06416     -6315593.4      194.3302       197.60772      198.76518     -19.178629    
    311000   700.62393     -6315699.9      194.3302       197.60772      198.76518     -53.320541    
    312000   699.08214     -6315791.6      194.3302       197.60772      198.76518     -138.92158    
    313000   698.49617     -6315844.7      194.3302       197.60772      198.76518     -187.635      
    314000   698.5398      -6315759.3      194.3302       197.60772      198.76518     -19.613831    
    315000   700.46658     -6315672.5      194.3302       197.60772      198.76518      0.45099131   
    316000   700.35332     -6315622.4      194.3302       197.60772      198.76518      66.30704     
    317000   699.19346     -6315707.1      194.3302       197.60772      198.76518     -32.483153    
    318000   699.39909     -6315737.6      194.3302       197.60772      198.76518     -106.15711    
    319000   699.19882     -6315777.8      194.3302       197.60772      198.76518     -0.0075801716 
    320000   700.6343      -6315623.5      194.3302       197.60772      198.76518      67.069216    
    321000   699.83138     -6315726.7      194.3302       197.60772      198.76518      173.47002    
    322000   700.84855     -6315589.5      194.3302       197.60772      198.76518      83.929136    
    323000   698.6469      -6315753.2      194.3302       197.60772      198.76518     -59.875471    
    324000   700.03602     -6315712.6      194.3302       197.60772      198.76518     -31.299592    
    325000   700.55654     -6315651.5      194.3302       197.60772      198.76518     -39.722467    
    326000   699.82468     -6315701.4      194.3302       197.60772      198.76518      46.512358    
    327000   700.31139     -6315656.3      194.3302       197.60772      198.76518     -5.2422262    
    328000   699.28554     -6315717.6      194.3302       197.60772      198.76518     -46.480844    
    329000   700.36572     -6315699.4      194.3302       197.60772      198.76518     -8.8336132    
    330000   700.07935     -6315613.6      194.3302       197.60772      198.76518      38.944066    
    331000   700.90872     -6315645        194.3302       197.60772      198.76518     -50.153076    
    332000   701.08369     -6315623.6      194.3302       197.60772      198.76518     -93.776183    
    333000   701.01009     -6315550        194.3302       197.60772      198.76518      111.54383    
    334000   698.53058     -6315733.6      194.3302       197.60772      198.76518      101.76268    
    335000   699.31306     -6315690.4      194.3302       197.60772      198.76518      4.0880939    
    336000   700.07877     -6315749.9      194.3302       197.60772      198.76518      12.251909    
    337000   700.20964     -6315758.9      194.3302       197.60772      198.76518     -93.665871    
    338000   701.17795     -6315676.7      194.3302       197.60772      198.76518      73.010164    
    339000   700.80438     -6315648.6      194.3302       197.60772      198.76518      45.317564    
    340000   699.83622     -6315786.7      194.3302       197.60772      198.76518     -22.398915    
    341000   699.85839     -6315775.6      194.3302       197.60772      198.76518     -114.95391    
    342000   699.17866     -6315897        194.3302       197.60772      198.76518     -79.7674      
    343000   699.9736      -6315619.4      194.3302       197.60772      198.76518     -28.632025    
    344000   699.91057     -6315730.3      194.3302       197.60772      198.76518     -2.184031     
    345000   700.3368      -6315614        194.3302       197.60772      198.76518     -22.317782    
    346000   698.68899     -6315671.1      194.3302       197.60772      198.76518      31.664406    
    347000   700.15441     -6315716.9      194.3302       197.60772      198.76518     -73.217315    
    348000   700.83893     -6315707.7      194.3302       197.60772      198.76518     -162.52598    
    349000   700.79982     -6315598.1      194.3302       197.60772      198.76518      23.163956    
    350000   700.33325     -6315695.7      194.3302       197.60772      198.76518      2.4474697    
    351000   699.00702     -6315870        194.3302       197.60772      198.76518     -60.926831    
    352000   700.82244     -6315671.9      194.3302       197.60772      198.76518      133.225      
    353000   699.2976      -6315746.4      194.3302       197.60772      198.76518     -53.915213    
    354000   698.99203     -6315731.9      194.3302       197.60772      198.76518     -31.131086    
    355000   700.70858     -6315638        194.3302       197.60772      198.76518     -14.406821    
    356000   700.39039     -6315655.5      194.3302       197.60772      198.76518      1.8724424    
    357000   699.86989     -6315793.4      194.3302       197.60772      198.76518      7.070394     
    358000   700.55465     -6315534.1      194.3302       197.60772      198.76518      136.58256    
    359000   700.63347     -6315524.3      194.3302       197.60772      198.76518      240.45234    
    360000   701.62951     -6315628.8      194.3302       197.60772      198.76518     -36.190851    
    361000   700.33988     -6315757.2      194.3302       197.60772      198.76518      9.3528668    
    362000   699.92455     -6315813.1      194.3302       197.60772      198.76518      22.557744    
    363000   698.82679     -6315712.8      194.3302       197.60772      198.76518     -71.204292    
    364000   699.83097     -6315611.6      194.3302       197.60772      198.76518      33.904119    
    365000   699.21421     -6315661.3      194.3302       197.60772      198.76518     -61.380895    
    366000   701.01735     -6315729.5      194.3302       197.60772      198.76518     -45.974663    
    367000   700.7821      -6315577.3      194.3302       197.60772      198.76518      58.969258    
    368000   700.2733      -6315675.9      194.3302       197.60772      198.76518     -9.9519979    
    369000   698.57107     -6315920.8      194.3302       197.60772      198.76518     -181.22709    
    370000   699.77794     -6315638        194.3302       197.60772      198.76518      8.1240729    
    371000   700.24364     -6315698.8      194.3302       197.60772      198.76518     -40.199442    
    372000   699.02548     -6315643.6      194.3302       197.60772      198.76518      25.438587    
    373000   701.34509     -6315587.1      194.3302       197.60772      198.76518     -8.6413669    
    374000   700.59797     -6315630.6      194.3302       197.60772      198.76518     -39.800975    
    375000   700.25489     -6315522.5      194.3302       197.60772      198.76518      96.706675    
    376000   700.16235     -6315732.4      194.3302       197.60772      198.76518     -24.831882    
    377000   700.13776     -6315633.7      194.3302       197.60772      198.76518     -20.914896    
    378000   701.19965     -6315621.7      194.3302       197.60772      198.76518     -104.39495    
    379000   698.81179     -6315825.2      194.3302       197.60772      198.76518     -115.74815    
    380000   699.40975     -6315698.7      194.3302       197.60772      198.76518      108.31092    
    381000   700.58431     -6315595.3      194.3302       197.60772      198.76518      169.93393    
    382000   699.94957     -6315770.9      194.3302       197.60772      198.76518     -10.829394    
    383000   700.25217     -6315601.7      194.3302       197.60772      198.76518      7.9570826    
    384000   700.59332     -6315573.6      194.3302       197.60772      198.76518      17.260657    
    385000   698.73086     -6315724.8      194.3302       197.60772      198.76518     -44.392223    
    386000   699.85739     -6315729.5      194.3302       197.60772      198.76518     -111.42566    
    387000   700.09096     -6315680.4      194.3302       197.60772      198.76518     -54.238021    
    388000   700.20438     -6315673        194.3302       197.60772      198.76518     -117.2214     
    389000   699.72799     -6315595.8      194.3302       197.60772      198.76518     -41.302227    
    390000   700.03597     -6315678.5      194.3302       197.60772      198.76518     -155.41737    
    391000   701.63296     -6315507.9      194.3302       197.60772      198.76518     -121.66135    
    392000   700.5239      -6315691.2      194.3302       197.60772      198.76518     -28.271949    
    393000   699.9902      -6315674.5      194.3302       197.60772      198.76518      0.47077977   
    394000   699.36407     -6315619.1      194.3302       197.60772      198.76518     -33.080427    
    395000   700.08513     -6315622.3      194.3302       197.60772      198.76518      1.1940574    
    396000   700.52839     -6315675        194.3302       197.60772      198.76518      35.536782    
    397000   700.11633     -6315810.3      194.3302       197.60772      198.76518     -110.11439    
    398000   699.5232      -6315742.4      194.3302       197.60772      198.76518     -27.8376      
    399000   699.95988     -6315721.4      194.3302       197.60772      198.76518     -99.544167    
    400000   698.79812     -6315751        194.3302       197.60772      198.76518     -61.659362    
    401000   699.09046     -6315789.3      194.3302       197.60772      198.76518     -36.325432    
    402000   701.42335     -6315565.4      194.3302       197.60772      198.76518     -25.205033    
    403000   701.26579     -6315616.5      194.3302       197.60772      198.76518      5.9877053    
    404000   698.72191     -6315813.1      194.3302       197.60772      198.76518      15.856116    
    405000   700.57715     -6315688.1      194.3302       197.60772      198.76518      45.275826    
    406000   699.02416     -6315786.9      194.3302       197.60772      198.76518     -80.992416    
    407000   700.51696     -6315645.7      194.3302       197.60772      198.76518     -37.529923    
    408000   699.00655     -6315818.1      194.3302       197.60772      198.76518     -21.712985    
    409000   701.38023     -6315584.8      194.3302       197.60772      198.76518     -27.96687     
    410000   700.46693     -6315685.2      194.3302       197.60772      198.76518     -194.19404    
    411000   701.14714     -6315517.5      194.3302       197.60772      198.76518      88.617946    
    412000   699.82752     -6315670.4      194.3302       197.60772      198.76518     -32.299516    
    413000   700.83576     -6315627.2      194.3302       197.60772      198.76518     -42.361246    
    414000   700.39546     -6315594.1      194.3302       197.60772      198.76518     -145.04698    
    415000   699.78916     -6315729.3      194.3302       197.60772      198.76518     -168.66494    
    416000   699.88048     -6315658.7      194.3302       197.60772      198.76518     -133.26689    
    417000   700.21582     -6315659.6      194.3302       197.60772      198.76518      13.37823     
    418000   698.68877     -6315731.4      194.3302       197.60772      198.76518     -60.05903     
    419000   700.08928     -6315692.3      194.3302       197.60772      198.76518      47.273671    
    420000   699.13037     -6315730.3      194.3302       197.60772      198.76518     -24.37942     
    421000   699.5137      -6315741.9      194.3302       197.60772      198.76518      31.997426    
    422000   699.53238     -6315760.9      194.3302       197.60772      198.76518     -28.422085    
    423000   700.56792     -6315755.9      194.3302       197.60772      198.76518      102.96109    
    424000   699.27135     -6315707.4      194.3302       197.60772      198.76518      26.779312    
    425000   700.89974     -6315678.8      194.3302       197.60772      198.76518      6.1350095    
    426000   698.71545     -6315718.1      194.3302       197.60772      198.76518      41.676308    
    427000   699.3821      -6315605.5      194.3302       197.60772      198.76518      60.713539    
    428000   698.65858     -6315757.7      194.3302       197.60772      198.76518      11.88426     
    429000   700.8791      -6315696        194.3302       197.60772      198.76518     -4.5224493    
    430000   700.52966     -6315666.2      194.3302       197.60772      198.76518      8.3961755    
    431000   699.07118     -6315761.4      194.3302       197.60772      198.76518     -83.42742     
    432000   699.91069     -6315678        194.3302       197.60772      198.76518     -24.182224    
    433000   699.99421     -6315701.8      194.3302       197.60772      198.76518     -4.1504729    
    434000   699.2312      -6315711.9      194.3302       197.60772      198.76518      10.919182    
    435000   700.6279      -6315611.3      194.3302       197.60772      198.76518     -58.84804     
    436000   700.17009     -6315664.2      194.3302       197.60772      198.76518     -25.680704    
    437000   701.51531     -6315611.8      194.3302       197.60772      198.76518     -87.245831    
    438000   700.2388      -6315757.2      194.3302       197.60772      198.76518     -122.35252    
    439000   700.88449     -6315744.2      194.3302       197.60772      198.76518     -30.500914    
    440000   699.45772     -6315730.3      194.3302       197.60772      198.76518      35.660936    
    441000   700.70136     -6315533.7      194.3302       197.60772      198.76518     -109.11292    
    442000   700.07722     -6315572.3      194.3302       197.60772      198.76518      55.36224     
    443000   700.07705     -6315669.2      194.3302       197.60772      198.76518      1.4087689    
    444000   699.54662     -6315610.1      194.3302       197.60772      198.76518      130.54072    
    445000   699.8149      -6315691.2      194.3302       197.60772      198.76518      11.479972    
    446000   700.31014     -6315605.7      194.3302       197.60772      198.76518      67.506936    
    447000   700.60047     -6315624.2      194.3302       197.60772      198.76518      28.871652    
    448000   699.18219     -6315761.2      194.3302       197.60772      198.76518     -94.858129    
    449000   699.58555     -6315766.7      194.3302       197.60772      198.76518     -99.572995    
    450000   701.32915     -6315589.1      194.3302       197.60772      198.76518      48.679472    
    451000   700.0495      -6315725.3      194.3302       197.60772      198.76518     -69.895972    
    452000   699.17943     -6315683.8      194.3302       197.60772      198.76518     -19.701838    
    453000   698.62158     -6315799.7      194.3302       197.60772      198.76518     -133.25007    
    454000   701.12949     -6315547        194.3302       197.60772      198.76518      67.80085     
    455000   700.78441     -6315583.1      194.3302       197.60772      198.76518      46.039614    
    456000   699.90211     -6315755.9      194.3302       197.60772      198.76518     -53.251705    
    457000   700.22061     -6315606.4      194.3302       197.60772      198.76518      27.827029    
    458000   700.44376     -6315766.8      194.3302       197.60772      198.76518     -106.27679    
    459000   700.58422     -6315645.4      194.3302       197.60772      198.76518      21.70123     
    460000   699.35275     -6315765.8      194.3302       197.60772      198.76518      44.073847    
    461000   699.41759     -6315679.6      194.3302       197.60772      198.76518      130.12263    
    462000   698.38465     -6315809.4      194.3302       197.60772      198.76518     -10.781413    
    463000   700.24697     -6315623.5      194.3302       197.60772      198.76518      76.967443    
    464000   700.77604     -6315727.6      194.3302       197.60772      198.76518     -75.379849    
    465000   700.04962     -6315780.6      194.3302       197.60772      198.76518     -66.352307    
    466000   700.74312     -6315639.6      194.3302       197.60772      198.76518      31.600118    
    467000   700.33896     -6315706.7      194.3302       197.60772      198.76518     -46.455527    
    468000   699.57523     -6315730.9      194.3302       197.60772      198.76518     -141.05387    
    469000   699.35408     -6315711        194.3302       197.60772      198.76518      4.9062818    
    470000   699.07479     -6315651.8      194.3302       197.60772      198.76518      35.568668    
    471000   700.73672     -6315598.8      194.3302       197.60772      198.76518     -19.122716    
    472000   699.92718     -6315719.3      194.3302       197.60772      198.76518      51.297191    
    473000   699.99949     -6315673        194.3302       197.60772      198.76518      104.70428    
    474000   699.10709     -6315828.7      194.3302       197.60772      198.76518     -50.040651    
    475000   699.5163      -6315631.2      194.3302       197.60772      198.76518      94.19702     
    476000   698.40706     -6315840.4      194.3302       197.60772      198.76518      109.79842    
    477000   700.80862     -6315614        194.3302       197.60772      198.76518      107.5466     
    478000   700.77951     -6315621        194.3302       197.60772      198.76518      63.546192    
    479000   699.83083     -6315680.3      194.3302       197.60772      198.76518     -42.974443    
    480000   700.233       -6315612.4      194.3302       197.60772      198.76518      26.541832    
    481000   699.55963     -6315764.8      194.3302       197.60772      198.76518      61.408211    
    482000   699.19838     -6315693.8      194.3302       197.60772      198.76518      36.189989    
    483000   701.4778      -6315542        194.3302       197.60772      198.76518      80.862241    
    484000   698.52638     -6315922.7      194.3302       197.60772      198.76518     -4.0250254    
    485000   701.06836     -6315627        194.3302       197.60772      198.76518      92.628589    
    486000   700.67356     -6315528.9      194.3302       197.60772      198.76518      98.209695    
    487000   700.42401     -6315734.7      194.3302       197.60772      198.76518     -73.224607    
    488000   700.75831     -6315598.3      194.3302       197.60772      198.76518      17.712893    
    489000   701.77193     -6315531.6      194.3302       197.60772      198.76518      7.9081408    
    490000   701.18358     -6315604.7      194.3302       197.60772      198.76518      64.762663    
    491000   700.49243     -6315649.3      194.3302       197.60772      198.76518      45.361577    
    492000   700.19839     -6315650.4      194.3302       197.60772      198.76518     -30.45954     
    493000   699.19622     -6315793.4      194.3302       197.60772      198.76518     -21.427768    
    494000   699.83656     -6315693.9      194.3302       197.60772      198.76518     -115.30938    
    495000   699.29609     -6315781.4      194.3302       197.60772      198.76518     -36.171135    
    496000   701.18775     -6315622.2      194.3302       197.60772      198.76518      103.15798    
    497000   699.34122     -6315662.7      194.3302       197.60772      198.76518     -18.870426    
    498000   699.86156     -6315655        194.3302       197.60772      198.76518     -55.211032    
    499000   701.08404     -6315611.1      194.3302       197.60772      198.76518      24.507992    
    500000   699.58903     -6315687.4      194.3302       197.60772      198.76518      80.036656    
    501000   699.26246     -6315738.9      194.3302       197.60772      198.76518      105.83784    
    502000   698.79519     -6315777.2      194.3302       197.60772      198.76518     -47.178305    
    503000   700.01546     -6315820.7      194.3302       197.60772      198.76518     -64.417244    
    504000   700.23972     -6315655.1      194.3302       197.60772      198.76518     -78.485585    
    505000   699.77419     -6315708.2      194.3302       197.60772      198.76518     -43.40246     
    506000   700.13306     -6315791.9      194.3302       197.60772      198.76518     -78.66859     
    507000   700.50652     -6315704        194.3302       197.60772      198.76518     -162.01013    
    508000   701.95383     -6315554.3      194.3302       197.60772      198.76518     -132.74552    
    509000   700.06571     -6315667.2      194.3302       197.60772      198.76518     -25.375773    
    510000   699.98786     -6315767.3      194.3302       197.60772      198.76518     -145.93535    
    511000   699.97135     -6315624.1      194.3302       197.60772      198.76518     -81.627421    
    512000   699.7787      -6315742.4      194.3302       197.60772      198.76518     -205.38385    
    513000   700.87342     -6315690.4      194.3302       197.60772      198.76518     -27.032359    
    514000   699.01455     -6315756.7      194.3302       197.60772      198.76518     -194.80297    
    515000   699.83649     -6315734.5      194.3302       197.60772      198.76518     -149.33112    
    516000   700.01559     -6315680.2      194.3302       197.60772      198.76518     -15.695937    
    517000   699.60023     -6315695.9      194.3302       197.60772      198.76518      44.184332    
    518000   698.92171     -6315840.2      194.3302       197.60772      198.76518      9.4946538    
    519000   699.80885     -6315697.8      194.3302       197.60772      198.76518      74.543948    
    520000   700.26249     -6315676.6      194.3302       197.60772      198.76518      47.511014    
    521000   699.64258     -6315732.4      194.3302       197.60772      198.76518      94.7151      
    522000   699.11628     -6315857.5      194.3302       197.60772      198.76518      65.184842    
    523000   699.79667     -6315728.5      194.3302       197.60772      198.76518     -0.72130906   
    524000   699.69267     -6315804.3      194.3302       197.60772      198.76518     -136.51447    
    525000   699.91709     -6315784.4      194.3302       197.60772      198.76518     -157.25549    
    526000   700.10283     -6315681.8      194.3302       197.60772      198.76518     -16.898232    
    527000   699.73732     -6315850.6      194.3302       197.60772      198.76518     -19.170592    
    528000   699.97247     -6315806.9      194.3302       197.60772      198.76518     -6.0115409    
    529000   700.57922     -6315706        194.3302       197.60772      198.76518     -174.99695    
    530000   700.11393     -6315719.3      194.3302       197.60772      198.76518     -1.9723546    
    531000   699.00595     -6315765.3      194.3302       197.60772      198.76518     -163.04341    
    532000   699.93423     -6315639.8      194.3302       197.60772      198.76518     -11.194511    
    533000   699.81135     -6315700.8      194.3302       197.60772      198.76518      72.838867    
    534000   699.8246      -6315810.8      194.3302       197.60772      198.76518     -1.6213152    
    535000   699.95246     -6315741.7      194.3302       197.60772      198.76518     -27.159255    
    536000   698.8334      -6315757.8      194.3302       197.60772      198.76518      30.654488    
    537000   699.81307     -6315647.9      194.3302       197.60772      198.76518     -21.75618     
    538000   699.48495     -6315761.8      194.3302       197.60772      198.76518     -62.258773    
    539000   700.74706     -6315732.9      194.3302       197.60772      198.76518     -78.005264    
    540000   698.54909     -6315842.9      194.3302       197.60772      198.76518     -58.518867    
    541000   700.59179     -6315707.4      194.3302       197.60772      198.76518      31.518195    
    542000   700.33149     -6315726.8      194.3302       197.60772      198.76518     -161.07757    
    543000   699.53426     -6315668        194.3302       197.60772      198.76518     -66.465781    
    544000   700.79571     -6315628.1      194.3302       197.60772      198.76518     -80.047961    
    545000   700.09476     -6315643.6      194.3302       197.60772      198.76518     -93.130203    
    546000   700.64162     -6315750        194.3302       197.60772      198.76518     -172.73351    
    547000   701.02365     -6315569.4      194.3302       197.60772      198.76518      46.095691    
    548000   701.44049     -6315582.8      194.3302       197.60772      198.76518      76.603748    
    549000   700.64317     -6315665.6      194.3302       197.60772      198.76518     -62.092118    
    550000   700.51842     -6315623.2      194.3302       197.60772      198.76518     -88.911017    
    551000   699.58565     -6315758.8      194.3302       197.60772      198.76518     -143.58515    
    552000   699.3021      -6315686.2      194.3302       197.60772      198.76518     -14.681508    
    553000   699.89819     -6315680.1      194.3302       197.60772      198.76518     -117.63546    
    554000   700.00267     -6315662.5      194.3302       197.60772      198.76518     -46.132438    
    555000   701.25039     -6315584.9      194.3302       197.60772      198.76518     -122.34504    
    556000   698.02772     -6315877.2      194.3302       197.60772      198.76518     -47.711995    
    557000   699.64535     -6315817.8      194.3302       197.60772      198.76518     -49.378406    
    558000   700.30488     -6315665.7      194.3302       197.60772      198.76518     -78.204155    
    559000   700.03086     -6315722.8      194.3302       197.60772      198.76518     -15.388861    
    560000   701.46393     -6315661.8      194.3302       197.60772      198.76518     -23.388827    
    561000   700.7743      -6315667.9      194.3302       197.60772      198.76518     -57.156747    
    562000   700.79695     -6315733.8      194.3302       197.60772      198.76518     -156.5204     
    563000   700.03724     -6315644.7      194.3302       197.60772      198.76518     -126.80226    
    564000   699.94463     -6315742.8      194.3302       197.60772      198.76518     -94.504482    
    565000   699.43914     -6315752.2      194.3302       197.60772      198.76518     -221.37033    
    566000   698.66495     -6315739.4      194.3302       197.60772      198.76518     -103.14554    
    567000   697.80504     -6315905.3      194.3302       197.60772      198.76518     -173.14792    
    568000   699.96253     -6315738.7      194.3302       197.60772      198.76518     -96.246795    
    569000   699.26205     -6315843.1      194.3302       197.60772      198.76518     -165.65837    
    570000   700.03922     -6315704.4      194.3302       197.60772      198.76518     -114.85362    
    571000   701.00234     -6315710        194.3302       197.60772      198.76518     -224.49001    
    572000   699.92369     -6315779.5      194.3302       197.60772      198.76518     -119.54635    
    573000   700.11231     -6315742.8      194.3302       197.60772      198.76518     -124.98738    
    574000   699.77378     -6315642.2      194.3302       197.60772      198.76518      34.869008    
    575000   699.42116     -6315647.5      194.3302       197.60772      198.76518     -37.116329    
    576000   699.52989     -6315780.4      194.3302       197.60772      198.76518     -105.51127    
    577000   699.76223     -6315617.5      194.3302       197.60772      198.76518      129.263      
    578000   700.87471     -6315754.9      194.3302       197.60772      198.76518     -93.174134    
    579000   699.01658     -6315797.7      194.3302       197.60772      198.76518     -73.203639    
    580000   699.53784     -6315657.6      194.3302       197.60772      198.76518     -2.2159794    
    581000   699.78211     -6315711.3      194.3302       197.60772      198.76518     -78.043433    
    582000   700.94681     -6315622.7      194.3302       197.60772      198.76518     -146.2264     
    583000   699.30399     -6315762.9      194.3302       197.60772      198.76518     -21.312071    
    584000   700.04392     -6315678.9      194.3302       197.60772      198.76518      40.033094    
    585000   698.9816      -6315721.6      194.3302       197.60772      198.76518      2.9745041    
    586000   700.67144     -6315705.2      194.3302       197.60772      198.76518      31.624452    
    587000   699.77415     -6315737.6      194.3302       197.60772      198.76518     -109.92146    
    588000   700.59858     -6315689.6      194.3302       197.60772      198.76518     -135.99403    
    589000   700.13393     -6315829.5      194.3302       197.60772      198.76518     -77.485663    
    590000   701.49653     -6315509.1      194.3302       197.60772      198.76518      49.90183     
    591000   698.85486     -6315783.4      194.3302       197.60772      198.76518     -21.243357    
    592000   700.1206      -6315812.1      194.3302       197.60772      198.76518     -87.192485    
    593000   699.95225     -6315708.3      194.3302       197.60772      198.76518     -36.448344    
    594000   699.90225     -6315894.5      194.3302       197.60772      198.76518     -151.56232    
    595000   700.40735     -6315649.8      194.3302       197.60772      198.76518     -79.600315    
    596000   699.56756     -6315761.9      194.3302       197.60772      198.76518     -88.79575     
    597000   699.24801     -6315768.2      194.3302       197.60772      198.76518     -8.0830301    
    598000   700.5203      -6315683        194.3302       197.60772      198.76518      15.114717    
    599000   698.77193     -6315822.7      194.3302       197.60772      198.76518      41.398099    
    600000   699.15094     -6315742.1      194.3302       197.60772      198.76518     -62.759191    
    601000   699.74156     -6315790.8      194.3302       197.60772      198.76518      82.721559    
    602000   701.30037     -6315584.1      194.3302       197.60772      198.76518      224.05578    
    603000   699.88021     -6315794.8      194.3302       197.60772      198.76518      83.701848    
    604000   700.89117     -6315748.3      194.3302       197.60772      198.76518     -7.9286664    
    605000   700.50668     -6315767.2      194.3302       197.60772      198.76518      22.654059    
    606000   701.00619     -6315644.1      194.3302       197.60772      198.76518     -74.098633    
    607000   700.80492     -6315676.9      194.3302       197.60772      198.76518     -37.963372    
    608000   700.28465     -6315682.4      194.3302       197.60772      198.76518      53.950113    
    609000   700.07227     -6315641.5      194.3302       197.60772      198.76518      124.07756    
    610000   699.12421     -6315783.1      194.3302       197.60772      198.76518      72.224887    
    611000   699.55571     -6315694.9      194.3302       197.60772      198.76518     -72.353517    
    612000   701.55487     -6315593.7      194.3302       197.60772      198.76518     -77.905076    
    613000   700.04628     -6315737        194.3302       197.60772      198.76518     -12.820004    
    614000   700.55482     -6315589.5      194.3302       197.60772      198.76518     -100.63127    
    615000   699.41952     -6315747.2      194.3302       197.60772      198.76518     -34.95574     
    616000   701.15086     -6315588.1      194.3302       197.60772      198.76518      78.323438    
    617000   700.64095     -6315686.3      194.3302       197.60772      198.76518     -73.680148    
    618000   700.44257     -6315761.7      194.3302       197.60772      198.76518     -87.833803    
    619000   698.33675     -6315882.2      194.3302       197.60772      198.76518     -79.994785    
    620000   698.90707     -6315807.9      194.3302       197.60772      198.76518     -55.428266    
    621000   699.28598     -6315756        194.3302       197.60772      198.76518     -66.05384     
    622000   700.03306     -6315634.7      194.3302       197.60772      198.76518      108.95586    
    623000   699.97833     -6315718.2      194.3302       197.60772      198.76518     -44.139999    
    624000   699.36641     -6315621.3      194.3302       197.60772      198.76518      87.787281    
    625000   698.66179     -6315780.2      194.3302       197.60772      198.76518     -149.22035    
    626000   700.23631     -6315704.6      194.3302       197.60772      198.76518      16.728122    
    627000   699.27346     -6315629.8      194.3302       197.60772      198.76518     -66.162556    
    628000   697.95897     -6315908.8      194.3302       197.60772      198.76518     -46.192245    
    629000   700.14618     -6315801        194.3302       197.60772      198.76518     -108.49631    
    630000   698.64651     -6315924.3      194.3302       197.60772      198.76518     -138.29707    
    631000   699.62642     -6315805.1      194.3302       197.60772      198.76518     -93.514966    
    632000   700.55637     -6315658.9      194.3302       197.60772      198.76518     -192.368      
    633000   698.601       -6315781.6      194.3302       197.60772      198.76518     -185.45848    
    634000   699.98435     -6315793.5      194.3302       197.60772      198.76518     -34.873206    
    635000   700.41314     -6315647.7      194.3302       197.60772      198.76518     -51.302925    
    636000   700.89761     -6315643        194.3302       197.60772      198.76518     -58.10248     
    637000   698.61878     -6315779.1      194.3302       197.60772      198.76518     -86.187179    
    638000   700.24649     -6315700.4      194.3302       197.60772      198.76518     -19.293543    
    639000   699.49609     -6315796.9      194.3302       197.60772      198.76518      26.650075    
    640000   699.30056     -6315796.6      194.3302       197.60772      198.76518     -25.444564    
    641000   699.69308     -6315726.6      194.3302       197.60772      198.76518      58.894942    
    642000   699.85431     -6315706.3      194.3302       197.60772      198.76518      40.266772    
    643000   700.05931     -6315697.4      194.3302       197.60772      198.76518      78.713557    
    644000   700.45363     -6315702.8      194.3302       197.60772      198.76518      20.973223    
    645000   698.73118     -6315858.7      194.3302       197.60772      198.76518     -108.21089    
    646000   700.62896     -6315668.8      194.3302       197.60772      198.76518     -12.074953    
    647000   700.55934     -6315651.3      194.3302       197.60772      198.76518     -156.98467    
    648000   699.49208     -6315754.5      194.3302       197.60772      198.76518     -68.400047    
    649000   700.22666     -6315707.7      194.3302       197.60772      198.76518     -48.283757    
    650000   699.54384     -6315821.3      194.3302       197.60772      198.76518      9.4090625    
    651000   701.65046     -6315550.6      194.3302       197.60772      198.76518      58.915326    
    652000   699.40991     -6315839.9      194.3302       197.60772      198.76518     -143.76719    
    653000   700.1267      -6315739.3      194.3302       197.60772      198.76518     -40.828643    
    654000   700.64952     -6315701.5      194.3302       197.60772      198.76518     -119.53652    
    655000   700.55765     -6315618.5      194.3302       197.60772      198.76518      25.92494     
    656000   700.708       -6315644.9      194.3302       197.60772      198.76518     -62.280789    
    657000   700.59943     -6315688.7      194.3302       197.60772      198.76518     -111.54213    
    658000   699.6535      -6315732.2      194.3302       197.60772      198.76518     -90.395471    
    659000   700.02233     -6315713.9      194.3302       197.60772      198.76518     -8.7877099    
    660000   699.54809     -6315736.9      194.3302       197.60772      198.76518      1.528824     
    661000   701.12969     -6315584.5      194.3302       197.60772      198.76518     -44.987262    
    662000   699.482       -6315720.6      194.3302       197.60772      198.76518     -49.501443    
    663000   699.73701     -6315792.7      194.3302       197.60772      198.76518     -119.35885    
    664000   700.51152     -6315770.7      194.3302       197.60772      198.76518     -72.951144    
    665000   700.3236      -6315722.7      194.3302       197.60772      198.76518      2.992056     
    666000   700.24292     -6315725        194.3302       197.60772      198.76518      21.096133    
    667000   698.84264     -6315879.8      194.3302       197.60772      198.76518     -20.908008    
    668000   700.69711     -6315630.9      194.3302       197.60772      198.76518     -194.4494     
    669000   699.64296     -6315748.1      194.3302       197.60772      198.76518     -34.601739    
    670000   701.24827     -6315604.1      194.3302       197.60772      198.76518     -18.942357    
    671000   700.66564     -6315767.2      194.3302       197.60772      198.76518      15.131511    
    672000   699.77434     -6315624.4      194.3302       197.60772      198.76518     -54.588485    
    673000   698.85741     -6315805.1      194.3302       197.60772      198.76518     -89.987805    
    674000   699.66553     -6315858.3      194.3302       197.60772      198.76518     -149.89216    
    675000   700.99189     -6315586.1      194.3302       197.60772      198.76518      1.7362788    
    676000   700.96315     -6315670.4      194.3302       197.60772      198.76518     -176.78862    
    677000   701.01669     -6315671.1      194.3302       197.60772      198.76518      25.295288    
    678000   699.85278     -6315640.6      194.3302       197.60772      198.76518     -4.8557625    
    679000   699.13119     -6315822.5      194.3302       197.60772      198.76518     -163.38383    
    680000   700.68409     -6315630        194.3302       197.60772      198.76518     -75.623908    
    681000   701.56297     -6315661.1      194.3302       197.60772      198.76518     -23.027825    
    682000   700.07911     -6315748.6      194.3302       197.60772      198.76518     -73.574487    
    683000   698.93538     -6315919.8      194.3302       197.60772      198.76518     -84.454895    
    684000   700.71514     -6315681.3      194.3302       197.60772      198.76518     -75.272159    
    685000   700.65319     -6315685.4      194.3302       197.60772      198.76518     -47.979367    
    686000   701.7358      -6315577.1      194.3302       197.60772      198.76518     -190.15478    
    687000   699.03701     -6315713.3      194.3302       197.60772      198.76518     -80.194337    
    688000   698.93211     -6315734.4      194.3302       197.60772      198.76518     -113.44907    
    689000   699.57576     -6315695.5      194.3302       197.60772      198.76518     -83.747108    
    690000   700.54799     -6315725.1      194.3302       197.60772      198.76518     -209.91228    
    691000   699.58962     -6315751.6      194.3302       197.60772      198.76518     -116.66683    
    692000   701.49265     -6315663.8      194.3302       197.60772      198.76518      39.863646    
    693000   699.52957     -6315754.7      194.3302       197.60772      198.76518     -131.29768    
    694000   700.26717     -6315751.7      194.3302       197.60772      198.76518     -11.601888    
    695000   698.28816     -6315824        194.3302       197.60772      198.76518      55.659029    
    696000   700.074       -6315737.4      194.3302       197.60772      198.76518     -66.620006    
    697000   700.92644     -6315710.4      194.3302       197.60772      198.76518     -56.851065    
    698000   700.44172     -6315763.6      194.3302       197.60772      198.76518     -76.345517    
    699000   700.07241     -6315645.5      194.3302       197.60772      198.76518      32.768092    
    700000   701.364       -6315596.9      194.3302       197.60772      198.76518     -9.9716942    
    701000   699.56555     -6315674        194.3302       197.60772      198.76518     -60.362844    
    702000   700.59578     -6315670.6      194.3302       197.60772      198.76518     -44.899001    
    703000   699.16346     -6315795.5      194.3302       197.60772      198.76518     -51.005689    
    704000   700.25015     -6315772.4      194.3302       197.60772      198.76518     -74.296585    
    705000   699.80566     -6315755.3      194.3302       197.60772      198.76518     -8.360284     
    706000   699.02154     -6315827.1      194.3302       197.60772      198.76518     -132.96932    
    707000   700.41195     -6315660.6      194.3302       197.60772      198.76518     -54.031358    
    708000   699.8148      -6315829.5      194.3302       197.60772      198.76518      68.702547    
    709000   699.38944     -6315795.6      194.3302       197.60772      198.76518      49.442143    
    710000   699.91056     -6315718        194.3302       197.60772      198.76518      59.805422    
    711000   699.45065     -6315855.4      194.3302       197.60772      198.76518     -21.692514    
    712000   701.2356      -6315617.9      194.3302       197.60772      198.76518     -26.497513    
    713000   699.40103     -6315783.1      194.3302       197.60772      198.76518     -123.84302    
    714000   700.0811      -6315708.8      194.3302       197.60772      198.76518      4.7776595    
    715000   700.06602     -6315782.5      194.3302       197.60772      198.76518      18.96263     
    716000   700.42867     -6315718.9      194.3302       197.60772      198.76518     -139.52823    
    717000   698.72666     -6315794.9      194.3302       197.60772      198.76518     -59.441447    
    718000   698.48857     -6315838.3      194.3302       197.60772      198.76518     -124.65282    
    719000   698.35656     -6315811.6      194.3302       197.60772      198.76518      15.739218    
    720000   699.47772     -6315646.7      194.3302       197.60772      198.76518     -33.780988    
    721000   700.73596     -6315666.2      194.3302       197.60772      198.76518     -65.210098    
    722000   699.51018     -6315764        194.3302       197.60772      198.76518     -30.51535     
    723000   700.29067     -6315720.4      194.3302       197.60772      198.76518      85.518931    
    724000   699.97549     -6315770        194.3302       197.60772      198.76518     -118.03856    
    725000   699.33582     -6315738.8      194.3302       197.60772      198.76518      20.437513    
    726000   700.58028     -6315748.2      194.3302       197.60772      198.76518     -170.19167    
    727000   700.71277     -6315625.4      194.3302       197.60772      198.76518      38.546521    
    728000   699.11151     -6315661.3      194.3302       197.60772      198.76518      8.2722522    
    729000   701.6595      -6315555.3      194.3302       197.60772      198.76518      34.807417    
    730000   698.76667     -6315845.7      194.3302       197.60772      198.76518     -117.59683    
    731000   700.326       -6315762.4      194.3302       197.60772      198.76518     -102.73431    
    732000   699.47268     -6315724.1      194.3302       197.60772      198.76518     -97.059578    
    733000   699.46074     -6315844.2      194.3302       197.60772      198.76518     -16.23125     
    734000   699.06934     -6315866.6      194.3302       197.60772      198.76518     -111.61103    
    735000   702.07365     -6315576.2      194.3302       197.60772      198.76518      54.841778    
    736000   699.56889     -6315769.7      194.3302       197.60772      198.76518      37.684773    
    737000   699.64526     -6315647.1      194.3302       197.60772      198.76518      4.3479       
    738000   700.98022     -6315763.7      194.3302       197.60772      198.76518     -28.921745    
    739000   698.46474     -6315853.9      194.3302       197.60772      198.76518      22.573954    
    740000   700.02178     -6315740.3      194.3302       197.60772      198.76518      177.00206    
    741000   701.30359     -6315617.6      194.3302       197.60772      198.76518     -1.4799798    
    742000   699.19125     -6315784.9      194.3302       197.60772      198.76518      4.8596937    
    743000   699.59754     -6315653.6      194.3302       197.60772      198.76518      149.9289     
    744000   701.34636     -6315691.4      194.3302       197.60772      198.76518     -174.30688    
    745000   701.66245     -6315635        194.3302       197.60772      198.76518      45.171792    
    746000   699.85626     -6315776.7      194.3302       197.60772      198.76518     -5.8455014    
    747000   701.28487     -6315553.2      194.3302       197.60772      198.76518      44.05183     
    748000   700.09456     -6315691        194.3302       197.60772      198.76518     -1.5529821    
    749000   702.25061     -6315632.7      194.3302       197.60772      198.76518     -24.05974     
    750000   701.40547     -6315523.3      194.3302       197.60772      198.76518      9.3538648    
    751000   700.54523     -6315708.2      194.3302       197.60772      198.76518     -90.890672    
    752000   699.86949     -6315651.6      194.3302       197.60772      198.76518      15.364754    
    753000   701.46099     -6315622.3      194.3302       197.60772      198.76518      29.504598    
    754000   700.80688     -6315549.1      194.3302       197.60772      198.76518     -30.00617     
    755000   699.7334      -6315787.2      194.3302       197.60772      198.76518     -122.00956    
    756000   699.11479     -6315744.6      194.3302       197.60772      198.76518      42.782428    
    757000   699.73746     -6315871.7      194.3302       197.60772      198.76518     -19.46321     
    758000   701.26544     -6315628.1      194.3302       197.60772      198.76518      47.070745    
    759000   699.24664     -6315771.9      194.3302       197.60772      198.76518     -10.107257    
    760000   700.61825     -6315826.5      194.3302       197.60772      198.76518      34.856438    
    761000   700.18602     -6315742.4      194.3302       197.60772      198.76518      61.203246    
    762000   699.16656     -6315732.5      194.3302       197.60772      198.76518      73.382067    
    763000   700.43685     -6315514.2      194.3302       197.60772      198.76518      175.18835    
    764000   700.18626     -6315674.3      194.3302       197.60772      198.76518     -2.3654105    
    765000   701.46253     -6315641.6      194.3302       197.60772      198.76518      11.756032    
    766000   700.40915     -6315796.8      194.3302       197.60772      198.76518     -120.39137    
    767000   699.72674     -6315909.2      194.3302       197.60772      198.76518     -89.13429     
    768000   700.34905     -6315578.7      194.3302       197.60772      198.76518     -0.083303404  
    769000   699.65149     -6315786.1      194.3302       197.60772      198.76518      4.9287073    
    770000   699.95412     -6315692.8      194.3302       197.60772      198.76518     -100.14876    
    771000   700.21401     -6315788.7      194.3302       197.60772      198.76518     -74.537543    
    772000   700.75336     -6315688.6      194.3302       197.60772      198.76518     -31.519585    
    773000   700.41096     -6315655        194.3302       197.60772      198.76518     -52.352305    
    774000   699.82376     -6315858.6      194.3302       197.60772      198.76518     -144.78525    
    775000   699.9075      -6315766.8      194.3302       197.60772      198.76518     -128.28243    
    776000   699.71795     -6315687.4      194.3302       197.60772      198.76518      114.30711    
    777000   699.98069     -6315694.1      194.3302       197.60772      198.76518      15.669054    
    778000   700.15816     -6315682.2      194.3302       197.60772      198.76518     -51.579918    
    779000   699.71078     -6315771.3      194.3302       197.60772      198.76518      113.933      
    780000   698.70334     -6315880.2      194.3302       197.60772      198.76518      6.5491709    
    781000   699.62001     -6315716.1      194.3302       197.60772      198.76518      20.340535    
    782000   700.17408     -6315704.3      194.3302       197.60772      198.76518     -5.9471956    
    783000   699.70566     -6315758.6      194.3302       197.60772      198.76518      95.132683    
    784000   700.35882     -6315662.3      194.3302       197.60772      198.76518     -44.957137    
    785000   701.2221      -6315601.7      194.3302       197.60772      198.76518     -66.310519    
    786000   700.32768     -6315767.4      194.3302       197.60772      198.76518     -186.42863    
    787000   700.00732     -6315725.5      194.3302       197.60772      198.76518      18.510496    
    788000   700.76474     -6315617.3      194.3302       197.60772      198.76518      8.7829023    
    789000   700.3865      -6315761.8      194.3302       197.60772      198.76518     -18.553904    
    790000   699.24118     -6315786.1      194.3302       197.60772      198.76518      23.710417    
    791000   700.70499     -6315738.6      194.3302       197.60772      198.76518     -88.290665    
    792000   700.49973     -6315665        194.3302       197.60772      198.76518     -60.057338    
    793000   699.49018     -6315778.5      194.3302       197.60772      198.76518     -157.39645    
    794000   698.52246     -6315864.4      194.3302       197.60772      198.76518      45.57629     
    795000   699.9609      -6315776.2      194.3302       197.60772      198.76518     -183.47501    
    796000   699.58626     -6315733.4      194.3302       197.60772      198.76518     -49.090501    
    797000   699.13698     -6315775.7      194.3302       197.60772      198.76518     -60.182834    
    798000   700.35558     -6315634.7      194.3302       197.60772      198.76518      93.910113    
    799000   699.36592     -6315805.7      194.3302       197.60772      198.76518     -104.48287    
    800000   699.77566     -6315785.3      194.3302       197.60772      198.76518     -190.71458    
    801000   700.16488     -6315758.1      194.3302       197.60772      198.76518     -63.311145    
    802000   701.02161     -6315702.1      194.3302       197.60772      198.76518     -12.910939    
    803000   700.71074     -6315573.5      194.3302       197.60772      198.76518     -64.128426    
    804000   699.90052     -6315655.5      194.3302       197.60772      198.76518     -50.085509    
    805000   699.34799     -6315740.6      194.3302       197.60772      198.76518     -103.19659    
    806000   698.96828     -6315803.5      194.3302       197.60772      198.76518     -14.522096    
    807000   698.88581     -6315795.8      194.3302       197.60772      198.76518     -151.35303    
    808000   699.64843     -6315729        194.3302       197.60772      198.76518     -210.18617    
    809000   700.64888     -6315645        194.3302       197.60772      198.76518     -45.149333    
    810000   700.57447     -6315687.6      194.3302       197.60772      198.76518     -112.76459    
    811000   699.86369     -6315663        194.3302       197.60772      198.76518     -25.971608    
    812000   701.10312     -6315690.9      194.3302       197.60772      198.76518     -15.270306    
    813000   700.70923     -6315630.3      194.3302       197.60772      198.76518     -55.294586    
    814000   700.75595     -6315650.3      194.3302       197.60772      198.76518     -55.282209    
    815000   700.65551     -6315613.8      194.3302       197.60772      198.76518     -57.055033    
    816000   701.49921     -6315574.2      194.3302       197.60772      198.76518     -74.831112    
    817000   700.00866     -6315740.9      194.3302       197.60772      198.76518     -76.880096    
    818000   701.43905     -6315570.4      194.3302       197.60772      198.76518     -9.9990607    
    819000   699.60179     -6315750.8      194.3302       197.60772      198.76518     -87.786233    
    820000   699.15531     -6315806.2      194.3302       197.60772      198.76518     -143.4794     
    821000   699.13651     -6315753.7      194.3302       197.60772      198.76518     -70.928898    
    822000   699.61406     -6315670.6      194.3302       197.60772      198.76518     -74.645162    
    823000   700.43269     -6315745.8      194.3302       197.60772      198.76518     -108.44852    
    824000   699.50329     -6315712.6      194.3302       197.60772      198.76518     -79.302882    
    825000   700.06161     -6315645.6      194.3302       197.60772      198.76518     -158.88961    
    826000   699.14856     -6315785.4      194.3302       197.60772      198.76518     -35.263176    
    827000   699.9708      -6315697.3      194.3302       197.60772      198.76518     -18.94889     
    828000   699.43244     -6315678.8      194.3302       197.60772      198.76518     -2.5954599    
    829000   700.23929     -6315667.4      194.3302       197.60772      198.76518     -4.4831817    
    830000   700.74547     -6315635.4      194.3302       197.60772      198.76518     -103.23777    
    831000   701.22967     -6315625.8      194.3302       197.60772      198.76518     -124.54555    
    832000   701.61017     -6315636.7      194.3302       197.60772      198.76518     -41.837166    
    833000   699.69045     -6315792        194.3302       197.60772      198.76518     -88.434398    
    834000   700.79412     -6315590.1      194.3302       197.60772      198.76518     -43.59824     
    835000   700.66064     -6315667.5      194.3302       197.60772      198.76518      15.925562    
    836000   700.31271     -6315636.9      194.3302       197.60772      198.76518     -56.917445    
    837000   699.00315     -6315829.9      194.3302       197.60772      198.76518     -2.8049129    
    838000   699.75304     -6315757.1      194.3302       197.60772      198.76518     -176.7813     
    839000   697.98226     -6315878.1      194.3302       197.60772      198.76518     -85.674614    
    840000   698.70056     -6315864.6      194.3302       197.60772      198.76518     -131.35531    
    841000   701.68878     -6315576.9      194.3302       197.60772      198.76518     -0.029878682  
    842000   700.22533     -6315705.4      194.3302       197.60772      198.76518     -101.98026    
    843000   698.72916     -6315756.1      194.3302       197.60772      198.76518     -64.032195    
    844000   699.29543     -6315791.1      194.3302       197.60772      198.76518      38.332814    
    845000   699.98621     -6315738.2      194.3302       197.60772      198.76518     -71.498557    
    846000   700.00193     -6315786.5      194.3302       197.60772      198.76518     -74.961393    
    847000   699.83278     -6315832.3      194.3302       197.60772      198.76518     -175.19734    
    848000   700.66233     -6315642.5      194.3302       197.60772      198.76518     -2.4938565    
    849000   700.88416     -6315666.5      194.3302       197.60772      198.76518     -56.81085     
    850000   700.52947     -6315702.7      194.3302       197.60772      198.76518      3.9771291    
    851000   700.72361     -6315635.1      194.3302       197.60772      198.76518      61.439088    
    852000   700.4847      -6315661.2      194.3302       197.60772      198.76518     -10.420654    
    853000   698.938       -6315883.4      194.3302       197.60772      198.76518      38.508955    
    854000   701.17562     -6315592.1      194.3302       197.60772      198.76518     -40.350088    
    855000   700.05034     -6315667.8      194.3302       197.60772      198.76518     -72.418135    
    856000   699.21022     -6315714.8      194.3302       197.60772      198.76518      87.711243    
    857000   699.89145     -6315775.5      194.3302       197.60772      198.76518     -36.200519    
    858000   700.38962     -6315726.2      194.3302       197.60772      198.76518     -24.936913    
    859000   700.51866     -6315735        194.3302       197.60772      198.76518     -83.140534    
    860000   698.95696     -6315758.1      194.3302       197.60772      198.76518     -70.292753    
    861000   699.78658     -6315806        194.3302       197.60772      198.76518     -53.823904    
    862000   700.48718     -6315750.2      194.3302       197.60772      198.76518     -151.72489    
    863000   700.15805     -6315730.2      194.3302       197.60772      198.76518     -4.1780079    
    864000   700.51606     -6315650.6      194.3302       197.60772      198.76518     -24.560616    
    865000   699.13496     -6315859.3      194.3302       197.60772      198.76518     -153.04686    
    866000   699.69728     -6315784.8      194.3302       197.60772      198.76518      63.058312    
    867000   699.69973     -6315763.3      194.3302       197.60772      198.76518      121.1431     
    868000   701.384       -6315669.7      194.3302       197.60772      198.76518      153.76011    
    869000   700.18727     -6315771.2      194.3302       197.60772      198.76518      62.300314    
    870000   699.14816     -6315842.8      194.3302       197.60772      198.76518     -76.499059    
    871000   700.85583     -6315746        194.3302       197.60772      198.76518     -21.313457    
    872000   699.59581     -6315826.9      194.3302       197.60772      198.76518     -7.489454     
    873000   699.7306      -6315828.2      194.3302       197.60772      198.76518     -100.28314    
    874000   700.38533     -6315697.4      194.3302       197.60772      198.76518     -52.4239      
    875000   699.28293     -6315780.9      194.3302       197.60772      198.76518      24.348562    
    876000   700.73913     -6315753.1      194.3302       197.60772      198.76518     -186.26706    
    877000   700.25862     -6315747.8      194.3302       197.60772      198.76518     -42.534847    
    878000   701.49274     -6315609.8      194.3302       197.60772      198.76518     -27.31529     
    879000   700.0874      -6315802.5      194.3302       197.60772      198.76518      11.726428    
    880000   700.68448     -6315659.5      194.3302       197.60772      198.76518      28.30179     
    881000   699.39062     -6315737.3      194.3302       197.60772      198.76518      8.3018195    
    882000   699.0786      -6315796.9      194.3302       197.60772      198.76518     -127.19383    
    883000   698.87869     -6315797.2      194.3302       197.60772      198.76518     -176.05187    
    884000   699.39874     -6315654.2      194.3302       197.60772      198.76518      4.5510415    
    885000   699.51016     -6315729.2      194.3302       197.60772      198.76518      98.164039    
    886000   700.77549     -6315781        194.3302       197.60772      198.76518     -295.06103    
    887000   698.27301     -6315844.8      194.3302       197.60772      198.76518     -17.777935    
    888000   699.91957     -6315754.3      194.3302       197.60772      198.76518      35.537263    
    889000   700.42757     -6315650.2      194.3302       197.60772      198.76518      65.544606    
    890000   699.41579     -6315760.1      194.3302       197.60772      198.76518     -80.925372    
    891000   701.19349     -6315683.9      194.3302       197.60772      198.76518     -92.523103    
    892000   699.67328     -6315699.5      194.3302       197.60772      198.76518     -42.945584    
    893000   699.67962     -6315708.9      194.3302       197.60772      198.76518      103.48766    
    894000   700.73339     -6315752.7      194.3302       197.60772      198.76518     -93.818447    
    895000   701.2384      -6315742.9      194.3302       197.60772      198.76518     -66.279407    
    896000   700.32867     -6315743.3      194.3302       197.60772      198.76518     -92.92679     
    897000   700.32802     -6315760.1      194.3302       197.60772      198.76518     -95.83543     
    898000   698.8404      -6315779.4      194.3302       197.60772      198.76518     -62.924849    
    899000   700.44359     -6315646.8      194.3302       197.60772      198.76518     -167.48799    
    900000   699.61909     -6315703.2      194.3302       197.60772      198.76518     -89.106363    
    901000   699.64062     -6315749.3      194.3302       197.60772      198.76518      22.714808    
    902000   699.57844     -6315798        194.3302       197.60772      198.76518     -151.77318    
    903000   701.08631     -6315675.1      194.3302       197.60772      198.76518     -44.845044    
    904000   700.04953     -6315735.2      194.3302       197.60772      198.76518     -90.938242    
    905000   699.694       -6315603.8      194.3302       197.60772      198.76518     -46.916269    
    906000   699.33589     -6315777.7      194.3302       197.60772      198.76518     -186.69694    
    907000   701.18753     -6315667.9      194.3302       197.60772      198.76518     -94.980351    
    908000   700.02082     -6315703.6      194.3302       197.60772      198.76518     -13.373574    
    909000   699.40908     -6315732.8      194.3302       197.60772      198.76518     -15.022303    
    910000   700.60563     -6315700.4      194.3302       197.60772      198.76518     -86.332       
    911000   700.56573     -6315688.9      194.3302       197.60772      198.76518      19.143665    
    912000   699.21702     -6315832.1      194.3302       197.60772      198.76518      72.352903    
    913000   699.85979     -6315742.1      194.3302       197.60772      198.76518     -48.770194    
    914000   699.55932     -6315741.9      194.3302       197.60772      198.76518      7.2964362    
    915000   700.47624     -6315660.5      194.3302       197.60772      198.76518      50.813624    
    916000   698.93229     -6315775.9      194.3302       197.60772      198.76518     -84.437387    
    917000   701.20664     -6315634.5      194.3302       197.60772      198.76518     -11.844069    
    918000   700.94462     -6315638        194.3302       197.60772      198.76518     -1.1068263    
    919000   700.1242      -6315744.9      194.3302       197.60772      198.76518     -50.965017    
    920000   699.53009     -6315735.4      194.3302       197.60772      198.76518     -193.63982    
    921000   699.55303     -6315763.2      194.3302       197.60772      198.76518      5.062392     
    922000   699.95792     -6315688.6      194.3302       197.60772      198.76518      56.826906    
    923000   699.38459     -6315659.6      194.3302       197.60772      198.76518      22.190587    
    924000   699.37566     -6315703.4      194.3302       197.60772      198.76518     -120.56332    
    925000   700.72666     -6315627.1      194.3302       197.60772      198.76518      124.15524    
    926000   698.86712     -6315728.7      194.3302       197.60772      198.76518      120.85574    
    927000   699.87501     -6315824.4      194.3302       197.60772      198.76518     -89.34376     
    928000   700.59745     -6315751.2      194.3302       197.60772      198.76518     -151.35076    
    929000   700.2476      -6315748.9      194.3302       197.60772      198.76518     -62.585318    
    930000   701.09282     -6315506.1      194.3302       197.60772      198.76518      165.78709    
    931000   699.39052     -6315800.8      194.3302       197.60772      198.76518      77.21773     
    932000   699.56913     -6315798.1      194.3302       197.60772      198.76518      123.84271    
    933000   700.22205     -6315704.3      194.3302       197.60772      198.76518      92.354456    
    934000   700.67292     -6315695.4      194.3302       197.60772      198.76518      158.50657    
    935000   698.8421      -6315896.2      194.3302       197.60772      198.76518     -10.187606    
    936000   699.07515     -6315772.8      194.3302       197.60772      198.76518      111.63938    
    937000   701.33961     -6315656.1      194.3302       197.60772      198.76518      162.26307    
    938000   700.51532     -6315664.9      194.3302       197.60772      198.76518      61.309835    
    939000   700.04769     -6315753.6      194.3302       197.60772      198.76518      27.708744    
    940000   701.55107     -6315584.9      194.3302       197.60772      198.76518      66.910577    
    941000   699.88158     -6315818        194.3302       197.60772      198.76518      35.143996    
    942000   700.24117     -6315752.2      194.3302       197.60772      198.76518      16.429325    
    943000   700.12406     -6315689.2      194.3302       197.60772      198.76518     -75.28642     
    944000   699.36454     -6315875.9      194.3302       197.60772      198.76518      12.003668    
    945000   700.79453     -6315704.9      194.3302       197.60772      198.76518     -0.65592095   
    946000   698.96194     -6315877.6      194.3302       197.60772      198.76518     -44.278516    
    947000   699.39169     -6315773.9      194.3302       197.60772      198.76518      71.841065    
    948000   700.87069     -6315703.1      194.3302       197.60772      198.76518     -24.78768     
    949000   699.89658     -6315706.8      194.3302       197.60772      198.76518     -8.5962635    
    950000   701.23428     -6315657.9      194.3302       197.60772      198.76518     -39.659004    
    951000   700.27577     -6315851.1      194.3302       197.60772      198.76518     -107.49276    
    952000   701.14818     -6315653.4      194.3302       197.60772      198.76518     -106.55847    
    953000   699.98238     -6315723.5      194.3302       197.60772      198.76518      67.938627    
    954000   699.96895     -6315777.3      194.3302       197.60772      198.76518     -87.58575     
    955000   699.16955     -6315841.7      194.3302       197.60772      198.76518     -112.80406    
    956000   699.94228     -6315861.8      194.3302       197.60772      198.76518      7.9615818    
    957000   700.32168     -6315651        194.3302       197.60772      198.76518      46.771505    
    958000   700.32922     -6315656        194.3302       197.60772      198.76518      113.86468    
    959000   700.62594     -6315591.2      194.3302       197.60772      198.76518      90.247426    
    960000   700.88361     -6315750.2      194.3302       197.60772      198.76518      5.7167479    
    961000   699.49741     -6315810.7      194.3302       197.60772      198.76518      90.731797    
    962000   700.86086     -6315697.6      194.3302       197.60772      198.76518     -93.220837    
    963000   699.41472     -6315790.2      194.3302       197.60772      198.76518     -119.91227    
    964000   701.3876      -6315690        194.3302       197.60772      198.76518     -102.42797    
    965000   701.00549     -6315638.3      194.3302       197.60772      198.76518      61.131441    
    966000   699.87569     -6315815.7      194.3302       197.60772      198.76518     -118.15012    
    967000   699.81934     -6315809.6      194.3302       197.60772      198.76518     -68.882333    
    968000   699.23335     -6315841.1      194.3302       197.60772      198.76518     -105.12886    
    969000   700.29077     -6315750.1      194.3302       197.60772      198.76518      104.79392    
    970000   698.76289     -6315774.1      194.3302       197.60772      198.76518     -63.53365     
    971000   699.85423     -6315736        194.3302       197.60772      198.76518     -94.132506    
    972000   700.44938     -6315846.6      194.3302       197.60772      198.76518     -155.12429    
    973000   700.51021     -6315625.1      194.3302       197.60772      198.76518     -135.58975    
    974000   699.86241     -6315815.7      194.3302       197.60772      198.76518     -142.28142    
    975000   699.24399     -6315777.3      194.3302       197.60772      198.76518     -135.12877    
    976000   700.6075      -6315712.9      194.3302       197.60772      198.76518     -99.554429    
    977000   698.86502     -6315961.4      194.3302       197.60772      198.76518     -35.906315    
    978000   699.04791     -6315872.4      194.3302       197.60772      198.76518     -128.88574    
    979000   699.57011     -6315846.8      194.3302       197.60772      198.76518     -84.548714    
    980000   700.08898     -6315706.2      194.3302       197.60772      198.76518      1.5777035    
    981000   699.3054      -6315786.5      194.3302       197.60772      198.76518     -63.387733    
    982000   699.98374     -6315751.3      194.3302       197.60772      198.76518     -107.73156    
    983000   697.57231     -6315895        194.3302       197.60772      198.76518     -173.93183    
    984000   699.4805      -6315757.9      194.3302       197.60772      198.76518     -76.881981    
    985000   700.26847     -6315791.1      194.3302       197.60772      198.76518     -162.80615    
    986000   701.47847     -6315710.6      194.3302       197.60772      198.76518     -163.44988    
    987000   700.88033     -6315673.2      194.3302       197.60772      198.76518     -60.16668     
    988000   701.25846     -6315718.6      194.3302       197.60772      198.76518     -77.162408    
    989000   699.78949     -6315741.4      194.3302       197.60772      198.76518     -106.60243    
    990000   700.00554     -6315753.2      194.3302       197.60772      198.76518     -87.416111    
    991000   699.39014     -6315895.4      194.3302       197.60772      198.76518     -236.38937    
    992000   699.95465     -6315615.5      194.3302       197.60772      198.76518     -183.10567    
    993000   700.17126     -6315752.7      194.3302       197.60772      198.76518     -229.14774    
    994000   701.09741     -6315608.2      194.3302       197.60772      198.76518     -146.39303    
    995000   699.7807      -6315768.9      194.3302       197.60772      198.76518     -57.548181    
    996000   699.66296     -6315837.2      194.3302       197.60772      198.76518     -78.085248    
    997000   699.90576     -6315783.5      194.3302       197.60772      198.76518     -180.72918    
    998000   698.58106     -6315886.1      194.3302       197.60772      198.76518     -245.81415    
    999000   700.17287     -6315667.7      194.3302       197.60772      198.76518     -188.54662    
   1000000   699.71851     -6315691.6      194.3302       197.60772      198.76518     -8.2689189    
   1001000   700.47696     -6315688.6      194.3302       197.60772      198.76518     -9.8405641    
   1002000   700.6842      -6315745.2      194.3302       197.60772      198.76518     -39.615765    
   1003000   700.03787     -6315778.3      194.3302       197.60772      198.76518     -75.439722    
   1004000   700.35125     -6315748.7      194.3302       197.60772      198.76518      63.577996    
   1005000   699.99738     -6315795.8      194.3302       197.60772      198.76518     -70.051681    
   1006000   699.75494     -6315831.7      194.3302       197.60772      198.76518      34.971804    
   1007000   700.13637     -6315717.3      194.3302       197.60772      198.76518     -90.041856    
   1008000   700.61854     -6315795.2      194.3302       197.60772      198.76518     -106.56038    
   1009000   699.8424      -6315662.4      194.3302       197.60772      198.76518      0.55568862   
   1010000   701.31188     -6315645.8      194.3302       197.60772      198.76518     -73.715221    
   1011000   700.89828     -6315708.9      194.3302       197.60772      198.76518     -11.692591    
   1012000   701.20818     -6315647.1      194.3302       197.60772      198.76518     -65.005682    
   1013000   700.05833     -6315756.5      194.3302       197.60772      198.76518     -63.504122    
   1014000   700.05275     -6315628.3      194.3302       197.60772      198.76518      6.2003709    
   1015000   699.37452     -6315798.1      194.3302       197.60772      198.76518     -67.322834    
   1016000   698.64993     -6315872.6      194.3302       197.60772      198.76518     -56.741625    
   1017000   699.76451     -6315695.6      194.3302       197.60772      198.76518     -22.88931     
   1018000   700.58768     -6315749.4      194.3302       197.60772      198.76518     -211.06161    
   1019000   699.65328     -6315820        194.3302       197.60772      198.76518     -87.553728    
   1020000   700.25364     -6315726        194.3302       197.60772      198.76518     -104.5289     
   1021000   700.53442     -6315667        194.3302       197.60772      198.76518     -105.5822     
   1022000   699.19603     -6315788.5      194.3302       197.60772      198.76518     -76.556889    
   1023000   700.67957     -6315743.5      194.3302       197.60772      198.76518     -207.06046    
   1024000   700.62309     -6315706.8      194.3302       197.60772      198.76518     -57.301697    
   1025000   699.83121     -6315832.7      194.3302       197.60772      198.76518     -130.36075    
   1026000   700.55202     -6315706.1      194.3302       197.60772      198.76518     -101.18797    
   1027000   702.05936     -6315467        194.3302       197.60772      198.76518     -93.986597    
   1028000   699.30952     -6315743.3      194.3302       197.60772      198.76518     -116.29989    
   1029000   700.82191     -6315658        194.3302       197.60772      198.76518     -48.939594    
   1030000   701.70912     -6315614.1      194.3302       197.60772      198.76518     -72.207599    
   1031000   699.5928      -6315710.5      194.3302       197.60772      198.76518     -82.40052     
   1032000   699.09145     -6315743.3      194.3302       197.60772      198.76518     -40.390314    
   1033000   698.80922     -6315813.1      194.3302       197.60772      198.76518      21.357149    
   1034000   699.30681     -6315855.6      194.3302       197.60772      198.76518     -129.00203    
   1035000   699.8642      -6315836.4      194.3302       197.60772      198.76518     -88.603828    
   1036000   700.25522     -6315689.5      194.3302       197.60772      198.76518     -112.96008    
   1037000   700.26983     -6315806.6      194.3302       197.60772      198.76518     -50.914659    
   1038000   701.06035     -6315642.1      194.3302       197.60772      198.76518     -76.172155    
   1039000   700.05936     -6315707.1      194.3302       197.60772      198.76518     -49.913584    
   1040000   699.9883      -6315798        194.3302       197.60772      198.76518     -83.277104    
   1041000   699.00372     -6315853.8      194.3302       197.60772      198.76518     -108.72983    
   1042000   700.59661     -6315690.3      194.3302       197.60772      198.76518     -100.29191    
   1043000   700.16042     -6315738        194.3302       197.60772      198.76518     -6.4257691    
   1044000   699.86988     -6315746.3      194.3302       197.60772      198.76518     -125.77911    
   1045000   700.92118     -6315663.3      194.3302       197.60772      198.76518     -41.845724    
   1046000   698.4916      -6315892.5      194.3302       197.60772      198.76518      37.581172    
   1047000   700.93026     -6315738        194.3302       197.60772      198.76518      11.110976    
   1048000   701.07962     -6315608.1      194.3302       197.60772      198.76518      183.06975    
   1049000   700.95746     -6315642.9      194.3302       197.60772      198.76518      32.194706    
   1050000   700.39726     -6315799.3      194.3302       197.60772      198.76518     -57.849659    
   1051000   700.90628     -6315639.6      194.3302       197.60772      198.76518     -11.11047     
   1052000   700.20044     -6315700.6      194.3302       197.60772      198.76518     -11.446724    
   1053000   700.3255      -6315704.6      194.3302       197.60772      198.76518      22.465737    
   1054000   700.28876     -6315810.3      194.3302       197.60772      198.76518     -30.539814    
   1055000   700.03014     -6315739.2      194.3302       197.60772      198.76518     -6.3535921    
   1056000   701.15177     -6315707.2      194.3302       197.60772      198.76518      10.412147    
   1057000   699.40732     -6315707        194.3302       197.60772      198.76518     -60.756867    
   1058000   699.61443     -6315849.5      194.3302       197.60772      198.76518     -124.3612     
   1059000   699.08838     -6315816        194.3302       197.60772      198.76518     -176.21813    
   1060000   701.10168     -6315688.9      194.3302       197.60772      198.76518      34.346052    
   1061000   699.96441     -6315708.2      194.3302       197.60772      198.76518     -172.40219    
   1062000   699.79633     -6315727.7      194.3302       197.60772      198.76518     -79.763103    
   1063000   699.59613     -6315846.3      194.3302       197.60772      198.76518     -187.5322     
   1064000   699.59353     -6315784        194.3302       197.60772      198.76518     -36.83161     
   1065000   701.03508     -6315752.5      194.3302       197.60772      198.76518     -91.869107    
   1066000   699.5766      -6315779.9      194.3302       197.60772      198.76518     -19.570425    
   1067000   699.23372     -6315685.3      194.3302       197.60772      198.76518     -7.2561313    
   1068000   700.50631     -6315769.8      194.3302       197.60772      198.76518      1.3381854    
   1069000   700.13442     -6315706.6      194.3302       197.60772      198.76518     -54.112485    
   1070000   698.89778     -6315925.8      194.3302       197.60772      198.76518     -156.12776    
   1071000   700.40342     -6315612.6      194.3302       197.60772      198.76518      36.176496    
   1072000   699.87989     -6315794.1      194.3302       197.60772      198.76518     -78.711325    
   1073000   699.66043     -6315865.3      194.3302       197.60772      198.76518     -126.25838    
   1074000   700.62117     -6315633.1      194.3302       197.60772      198.76518      24.084219    
   1075000   699.81248     -6315830.7      194.3302       197.60772      198.76518      20.160465    
   1076000   699.00002     -6315799        194.3302       197.60772      198.76518      45.70424     
   1077000   699.93495     -6315641.2      194.3302       197.60772      198.76518     -38.144439    
   1078000   699.31211     -6315761        194.3302       197.60772      198.76518     -137.44183    
   1079000   699.08752     -6315755.7      194.3302       197.60772      198.76518     -64.84195     
   1080000   699.28062     -6315851.1      194.3302       197.60772      198.76518     -184.20819    
   1081000   699.21534     -6315805.9      194.3302       197.60772      198.76518      124.54946    
   1082000   700.21497     -6315791.5      194.3302       197.60772      198.76518     -120.59083    
   1083000   699.36845     -6315912.9      194.3302       197.60772      198.76518     -54.785518    
   1084000   699.66855     -6315834.8      194.3302       197.60772      198.76518      13.568713    
   1085000   699.34834     -6315755.9      194.3302       197.60772      198.76518      17.239912    
   1086000   700.70665     -6315683.9      194.3302       197.60772      198.76518     -28.854808    
   1087000   700.57624     -6315664.1      194.3302       197.60772      198.76518     -87.944374    
   1088000   698.68079     -6315857.5      194.3302       197.60772      198.76518     -34.292789    
   1089000   700.0265      -6315744.7      194.3302       197.60772      198.76518     -120.36103    
   1090000   700.24373     -6315775        194.3302       197.60772      198.76518     -2.1469724    
   1091000   700.80545     -6315652.8      194.3302       197.60772      198.76518      117.45029    
   1092000   699.50336     -6315819        194.3302       197.60772      198.76518      20.5293      
   1093000   698.86518     -6315835.2      194.3302       197.60772      198.76518      75.738659    
   1094000   700.50949     -6315749.7      194.3302       197.60772      198.76518      28.922124    
   1095000   701.01157     -6315678.7      194.3302       197.60772      198.76518     -3.301724     
   1096000   699.00045     -6315966.9      194.3302       197.60772      198.76518     -149.28127    
   1097000   698.84191     -6315806.3      194.3302       197.60772      198.76518      18.509617    
   1098000   699.00725     -6315850.4      194.3302       197.60772      198.76518     -15.501285    
   1099000   699.37724     -6315800.7      194.3302       197.60772      198.76518     -50.34282     
   1100000   701.66283     -6315629        194.3302       197.60772      198.76518      116.93119    
   1101000   699.84417     -6315760.4      194.3302       197.60772      198.76518      50.499711    
   1102000   698.83032     -6315783        194.3302       197.60772      198.76518     -41.665674    
   1103000   701.06415     -6315666.8      194.3302       197.60772      198.76518      79.648104    
   1104000   700.43117     -6315676.9      194.3302       197.60772      198.76518     -57.831385    
   1105000   700.10603     -6315721.9      194.3302       197.60772      198.76518      67.036259    
   1106000   699.4715      -6315709.1      194.3302       197.60772      198.76518      26.380244    
   1107000   699.50239     -6315720.4      194.3302       197.60772      198.76518     -17.950705    
   1108000   700.44478     -6315608.4      194.3302       197.60772      198.76518      71.365996    
   1109000   700.49233     -6315730.4      194.3302       197.60772      198.76518     -50.386996    
   1110000   699.26091     -6315834.5      194.3302       197.60772      198.76518     -137.8082     
   1111000   699.09938     -6315823.9      194.3302       197.60772      198.76518      17.855245    
   1112000   699.6499      -6315807        194.3302       197.60772      198.76518     -89.079674    
   1113000   699.30502     -6315757        194.3302       197.60772      198.76518     -40.415378    
   1114000   699.37005     -6315798.1      194.3302       197.60772      198.76518     -39.061965    
   1115000   699.53676     -6315812.5      194.3302       197.60772      198.76518     -105.99174    
   1116000   700.73806     -6315777        194.3302       197.60772      198.76518      16.816889    
   1117000   701.03        -6315812.7      194.3302       197.60772      198.76518      34.060838    
   1118000   699.89157     -6315655        194.3302       197.60772      198.76518      29.335566    
   1119000   700.18756     -6315850.6      194.3302       197.60772      198.76518     -34.512644    
   1120000   699.79829     -6315780.4      194.3302       197.60772      198.76518     -110.97563    
   1121000   698.64442     -6315874.9      194.3302       197.60772      198.76518     -179.8916     
   1122000   700.67311     -6315796.2      194.3302       197.60772      198.76518     -92.839724    
   1123000   700.02395     -6315642.1      194.3302       197.60772      198.76518     -54.230133    
   1124000   700.22187     -6315753.9      194.3302       197.60772      198.76518     -6.5332885    
   1125000   698.50846     -6315786.1      194.3302       197.60772      198.76518      25.463119    
   1126000   701.23098     -6315534.5      194.3302       197.60772      198.76518      62.452089    
   1127000   700.6121      -6315760.1      194.3302       197.60772      198.76518     -22.190621    
   1128000   699.51787     -6315715.2      194.3302       197.60772      198.76518     -27.371776    
   1129000   698.77959     -6315875.5      194.3302       197.60772      198.76518      137.30619    
   1130000   700.46786     -6315711.1      194.3302       197.60772      198.76518     -96.552724    
   1131000   700.69715     -6315673.7      194.3302       197.60772      198.76518     -63.847607    
   1132000   699.28645     -6315641.7      194.3302       197.60772      198.76518      84.939052    
   1133000   700.65223     -6315792.5      194.3302       197.60772      198.76518     -118.57276    
   1134000   699.30279     -6315812.1      194.3302       197.60772      198.76518      41.637103    
   1135000   699.63219     -6315824.5      194.3302       197.60772      198.76518     -5.9324772    
   1136000   699.51623     -6315782.8      194.3302       197.60772      198.76518      128.88158    
   1137000   699.71297     -6315813.4      194.3302       197.60772      198.76518      62.324429    
   1138000   700.45068     -6315677.2      194.3302       197.60772      198.76518      65.392761    
   1139000   700.50385     -6315706.2      194.3302       197.60772      198.76518      22.207531    
   1140000   699.98379     -6315854.8      194.3302       197.60772      198.76518     -102.36026    
   1141000   699.89145     -6315835.8      194.3302       197.60772      198.76518      72.520057    
   1142000   698.91501     -6315905.2      194.3302       197.60772      198.76518     -105.0596     
   1143000   699.61237     -6315817.5      194.3302       197.60772      198.76518     -29.048503    
   1144000   699.27932     -6315900.7      194.3302       197.60772      198.76518     -66.94521     
   1145000   699.62048     -6315799.2      194.3302       197.60772      198.76518     -20.952267    
   1146000   701.10504     -6315624.6      194.3302       197.60772      198.76518     -44.506145    
   1147000   699.85213     -6315826.4      194.3302       197.60772      198.76518     -3.4259937    
   1148000   700.10094     -6315682.2      194.3302       197.60772      198.76518     -2.1779158    
   1149000   699.84134     -6315768.8      194.3302       197.60772      198.76518     -84.490962    
   1150000   699.58814     -6315853.6      194.3302       197.60772      198.76518      75.267004    
   1151000   700.33977     -6315733        194.3302       197.60772      198.76518     -94.98373     
   1152000   700.17275     -6315765.4      194.3302       197.60772      198.76518      6.022433     
   1153000   698.62134     -6315861.4      194.3302       197.60772      198.76518     -68.548213    
   1154000   699.27136     -6315776.9      194.3302       197.60772      198.76518     -47.548677    
   1155000   698.50705     -6315884        194.3302       197.60772      198.76518      87.371568    
   1156000   699.29026     -6315750.5      194.3302       197.60772      198.76518      195.54731    
   1157000   700.27326     -6315733.1      194.3302       197.60772      198.76518     -89.453064    
   1158000   698.89735     -6315803.8      194.3302       197.60772      198.76518     -40.07023     
   1159000   699.61281     -6315650.3      194.3302       197.60772      198.76518      96.51605     
   1160000   700.45514     -6315759.4      194.3302       197.60772      198.76518     -166.18654    
   1161000   699.76491     -6315796.7      194.3302       197.60772      198.76518     -194.46339    
   1162000   700.5615      -6315717.2      194.3302       197.60772      198.76518      29.846662    
   1163000   700.9834      -6315635.1      194.3302       197.60772      198.76518     -65.060383    
   1164000   699.40756     -6315738.1      194.3302       197.60772      198.76518      3.0314248    
   1165000   699.58189     -6315850.1      194.3302       197.60772      198.76518     -106.42558    
   1166000   699.72743     -6315737.7      194.3302       197.60772      198.76518     -160.5021     
   1167000   699.89875     -6315724.9      194.3302       197.60772      198.76518     -96.813471    
   1168000   699.23375     -6315751.4      194.3302       197.60772      198.76518      61.921123    
   1169000   701.74301     -6315671.9      194.3302       197.60772      198.76518     -13.086728    
   1170000   702.10133     -6315614        194.3302       197.60772      198.76518     -10.451415    
   1171000   699.86747     -6315761.1      194.3302       197.60772      198.76518     -7.5306109    
   1172000   698.86406     -6315835.3      194.3302       197.60772      198.76518     -62.377201    
   1173000   699.61051     -6315829.1      194.3302       197.60772      198.76518     -16.513523    
   1174000   700.29834     -6315787        194.3302       197.60772      198.76518     -124.23971    
   1175000   700.63475     -6315672.6      194.3302       197.60772      198.76518     -0.69679396   
   1176000   699.25248     -6315830.7      194.3302       197.60772      198.76518     -100.97564    
   1177000   699.52171     -6315700        194.3302       197.60772      198.76518     -16.435657    
   1178000   700.19773     -6315762.4      194.3302       197.60772      198.76518      0.4739107    
   1179000   699.16146     -6315785.3      194.3302       197.60772      198.76518     -101.64257    
   1180000   699.38576     -6315745.9      194.3302       197.60772      198.76518      12.293032    
   1181000   700.16468     -6315809.2      194.3302       197.60772      198.76518      96.136925    
   1182000   700.15309     -6315782.9      194.3302       197.60772      198.76518      36.362681    
   1183000   700.60383     -6315763.7      194.3302       197.60772      198.76518      84.271572    
   1184000   698.79445     -6315848.8      194.3302       197.60772      198.76518     -122.38012    
   1185000   701.07197     -6315691.3      194.3302       197.60772      198.76518      160.6768     
   1186000   700.42189     -6315636.6      194.3302       197.60772      198.76518      53.336142    
   1187000   702.3698      -6315682.8      194.3302       197.60772      198.76518      14.194051    
   1188000   699.76445     -6315800.9      194.3302       197.60772      198.76518     -17.949043    
   1189000   698.44281     -6315893.7      194.3302       197.60772      198.76518     -39.520198    
   1190000   699.63666     -6315772        194.3302       197.60772      198.76518      44.20526     
   1191000   699.49805     -6315837.7      194.3302       197.60772      198.76518     -29.393552    
   1192000   700.68726     -6315737        194.3302       197.60772      198.76518      115.27131    
   1193000   700.22893     -6315764.6      194.3302       197.60772      198.76518     -114.20924    
   1194000   699.9015      -6315758.5      194.3302       197.60772      198.76518      110.43621    
   1195000   701.1843      -6315595.7      194.3302       197.60772      198.76518     -73.176244    
   1196000   700.22574     -6315729        194.3302       197.60772      198.76518      14.311947    
   1197000   699.37343     -6315777.1      194.3302       197.60772      198.76518     -110.35156    
   1198000   700.5569      -6315736.4      194.3302       197.60772      198.76518     -24.790873    
   1199000   698.55478     -6315901.7      194.3302       197.60772      198.76518      49.682819    
   1200000   700.52943     -6315657.8      194.3302       197.60772      198.76518     -42.870908    
   1201000   699.33055     -6315852.9      194.3302       197.60772      198.76518     -66.137839    
   1202000   700.5252      -6315614.5      194.3302       197.60772      198.76518     -55.465597    
   1203000   700.96006     -6315718.6      194.3302       197.60772      198.76518     -142.37699    
   1204000   699.69373     -6315837.2      194.3302       197.60772      198.76518     -164.59524    
   1205000   699.07487     -6315768        194.3302       197.60772      198.76518     -109.05857    
   1206000   699.6065      -6315768.5      194.3302       197.60772      198.76518     -86.535266    
   1207000   700.50995     -6315656.8      194.3302       197.60772      198.76518     -18.368778    
   1208000   699.8385      -6315862.2      194.3302       197.60772      198.76518     -31.871716    
   1209000   700.44724     -6315732.8      194.3302       197.60772      198.76518     -88.111548    
   1210000   699.47636     -6315810.5      194.3302       197.60772      198.76518      27.926653    
   1211000   700.41921     -6315639.7      194.3302       197.60772      198.76518      59.62156     
   1212000   700.36733     -6315608.2      194.3302       197.60772      198.76518      51.265536    
   1213000   699.27948     -6315823.4      194.3302       197.60772      198.76518     -25.012175    
   1214000   700.41366     -6315738.4      194.3302       197.60772      198.76518     -19.369768    
   1215000   701.02573     -6315704.6      194.3302       197.60772      198.76518     -125.40109    
   1216000   700.07337     -6315826.3      194.3302       197.60772      198.76518     -49.653036    
   1217000   700.19238     -6315696.3      194.3302       197.60772      198.76518      7.9365622    
   1218000   698.44886     -6315962.3      194.3302       197.60772      198.76518     -266.74338    
   1219000   700.33236     -6315625.1      194.3302       197.60772      198.76518      167.55253    
   1220000   698.91716     -6315858.7      194.3302       197.60772      198.76518     -20.234288    
   1221000   698.24074     -6315908.1      194.3302       197.60772      198.76518      108.57847    
   1222000   700.06845     -6315872.9      194.3302       197.60772      198.76518     -21.856519    
   1223000   699.57276     -6315855.3      194.3302       197.60772      198.76518     -89.99006     
   1224000   698.22876     -6315920.7      194.3302       197.60772      198.76518      114.07164    
   1225000   699.62445     -6315687.7      194.3302       197.60772      198.76518      55.897       
   1226000   701.13511     -6315699.5      194.3302       197.60772      198.76518      59.749055    
   1227000   700.66257     -6315673.5      194.3302       197.60772      198.76518      53.584787    
   1228000   699.92153     -6315727.5      194.3302       197.60772      198.76518     -32.685219    
   1229000   700.79342     -6315798.2      194.3302       197.60772      198.76518     -94.92149     
   1230000   699.79278     -6315791.9      194.3302       197.60772      198.76518      36.37865     
   1231000   699.60595     -6315722.2      194.3302       197.60772      198.76518      77.90536     
   1232000   699.70621     -6315813.7      194.3302       197.60772      198.76518      50.845325    
   1233000   699.79881     -6315741.2      194.3302       197.60772      198.76518     -45.981171    
   1234000   700.73149     -6315704.3      194.3302       197.60772      198.76518      51.301283    
   1235000   699.63364     -6315832.7      194.3302       197.60772      198.76518      28.083421    
   1236000   699.51257     -6315726.5      194.3302       197.60772      198.76518     -66.599851    
   1237000   699.88627     -6315741.5      194.3302       197.60772      198.76518      81.931091    
   1238000   700.94479     -6315763.2      194.3302       197.60772      198.76518     -76.290449    
   1239000   700.41193     -6315750.3      194.3302       197.60772      198.76518     -35.284661    
   1240000   700.48905     -6315790.3      194.3302       197.60772      198.76518     -39.480223    
   1241000   702.10095     -6315577.7      194.3302       197.60772      198.76518      31.527209    
   1242000   700.74922     -6315686.5      194.3302       197.60772      198.76518     -35.738256    
   1243000   699.66941     -6315740.1      194.3302       197.60772      198.76518     -87.074676    
   1244000   700.23575     -6315760        194.3302       197.60772      198.76518      8.5519664    
   1245000   700.97326     -6315789.9      194.3302       197.60772      198.76518     -104.39117    
   1246000   700.31958     -6315764.1      194.3302       197.60772      198.76518     -102.68621    
   1247000   699.26866     -6315803.6      194.3302       197.60772      198.76518     -88.456559    
   1248000   699.23042     -6315825.4      194.3302       197.60772      198.76518     -92.12219     
   1249000   699.78712     -6315807.9      194.3302       197.60772      198.76518      5.757714     
   1250000   700.93554     -6315641.3      194.3302       197.60772      198.76518     -69.450928    
   1251000   700.06126     -6315680.3      194.3302       197.60772      198.76518      50.348727    
   1252000   699.35849     -6315888.4      194.3302       197.60772      198.76518      81.111254    
   1253000   699.09219     -6315809        194.3302       197.60772      198.76518      64.400142    
   1254000   700.11251     -6315646.9      194.3302       197.60772      198.76518     -40.761211    
   1255000   699.21496     -6315818.2      194.3302       197.60772      198.76518      25.907062    
   1256000   700.28951     -6315814.7      194.3302       197.60772      198.76518     -60.920236    
   1257000   701.33189     -6315584.3      194.3302       197.60772      198.76518     -1.3174563    
   1258000   699.21304     -6315900.7      194.3302       197.60772      198.76518     -80.883188    
   1259000   699.82851     -6315827.1      194.3302       197.60772      198.76518     -27.806059    
   1260000   701.57231     -6315633.2      194.3302       197.60772      198.76518     -102.26973    
   1261000   700.73174     -6315739.9      194.3302       197.60772      198.76518     -145.2942     
   1262000   700.55247     -6315671.4      194.3302       197.60772      198.76518     -91.882894    
   1263000   700.22849     -6315755.3      194.3302       197.60772      198.76518     -119.98146    
   1264000   699.7651      -6315754.8      194.3302       197.60772      198.76518     -142.78837    
   1265000   700.49112     -6315705.1      194.3302       197.60772      198.76518     -61.628831    
   1266000   700.1812      -6315798.2      194.3302       197.60772      198.76518     -110.43118    
   1267000   699.58597     -6315775.1      194.3302       197.60772      198.76518     -224.16381    
   1268000   699.71299     -6315807.6      194.3302       197.60772      198.76518     -132.96267    
   1269000   699.76586     -6315793.7      194.3302       197.60772      198.76518     -69.233415    
   1270000   700.25374     -6315797.2      194.3302       197.60772      198.76518     -59.201754    
   1271000   699.35349     -6315742.5      194.3302       197.60772      198.76518     -54.7478      
   1272000   700.59409     -6315692.5      194.3302       197.60772      198.76518      51.034464    
   1273000   699.90774     -6315788        194.3302       197.60772      198.76518     -123.17552    
   1274000   699.58583     -6315737.4      194.3302       197.60772      198.76518      20.514554    
   1275000   699.25979     -6315814        194.3302       197.60772      198.76518     -140.23947    
   1276000   699.57067     -6315812.7      194.3302       197.60772      198.76518     -68.66664     
   1277000   700.22065     -6315723.4      194.3302       197.60772      198.76518     -97.538046    
   1278000   700.11375     -6315693        194.3302       197.60772      198.76518      36.85371     
   1279000   699.76015     -6315864.2      194.3302       197.60772      198.76518     -151.3304     
   1280000   699.90719     -6315800        194.3302       197.60772      198.76518     -35.383506    
   1281000   700.07206     -6315756.7      194.3302       197.60772      198.76518     -79.827314    
   1282000   700.27382     -6315821.8      194.3302       197.60772      198.76518     -115.68801    
   1283000   699.45837     -6315853.1      194.3302       197.60772      198.76518     -4.8734826    
   1284000   699.79652     -6315777.4      194.3302       197.60772      198.76518     -132.41222    
   1285000   699.944       -6315864.8      194.3302       197.60772      198.76518     -60.730938    
   1286000   700.68053     -6315677        194.3302       197.60772      198.76518      99.842924    
   1287000   699.05117     -6315840        194.3302       197.60772      198.76518      101.44338    
   1288000   699.86785     -6315773.2      194.3302       197.60772      198.76518      67.859962    
   1289000   700.704       -6315788.8      194.3302       197.60772      198.76518      102.38955    
   1290000   699.95495     -6315669.8      194.3302       197.60772      198.76518      25.37644     
   1291000   699.36431     -6315783.2      194.3302       197.60772      198.76518     -25.732144    
   1292000   698.4879      -6315838.3      194.3302       197.60772      198.76518     -36.91898     
   1293000   698.14433     -6315851.4      194.3302       197.60772      198.76518     -73.392528    
   1294000   700.12588     -6315686.7      194.3302       197.60772      198.76518      55.533036    
   1295000   701.08128     -6315739.3      194.3302       197.60772      198.76518     -136.39383    
   1296000   699.36215     -6315789.2      194.3302       197.60772      198.76518     -96.86847     
   1297000   699.14802     -6315869.1      194.3302       197.60772      198.76518     -86.706133    
   1298000   699.83257     -6315839.5      194.3302       197.60772      198.76518     -87.396932    
   1299000   700.09332     -6315706.9      194.3302       197.60772      198.76518      41.69099     
   1300000   699.21363     -6315879        194.3302       197.60772      198.76518     -111.08228    
   1301000   700.32508     -6315775.8      194.3302       197.60772      198.76518     -59.294475    
   1302000   699.63529     -6315774        194.3302       197.60772      198.76518     -100.86166    
   1303000   699.9501      -6315806.5      194.3302       197.60772      198.76518     -109.80337    
   1304000   699.28022     -6315831.3      194.3302       197.60772      198.76518     -21.495922    
   1305000   699.92881     -6315787.5      194.3302       197.60772      198.76518     -245.27856    
   1306000   701.1518      -6315592.3      194.3302       197.60772      198.76518     -59.533475    
   1307000   699.38528     -6315885.6      194.3302       197.60772      198.76518     -58.55165     
   1308000   699.91071     -6315803.4      194.3302       197.60772      198.76518     -86.098842    
   1309000   700.03701     -6315731.6      194.3302       197.60772      198.76518     -22.271287    
   1310000   700.74904     -6315745        194.3302       197.60772      198.76518     -34.636156    
   1311000   699.28508     -6315813.6      194.3302       197.60772      198.76518     -14.417975    
   1312000   698.77543     -6315933.3      194.3302       197.60772      198.76518     -152.72939    
   1313000   698.40664     -6315865.3      194.3302       197.60772      198.76518     -35.786925    
   1314000   699.04523     -6315858.4      194.3302       197.60772      198.76518      22.209878    
   1315000   699.43322     -6315705.9      194.3302       197.60772      198.76518      155.13514    
   1316000   700.91704     -6315728.8      194.3302       197.60772      198.76518     -123.81278    
   1317000   700.82534     -6315631.7      194.3302       197.60772      198.76518      17.109678    
   1318000   700.02801     -6315786.4      194.3302       197.60772      198.76518     -72.847753    
   1319000   700.55468     -6315769.3      194.3302       197.60772      198.76518     -55.349011    
   1320000   699.3031      -6315753.3      194.3302       197.60772      198.76518      15.164468    
   1321000   700.61161     -6315728        194.3302       197.60772      198.76518     -71.197662    
   1322000   698.84414     -6315732.1      194.3302       197.60772      198.76518     -64.880133    
   1323000   701.38893     -6315634.8      194.3302       197.60772      198.76518     -69.454455    
   1324000   701.43651     -6315607.1      194.3302       197.60772      198.76518     -98.664865    
   1325000   701.41382     -6315645.3      194.3302       197.60772      198.76518      56.687308    
   1326000   699.3852      -6315861.8      194.3302       197.60772      198.76518      12.935331    
   1327000   700.90111     -6315738.3      194.3302       197.60772      198.76518     -54.928222    
   1328000   698.73627     -6315909.4      194.3302       197.60772      198.76518     -100.97951    
   1329000   700.9185      -6315677.9      194.3302       197.60772      198.76518      103.16855    
   1330000   699.8139      -6315721.9      194.3302       197.60772      198.76518     -27.083731    
   1331000   699.83618     -6315805.8      194.3302       197.60772      198.76518      78.975396    
   1332000   699.96954     -6315817.1      194.3302       197.60772      198.76518     -72.30865     
   1333000   700.47046     -6315648.6      194.3302       197.60772      198.76518     -6.4533078    
   1334000   700.21236     -6315792.9      194.3302       197.60772      198.76518     -12.391361    
   1335000   700.68349     -6315766.7      194.3302       197.60772      198.76518     -57.311429    
   1336000   699.311       -6315781.4      194.3302       197.60772      198.76518     -75.393374    
   1337000   700.89353     -6315743        194.3302       197.60772      198.76518     -132.46133    
   1338000   700.26151     -6315747        194.3302       197.60772      198.76518     -25.316378    
   1339000   698.21556     -6315857.3      194.3302       197.60772      198.76518      61.293429    
   1340000   700.27195     -6315764.8      194.3302       197.60772      198.76518     -25.281066    
   1341000   699.43011     -6315816.5      194.3302       197.60772      198.76518      2.0315821    
   1342000   699.7216      -6315747.4      194.3302       197.60772      198.76518     -63.627982    
   1343000   699.62642     -6315753.5      194.3302       197.60772      198.76518      34.011906    
   1344000   699.97244     -6315790.8      194.3302       197.60772      198.76518     -54.511554    
   1345000   698.7643      -6315852.5      194.3302       197.60772      198.76518      35.920675    
   1346000   699.91481     -6315892.8      194.3302       197.60772      198.76518     -87.592041    
   1347000   701.06768     -6315802.1      194.3302       197.60772      198.76518      46.063057    
   1348000   701.14143     -6315724.7      194.3302       197.60772      198.76518      22.509039    
   1349000   699.47527     -6315733.5      194.3302       197.60772      198.76518     -0.34756691   
   1350000   700.64576     -6315746.4      194.3302       197.60772      198.76518     -34.645599    
   1351000   700.8353      -6315633.2      194.3302       197.60772      198.76518      99.755409    
   1352000   700.59754     -6315775.2      194.3302       197.60772      198.76518     -148.01529    
   1353000   699.43087     -6315867.5      194.3302       197.60772      198.76518     -59.211475    
   1354000   700.81175     -6315664.6      194.3302       197.60772      198.76518      4.4972773    
   1355000   699.35558     -6315843.7      194.3302       197.60772      198.76518     -95.688721    
   1356000   698.60429     -6315861.9      194.3302       197.60772      198.76518     -94.934992    
   1357000   699.84815     -6315783.8      194.3302       197.60772      198.76518      49.244803    
   1358000   699.75271     -6315837.9      194.3302       197.60772      198.76518     -113.53       
   1359000   700.45663     -6315696.7      194.3302       197.60772      198.76518      0.49107335   
   1360000   699.60897     -6315740.8      194.3302       197.60772      198.76518      3.6141286    
   1361000   700.045       -6315621.2      194.3302       197.60772      198.76518      17.674726    
   1362000   700.36217     -6315713.1      194.3302       197.60772      198.76518     -22.22674     
   1363000   699.44223     -6315865.9      194.3302       197.60772      198.76518      56.350403    
   1364000   701.19504     -6315649.6      194.3302       197.60772      198.76518     -53.366151    
   1365000   698.375       -6315796.2      194.3302       197.60772      198.76518     -9.6441474    
   1366000   699.88743     -6315783        194.3302       197.60772      198.76518     -120.95279    
   1367000   699.97093     -6315794.1      194.3302       197.60772      198.76518     -117.9679     
   1368000   700.10791     -6315828.4      194.3302       197.60772      198.76518     -32.437905    
   1369000   699.11015     -6315869.7      194.3302       197.60772      198.76518     -28.269549    
   1370000   701.57053     -6315681.6      194.3302       197.60772      198.76518      185.68039    
   1371000   699.2953      -6315837.2      194.3302       197.60772      198.76518     -34.906045    
   1372000   699.57552     -6315800.1      194.3302       197.60772      198.76518     -75.829062    
   1373000   700.86516     -6315722.8      194.3302       197.60772      198.76518     -53.208833    
   1374000   700.51007     -6315776.7      194.3302       197.60772      198.76518      10.798463    
   1375000   701.48427     -6315774.5      194.3302       197.60772      198.76518      57.88647     
   1376000   699.13684     -6315793        194.3302       197.60772      198.76518      59.723129    
   1377000   700.37317     -6315650.1      194.3302       197.60772      198.76518      70.667034    
   1378000   699.56388     -6315709.8      194.3302       197.60772      198.76518     -105.03697    
   1379000   699.78804     -6315819.9      194.3302       197.60772      198.76518      31.486611    
   1380000   701.22957     -6315718        194.3302       197.60772      198.76518     -14.661582    
   1381000   698.93536     -6315849.3      194.3302       197.60772      198.76518     -119.21937    
   1382000   699.72171     -6315794.3      194.3302       197.60772      198.76518      73.192738    
   1383000   700.10108     -6315661.2      194.3302       197.60772      198.76518      9.625024     
   1384000   699.87354     -6315739.7      194.3302       197.60772      198.76518     -126.12654    
   1385000   699.55402     -6315757.8      194.3302       197.60772      198.76518     -21.146697    
   1386000   700.09275     -6315829.2      194.3302       197.60772      198.76518     -128.18174    
   1387000   702.54272     -6315507.4      194.3302       197.60772      198.76518      2.4493462    
   1388000   699.35589     -6315840        194.3302       197.60772      198.76518      62.030947    
   1389000   700.23792     -6315666.5      194.3302       197.60772      198.76518      40.675877    
   1390000   700.65332     -6315772.8      194.3302       197.60772      198.76518     -66.9702      
   1391000   699.54523     -6315861.8      194.3302       197.60772      198.76518     -35.469487    
   1392000   699.9591      -6315785.7      194.3302       197.60772      198.76518     -30.828106    
   1393000   699.25456     -6315766.3      194.3302       197.60772      198.76518     -45.495232    
   1394000   700.08148     -6315763.4      194.3302       197.60772      198.76518     -73.63999     
   1395000   701.02318     -6315726.2      194.3302       197.60772      198.76518     -24.193986    
   1396000   700.47607     -6315768.8      194.3302       197.60772      198.76518     -31.307867    
   1397000   701.16785     -6315706.5      194.3302       197.60772      198.76518     -34.479518    
   1398000   700.29412     -6315862.5      194.3302       197.60772      198.76518     -76.453389    
   1399000   700.63884     -6315770.3      194.3302       197.60772      198.76518     -105.87524    
   1400000   698.67446     -6315931.6      194.3302       197.60772      198.76518     -101.9344     
   1401000   699.84828     -6315769.8      194.3302       197.60772      198.76518      8.7974865    
   1402000   699.96775     -6315834.7      194.3302       197.60772      198.76518     -106.18534    
   1403000   700.3927      -6315734.6      194.3302       197.60772      198.76518     -4.22146      
   1404000   698.87483     -6315858.4      194.3302       197.60772      198.76518     -19.304968    
   1405000   700.25019     -6315696.8      194.3302       197.60772      198.76518     -141.24947    
   1406000   699.58835     -6315845.5      194.3302       197.60772      198.76518      17.253746    
   1407000   700.86003     -6315704.5      194.3302       197.60772      198.76518      2.4812757    
   1408000   698.92832     -6315894.4      194.3302       197.60772      198.76518     -164.0962     
   1409000   699.71518     -6315720.9      194.3302       197.60772      198.76518     -106.22665    
   1410000   699.33825     -6315805.7      194.3302       197.60772      198.76518     -13.918424    
   1411000   700.46201     -6315756        194.3302       197.60772      198.76518     -76.551765    
   1412000   701.19724     -6315715.4      194.3302       197.60772      198.76518     -61.313155    
   1413000   699.73873     -6315656.2      194.3302       197.60772      198.76518      57.070396    
   1414000   699.23709     -6315832.1      194.3302       197.60772      198.76518     -52.50124     
   1415000   699.31441     -6315788.3      194.3302       197.60772      198.76518     -74.427264    
   1416000   698.25297     -6315868.7      194.3302       197.60772      198.76518      0.030315001  
   1417000   699.68832     -6315871.2      194.3302       197.60772      198.76518      1.7969377    
   1418000   699.60424     -6315740.9      194.3302       197.60772      198.76518      4.2411828    
   1419000   699.45893     -6315753.8      194.3302       197.60772      198.76518      23.047778    
   1420000   699.36433     -6315746.7      194.3302       197.60772      198.76518     -70.120367    
   1421000   700.34999     -6315783        194.3302       197.60772      198.76518     -3.874968     
   1422000   700.26234     -6315714.5      194.3302       197.60772      198.76518     -157.76586    
   1423000   701.46729     -6315730.9      194.3302       197.60772      198.76518     -92.625522    
   1424000   700.07245     -6315774.9      194.3302       197.60772      198.76518     -52.050691    
   1425000   699.7861      -6315750.9      194.3302       197.60772      198.76518     -47.478139    
   1426000   699.37614     -6315845.4      194.3302       197.60772      198.76518     -63.705027    
   1427000   700.92433     -6315603        194.3302       197.60772      198.76518     -48.31918     
   1428000   699.88788     -6315633.9      194.3302       197.60772      198.76518     -49.259284    
   1429000   700.38578     -6315698.4      194.3302       197.60772      198.76518     -66.7764      
   1430000   699.99313     -6315765.8      194.3302       197.60772      198.76518     -142.20905    
   1431000   699.99709     -6315764.6      194.3302       197.60772      198.76518     -47.904064    
   1432000   698.65885     -6315867.1      194.3302       197.60772      198.76518     -125.02386    
   1433000   701.25077     -6315685.3      194.3302       197.60772      198.76518     -42.005537    
   1434000   698.83033     -6315838.9      194.3302       197.60772      198.76518     -42.07173     
   1435000   699.8007      -6315768.3      194.3302       197.60772      198.76518     -66.758201    
   1436000   699.91505     -6315833.5      194.3302       197.60772      198.76518     -185.72226    
   1437000   699.59361     -6315806.7      194.3302       197.60772      198.76518     -96.912879    
   1438000   700.19016     -6315770.8      194.3302       197.60772      198.76518      49.463577    
   1439000   699.92513     -6315712.1      194.3302       197.60772      198.76518     -59.03063     
   1440000   699.76924     -6315759        194.3302       197.60772      198.76518     -48.012922    
   1441000   701.38406     -6315686        194.3302       197.60772      198.76518      34.235511    
   1442000   699.30154     -6315799.1      194.3302       197.60772      198.76518     -83.012106    
   1443000   700.10829     -6315726.1      194.3302       197.60772      198.76518     -34.600155    
   1444000   700.84385     -6315673.6      194.3302       197.60772      198.76518     -82.168254    
   1445000   699.8005      -6315802.5      194.3302       197.60772      198.76518      1.1764087    
   1446000   699.97831     -6315757.8      194.3302       197.60772      198.76518     -115.43904    
   1447000   701.24185     -6315685.4      194.3302       197.60772      198.76518      16.720611    
   1448000   700.08476     -6315783.6      194.3302       197.60772      198.76518     -9.3365487    
   1449000   700.76651     -6315686.2      194.3302       197.60772      198.76518     -48.044929    
   1450000   700.01873     -6315841.5      194.3302       197.60772      198.76518     -66.61124     
   1451000   700.74465     -6315700.7      194.3302       197.60772      198.76518     -147.61897    
   1452000   701.05885     -6315727.7      194.3302       197.60772      198.76518     -38.022133    
   1453000   699.96805     -6315747.1      194.3302       197.60772      198.76518     -111.18485    
   1454000   700.60423     -6315774.5      194.3302       197.60772      198.76518     -155.33933    
   1455000   700.31912     -6315670.4      194.3302       197.60772      198.76518     -30.941922    
   1456000   700.55602     -6315772.1      194.3302       197.60772      198.76518     -80.346706    
   1457000   699.57783     -6315767.6      194.3302       197.60772      198.76518     -73.662128    
   1458000   699.22606     -6315814.5      194.3302       197.60772      198.76518      19.933979    
   1459000   698.95865     -6315893.1      194.3302       197.60772      198.76518     -44.807887    
   1460000   699.93978     -6315836.7      194.3302       197.60772      198.76518     -77.315271    
   1461000   699.84186     -6315730.8      194.3302       197.60772      198.76518     -50.121006    
   1462000   700.76093     -6315774.7      194.3302       197.60772      198.76518     -117.4436     
   1463000   701.07166     -6315668.7      194.3302       197.60772      198.76518     -135.70116    
   1464000   699.93163     -6315758.3      194.3302       197.60772      198.76518     -73.876906    
   1465000   700.3416      -6315828.8      194.3302       197.60772      198.76518     -57.046764    
   1466000   699.58243     -6315772.6      194.3302       197.60772      198.76518      32.63921     
   1467000   700.61911     -6315717.8      194.3302       197.60772      198.76518      9.3659383    
   1468000   700.24621     -6315778.2      194.3302       197.60772      198.76518     -18.753761    
   1469000   700.76147     -6315758.4      194.3302       197.60772      198.76518     -23.514611    
   1470000   699.20904     -6315800.7      194.3302       197.60772      198.76518     -46.374916    
   1471000   700.08844     -6315845.7      194.3302       197.60772      198.76518     -20.21109     
   1472000   699.7512      -6315854.6      194.3302       197.60772      198.76518     -43.40287     
   1473000   699.18289     -6315794.5      194.3302       197.60772      198.76518     -75.235557    
   1474000   699.69181     -6315773.5      194.3302       197.60772      198.76518     -59.43544     
   1475000   699.39856     -6315784.5      194.3302       197.60772      198.76518     -122.56501    
   1476000   700.49274     -6315773.6      194.3302       197.60772      198.76518     -121.01663    
   1477000   700.17552     -6315837.1      194.3302       197.60772      198.76518     -147.75086    
   1478000   699.78689     -6315795        194.3302       197.60772      198.76518     -155.8493     
   1479000   699.32828     -6315826.6      194.3302       197.60772      198.76518      24.229541    
   1480000   700.07572     -6315797.3      194.3302       197.60772      198.76518     -7.5650993    
   1481000   699.5195      -6315793.8      194.3302       197.60772      198.76518     -118.16046    
   1482000   699.25339     -6315805.9      194.3302       197.60772      198.76518     -7.1590891    
   1483000   700.80487     -6315735.2      194.3302       197.60772      198.76518     -119.61574    
   1484000   700.69879     -6315721.2      194.3302       197.60772      198.76518      44.025281    
   1485000   700.66333     -6315805.3      194.3302       197.60772      198.76518      55.568452    
   1486000   699.68934     -6315714.1      194.3302       197.60772      198.76518      13.500755    
   1487000   699.81835     -6315771.7      194.3302       197.60772      198.76518     -58.272892    
   1488000   700.52322     -6315654        194.3302       197.60772      198.76518     -90.144175    
   1489000   700.07086     -6315707.9      194.3302       197.60772      198.76518      67.285636    
   1490000   700.55999     -6315787.7      194.3302       197.60772      198.76518      53.217827    
   1491000   700.40397     -6315639.4      194.3302       197.60772      198.76518      73.82622     
   1492000   700.23828     -6315786.3      194.3302       197.60772      198.76518     -10.372364    
   1493000   700.53436     -6315740.4      194.3302       197.60772      198.76518     -79.769905    
   1494000   699.4316      -6315728        194.3302       197.60772      198.76518     -53.281469    
   1495000   699.37819     -6315884.6      194.3302       197.60772      198.76518     -28.269044    
   1496000   699.99331     -6315733.2      194.3302       197.60772      198.76518     -28.547323    
   1497000   699.66439     -6315818.1      194.3302       197.60772      198.76518     -88.347898    
   1498000   700.32459     -6315732        194.3302       197.60772      198.76518     -18.745996    
   1499000   700.60926     -6315551.1      194.3302       197.60772      198.76518     -79.501434    
   1500000   700.47125     -6315757.8      194.3302       197.60772      198.76518     -11.995425    
   1501000   702.32352     -6315732.7      194.3302       197.60772      198.76518     -53.301156    
   1502000   697.68644     -6315922.1      194.3302       197.60772      198.76518     -113.07961    
   1503000   699.26771     -6315908.2      194.3302       197.60772      198.76518     -106.34625    
   1504000   699.41723     -6315789.9      194.3302       197.60772      198.76518     -11.937101    
   1505000   700.4555      -6315785.4      194.3302       197.60772      198.76518     -149.13562    
   1506000   699.26762     -6315839.7      194.3302       197.60772      198.76518     -59.871485    
   1507000   698.78697     -6315847.5      194.3302       197.60772      198.76518     -112.51741    
   1508000   700.02478     -6315752.2      194.3302       197.60772      198.76518      46.84413     
   1509000   700.01067     -6315771.9      194.3302       197.60772      198.76518     -67.932815    
   1510000   699.5155      -6315765        194.3302       197.60772      198.76518     -122.82257    
   1511000   699.27158     -6315742        194.3302       197.60772      198.76518      119.9263     
   1512000   700.89831     -6315684.2      194.3302       197.60772      198.76518     -47.29244     
   1513000   700.75968     -6315762.5      194.3302       197.60772      198.76518     -109.75373    
   1514000   700.25244     -6315761.1      194.3302       197.60772      198.76518     -50.865761    
   1515000   700.2711      -6315772        194.3302       197.60772      198.76518     -40.716717    
   1516000   699.94408     -6315747.1      194.3302       197.60772      198.76518      7.7557636    
   1517000   700.64657     -6315684.9      194.3302       197.60772      198.76518     -98.227463    
   1518000   698.97889     -6315736.3      194.3302       197.60772      198.76518     -30.204396    
   1519000   699.17991     -6315828.3      194.3302       197.60772      198.76518      19.76041     
   1520000   701.09796     -6315805.1      194.3302       197.60772      198.76518     -161.44416    
   1521000   700.89533     -6315677.3      194.3302       197.60772      198.76518     -22.773859    
   1522000   699.73277     -6315826        194.3302       197.60772      198.76518     -36.581986    
   1523000   699.21684     -6315849.3      194.3302       197.60772      198.76518     -6.0801663    
   1524000   699.79814     -6315838.7      194.3302       197.60772      198.76518     -86.278777    
   1525000   699.88942     -6315722.9      194.3302       197.60772      198.76518     -47.07477     
   1526000   700.0744      -6315835.1      194.3302       197.60772      198.76518      24.872403    
   1527000   700.02952     -6315764        194.3302       197.60772      198.76518     -72.221044    
   1528000   699.42496     -6315824        194.3302       197.60772      198.76518     -172.50903    
   1529000   699.88376     -6315869.1      194.3302       197.60772      198.76518     -87.843973    
   1530000   699.49564     -6315871.5      194.3302       197.60772      198.76518     -27.001644    
   1531000   700.5291      -6315691.9      194.3302       197.60772      198.76518      22.20304     
   1532000   700.29577     -6315746.1      194.3302       197.60772      198.76518     -35.401065    
   1533000   700.02176     -6315792        194.3302       197.60772      198.76518      5.8704889    
   1534000   699.55646     -6315834.7      194.3302       197.60772      198.76518      38.404571    
   1535000   699.34141     -6315855.1      194.3302       197.60772      198.76518      25.505013    
   1536000   700.48597     -6315691.3      194.3302       197.60772      198.76518      129.13307    
   1537000   700.66772     -6315742.7      194.3302       197.60772      198.76518     -24.018276    
   1538000   699.95844     -6315877.6      194.3302       197.60772      198.76518     -225.09415    
   1539000   699.58063     -6315858.6      194.3302       197.60772      198.76518     -92.913381    
   1540000   699.9783      -6315803        194.3302       197.60772      198.76518     -166.26806    
   1541000   700.10449     -6315788.3      194.3302       197.60772      198.76518     -229.83949    
   1542000   699.75653     -6315723.3      194.3302       197.60772      198.76518      147.65627    
   1543000   699.86376     -6315783.3      194.3302       197.60772      198.76518     -61.303184    
   1544000   700.21511     -6315721.6      194.3302       197.60772      198.76518      13.251407    
   1545000   699.86714     -6315824.5      194.3302       197.60772      198.76518      67.292704    
   1546000   698.59546     -6315939.5      194.3302       197.60772      198.76518     -127.95315    
   1547000   699.28319     -6315776.2      194.3302       197.60772      198.76518      27.829718    
   1548000   698.59118     -6315858.1      194.3302       197.60772      198.76518     -77.93957     
   1549000   700.54888     -6315784.4      194.3302       197.60772      198.76518     -87.315936    
   1550000   700.74704     -6315770.2      194.3302       197.60772      198.76518     -23.917602    
   1551000   700.0198      -6315866.3      194.3302       197.60772      198.76518     -19.933701    
   1552000   700.76456     -6315634.9      194.3302       197.60772      198.76518      9.9462621    
   1553000   700.04026     -6315890.1      194.3302       197.60772      198.76518     -161.28314    
   1554000   699.3444      -6315850.4      194.3302       197.60772      198.76518     -81.389826    
   1555000   700.49749     -6315760.6      194.3302       197.60772      198.76518      2.9015085    
   1556000   701.13629     -6315658.4      194.3302       197.60772      198.76518     -147.67367    
   1557000   699.30985     -6315767.8      194.3302       197.60772      198.76518     -70.826       
   1558000   700.2983      -6315798.2      194.3302       197.60772      198.76518     -117.63212    
   1559000   700.61334     -6315706.5      194.3302       197.60772      198.76518     -244.05899    
   1560000   699.20096     -6315796.3      194.3302       197.60772      198.76518     -227.74368    
   1561000   699.38205     -6315752.9      194.3302       197.60772      198.76518      1.0783524    
   1562000   699.65679     -6315811.5      194.3302       197.60772      198.76518     -103.73391    
   1563000   700.62824     -6315644.2      194.3302       197.60772      198.76518     -155.8846     
   1564000   700.47895     -6315665.4      194.3302       197.60772      198.76518     -104.93685    
   1565000   701.84367     -6315635.8      194.3302       197.60772      198.76518     -71.963493    
   1566000   699.1922      -6315804        194.3302       197.60772      198.76518      17.921236    
   1567000   700.20461     -6315704        194.3302       197.60772      198.76518     -79.435647    
   1568000   699.1358      -6315868.9      194.3302       197.60772      198.76518      38.010637    
   1569000   700.45658     -6315681.9      194.3302       197.60772      198.76518     -48.123504    
   1570000   699.34185     -6315825.5      194.3302       197.60772      198.76518     -32.543984    
   1571000   700.98032     -6315671.2      194.3302       197.60772      198.76518     -110.26148    
   1572000   700.7128      -6315805.2      194.3302       197.60772      198.76518     -203.98036    
   1573000   699.77894     -6315870.7      194.3302       197.60772      198.76518      11.720358    
   1574000   698.82545     -6315820.7      194.3302       197.60772      198.76518      45.667356    
   1575000   700.50253     -6315642.7      194.3302       197.60772      198.76518     -1.7939762    
   1576000   699.08006     -6315861.4      194.3302       197.60772      198.76518     -16.592189    
   1577000   699.60426     -6315801        194.3302       197.60772      198.76518     -118.3865     
   1578000   700.60551     -6315737.2      194.3302       197.60772      198.76518      38.714812    
   1579000   699.37726     -6315751.3      194.3302       197.60772      198.76518     -107.24107    
   1580000   698.94532     -6315778        194.3302       197.60772      198.76518     -159.99315    
   1581000   699.49084     -6315863        194.3302       197.60772      198.76518     -78.629684    
   1582000   700.34572     -6315828.1      194.3302       197.60772      198.76518     -26.173767    
   1583000   700.13973     -6315763.6      194.3302       197.60772      198.76518     -63.06326     
   1584000   699.37574     -6315901.4      194.3302       197.60772      198.76518     -73.657693    
   1585000   699.14079     -6315785.8      194.3302       197.60772      198.76518     -18.478227    
   1586000   700.58178     -6315710.5      194.3302       197.60772      198.76518     -107.72007    
   1587000   699.47954     -6315911.7      194.3302       197.60772      198.76518     -98.385449    
   1588000   699.29825     -6315863.8      194.3302       197.60772      198.76518     -11.506883    
   1589000   700.19596     -6315862        194.3302       197.60772      198.76518     -156.96936    
   1590000   700.357       -6315650.7      194.3302       197.60772      198.76518     -12.694562    
   1591000   699.52631     -6315845.1      194.3302       197.60772      198.76518      8.4783421    
   1592000   700.2794      -6315739.4      194.3302       197.60772      198.76518     -65.91268     
   1593000   701.3263      -6315656.4      194.3302       197.60772      198.76518     -129.3131     
   1594000   700.74847     -6315737.3      194.3302       197.60772      198.76518     -28.234965    
   1595000   699.02143     -6315933.7      194.3302       197.60772      198.76518     -69.221953    
   1596000   701.52828     -6315679.1      194.3302       197.60772      198.76518     -135.83717    
   1597000   698.94283     -6315924.8      194.3302       197.60772      198.76518     -181.08611    
   1598000   699.64998     -6315689.7      194.3302       197.60772      198.76518      6.613915     
   1599000   700.72636     -6315740.6      194.3302       197.60772      198.76518     -93.073426    
   1600000   699.6038      -6315837        194.3302       197.60772      198.76518     -129.00566    
   1601000   699.46816     -6315816.5      194.3302       197.60772      198.76518     -148.05726    
   1602000   699.98179     -6315817.3      194.3302       197.60772      198.76518     -79.175652    
   1603000   699.34647     -6315856.4      194.3302       197.60772      198.76518      14.759735    
   1604000   698.43615     -6315898.3      194.3302       197.60772      198.76518     -187.65456    
   1605000   699.72471     -6315755.1      194.3302       197.60772      198.76518     -33.519646    
   1606000   700.70821     -6315734.8      194.3302       197.60772      198.76518     -30.962286    
   1607000   700.45343     -6315764.7      194.3302       197.60772      198.76518     -27.96658     
   1608000   700.06572     -6315761.9      194.3302       197.60772      198.76518     -137.56493    
   1609000   700.00743     -6315876.4      194.3302       197.60772      198.76518     -242.3289     
   1610000   699.13929     -6315912        194.3302       197.60772      198.76518     -52.283306    
   1611000   700.50708     -6315849.7      194.3302       197.60772      198.76518     -139.93223    
   1612000   700.46241     -6315744.1      194.3302       197.60772      198.76518     -24.1318      
   1613000   699.35902     -6315816.8      194.3302       197.60772      198.76518     -122.18233    
   1614000   700.16082     -6315804.4      194.3302       197.60772      198.76518      2.0008917    
   1615000   700.20973     -6315756.3      194.3302       197.60772      198.76518     -59.575762    
   1616000   700.11275     -6315823        194.3302       197.60772      198.76518     -50.960028    
   1617000   698.67416     -6315851.3      194.3302       197.60772      198.76518     -29.43089     
   1618000   700.48792     -6315790.5      194.3302       197.60772      198.76518     -50.531063    
   1619000   698.52406     -6315875.1      194.3302       197.60772      198.76518      49.858735    
   1620000   700.23831     -6315783.8      194.3302       197.60772      198.76518     -38.503268    
   1621000   699.58358     -6315705.4      194.3302       197.60772      198.76518     -148.59941    
   1622000   698.77253     -6315901.1      194.3302       197.60772      198.76518     -118.01171    
   1623000   699.54296     -6315779.6      194.3302       197.60772      198.76518     -78.592022    
   1624000   700.85858     -6315729.1      194.3302       197.60772      198.76518     -12.870948    
   1625000   699.36117     -6315886.3      194.3302       197.60772      198.76518     -153.22393    
   1626000   700.91091     -6315709.1      194.3302       197.60772      198.76518     -153.10183    
   1627000   700.96938     -6315702.5      194.3302       197.60772      198.76518     -100.58104    
   1628000   699.77333     -6315773        194.3302       197.60772      198.76518      10.498515    
   1629000   699.03263     -6315777        194.3302       197.60772      198.76518      56.961201    
   1630000   700.31317     -6315720.4      194.3302       197.60772      198.76518     -153.79992    
   1631000   701.52377     -6315656.9      194.3302       197.60772      198.76518      29.27346     
   1632000   701.02645     -6315720.7      194.3302       197.60772      198.76518      30.31673     
   1633000   699.7507      -6315862.6      194.3302       197.60772      198.76518     -9.3528178    
   1634000   699.63155     -6315879.4      194.3302       197.60772      198.76518     -195.92632    
   1635000   701.1014      -6315764.8      194.3302       197.60772      198.76518      7.4772544    
   1636000   700.82054     -6315757.9      194.3302       197.60772      198.76518     -72.747413    
   1637000   699.19424     -6315839        194.3302       197.60772      198.76518     -38.096249    
   1638000   698.5295      -6315897.9      194.3302       197.60772      198.76518     -75.213035    
   1639000   699.9504      -6315683.9      194.3302       197.60772      198.76518     -36.261505    
   1640000   700.12749     -6315773.1      194.3302       197.60772      198.76518     -32.150922    
   1641000   700.30331     -6315797.1      194.3302       197.60772      198.76518     -154.73335    
   1642000   700.64759     -6315665.4      194.3302       197.60772      198.76518     -76.754975    
   1643000   698.6825      -6315887.5      194.3302       197.60772      198.76518     -134.36392    
   1644000   700.07922     -6315846.6      194.3302       197.60772      198.76518      33.257864    
   1645000   699.61253     -6315797.7      194.3302       197.60772      198.76518     -54.181519    
   1646000   699.86301     -6315832.9      194.3302       197.60772      198.76518     -102.87864    
   1647000   699.12131     -6315850.2      194.3302       197.60772      198.76518     -135.56004    
   1648000   701.69866     -6315704.4      194.3302       197.60772      198.76518     -60.979052    
   1649000   699.98359     -6315855        194.3302       197.60772      198.76518     -138.13601    
   1650000   699.06946     -6315831.5      194.3302       197.60772      198.76518     -57.697955    
   1651000   700.17843     -6315759.1      194.3302       197.60772      198.76518     -89.204499    
   1652000   700.91884     -6315763.5      194.3302       197.60772      198.76518     -66.043093    
   1653000   699.98207     -6315747.7      194.3302       197.60772      198.76518     -64.362613    
   1654000   700.79499     -6315729.8      194.3302       197.60772      198.76518     -195.89819    
   1655000   700.47362     -6315710.5      194.3302       197.60772      198.76518     -114.95496    
   1656000   699.74326     -6315853.9      194.3302       197.60772      198.76518     -111.33705    
   1657000   699.43149     -6315836.5      194.3302       197.60772      198.76518     -26.966735    
   1658000   700.02634     -6315896.7      194.3302       197.60772      198.76518     -144.33479    
   1659000   698.93796     -6315806.9      194.3302       197.60772      198.76518      28.370842    
   1660000   699.96251     -6315710.8      194.3302       197.60772      198.76518      12.545653    
   1661000   700.13037     -6315748.9      194.3302       197.60772      198.76518      1.9816919    
   1662000   700.35863     -6315779        194.3302       197.60772      198.76518     -116.44535    
   1663000   699.69097     -6315869.7      194.3302       197.60772      198.76518     -96.028077    
   1664000   700.88015     -6315693        194.3302       197.60772      198.76518     -63.284214    
   1665000   698.53899     -6315960.6      194.3302       197.60772      198.76518     -24.185048    
   1666000   700.91377     -6315747.1      194.3302       197.60772      198.76518     -99.735821    
   1667000   699.86571     -6315756.5      194.3302       197.60772      198.76518     -2.8986889    
   1668000   700.87347     -6315718.2      194.3302       197.60772      198.76518     -122.62159    
   1669000   699.93127     -6315749.9      194.3302       197.60772      198.76518      81.135981    
   1670000   700.19899     -6315793.9      194.3302       197.60772      198.76518     -129.02186    
   1671000   699.94374     -6315763.9      194.3302       197.60772      198.76518     -111.58338    
   1672000   699.32922     -6315817.9      194.3302       197.60772      198.76518      30.389311    
   1673000   699.86181     -6315774.1      194.3302       197.60772      198.76518     -113.41734    
   1674000   699.83889     -6315741.2      194.3302       197.60772      198.76518      30.03443     
   1675000   699.74037     -6315839.6      194.3302       197.60772      198.76518     -186.37541    
   1676000   700.18086     -6315750.4      194.3302       197.60772      198.76518      50.744718    
   1677000   702.3805      -6315551.2      194.3302       197.60772      198.76518     -0.37253887   
   1678000   700.37298     -6315682        194.3302       197.60772      198.76518     -72.223513    
   1679000   700.85167     -6315733.3      194.3302       197.60772      198.76518     -97.673345    
   1680000   699.97261     -6315826.3      194.3302       197.60772      198.76518     -51.022802    
   1681000   699.76778     -6315774.5      194.3302       197.60772      198.76518     -59.46694     
   1682000   701.10988     -6315659.9      194.3302       197.60772      198.76518     -88.711043    
   1683000   700.42125     -6315721.3      194.3302       197.60772      198.76518     -107.43397    
   1684000   699.3601      -6315870.2      194.3302       197.60772      198.76518     -45.208224    
   1685000   700.7281      -6315801.9      194.3302       197.60772      198.76518     -62.403749    
   1686000   700.92474     -6315753.5      194.3302       197.60772      198.76518     -107.82119    
   1687000   700.49148     -6315753.1      194.3302       197.60772      198.76518     -14.249989    
   1688000   701.71795     -6315596.4      194.3302       197.60772      198.76518     -51.855578    
   1689000   699.99018     -6315851.5      194.3302       197.60772      198.76518     -26.218253    
   1690000   700.78246     -6315705.1      194.3302       197.60772      198.76518     -25.621362    
   1691000   700.44988     -6315762.7      194.3302       197.60772      198.76518     -11.654137    
   1692000   700.58924     -6315813.7      194.3302       197.60772      198.76518     -122.02756    
   1693000   700.68829     -6315751.6      194.3302       197.60772      198.76518     -34.854319    
   1694000   699.63911     -6315893.9      194.3302       197.60772      198.76518     -84.148713    
   1695000   699.36094     -6315885.4      194.3302       197.60772      198.76518      60.483772    
   1696000   699.81282     -6315900.8      194.3302       197.60772      198.76518      33.805069    
   1697000   700.48416     -6315751.2      194.3302       197.60772      198.76518      137.57622    
   1698000   701.22139     -6315645        194.3302       197.60772      198.76518     -4.5820542    
   1699000   700.88039     -6315749.8      194.3302       197.60772      198.76518     -5.8888827    
   1700000   700.34655     -6315726.5      194.3302       197.60772      198.76518     -64.656848    
   1701000   698.32226     -6315938.7      194.3302       197.60772      198.76518     -6.0639889    
   1702000   700.07437     -6315623.6      194.3302       197.60772      198.76518      72.7494      
   1703000   698.36634     -6316032.1      194.3302       197.60772      198.76518     -232.21478    
   1704000   700.36374     -6315728.6      194.3302       197.60772      198.76518     -23.126827    
   1705000   700.52252     -6315657.6      194.3302       197.60772      198.76518     -104.93543    
   1706000   699.53354     -6315696.8      194.3302       197.60772      198.76518     -23.700536    
   1707000   699.07678     -6315817.4      194.3302       197.60772      198.76518     -180.28057    
   1708000   699.62019     -6315822.4      194.3302       197.60772      198.76518     -132.46442    
   1709000   699.81027     -6315817.7      194.3302       197.60772      198.76518     -13.843485    
   1710000   699.54958     -6315881.7      194.3302       197.60772      198.76518     -126.80008    
   1711000   699.23002     -6315959.3      194.3302       197.60772      198.76518      38.222859    
   1712000   701.22019     -6315730.4      194.3302       197.60772      198.76518     -140.0345     
   1713000   699.79471     -6315814.5      194.3302       197.60772      198.76518     -85.015312    
   1714000   700.98284     -6315685.3      194.3302       197.60772      198.76518     -22.112224    
   1715000   699.79441     -6315740.8      194.3302       197.60772      198.76518     -41.657784    
   1716000   699.09847     -6315847.9      194.3302       197.60772      198.76518     -95.040733    
   1717000   699.96927     -6315748.7      194.3302       197.60772      198.76518     -98.734745    
   1718000   699.52696     -6315848.8      194.3302       197.60772      198.76518     -55.051968    
   1719000   699.71373     -6315821.3      194.3302       197.60772      198.76518     -307.18471    
   1720000   699.80239     -6315766.3      194.3302       197.60772      198.76518     -68.313514    
   1721000   699.16952     -6315803.9      194.3302       197.60772      198.76518     -229.92309    
   1722000   698.39038     -6315977.7      194.3302       197.60772      198.76518     -277.74794    
   1723000   700.84681     -6315680.5      194.3302       197.60772      198.76518     -106.64461    
   1724000   699.66961     -6315785.2      194.3302       197.60772      198.76518     -180.33221    
   1725000   699.41065     -6315853.9      194.3302       197.60772      198.76518     -154.40937    
   1726000   700.82472     -6315726.4      194.3302       197.60772      198.76518     -63.049388    
   1727000   700.27232     -6315778.1      194.3302       197.60772      198.76518     -65.644604    
   1728000   699.39431     -6315722.4      194.3302       197.60772      198.76518     -83.99078     
   1729000   700.13094     -6315819.6      194.3302       197.60772      198.76518     -195.21621    
   1730000   697.23219     -6315983        194.3302       197.60772      198.76518     -191.80361    
   1731000   700.35629     -6315757.8      194.3302       197.60772      198.76518     -117.34356    
   1732000   699.00817     -6315907.3      194.3302       197.60772      198.76518     -79.316218    
   1733000   700.1948      -6315782.1      194.3302       197.60772      198.76518     -179.26824    
   1734000   700.92108     -6315728.6      194.3302       197.60772      198.76518     -84.490164    
   1735000   699.37575     -6315892.7      194.3302       197.60772      198.76518     -42.544671    
   1736000   700.36505     -6315756.7      194.3302       197.60772      198.76518      61.394126    
   1737000   700.18711     -6315633.6      194.3302       197.60772      198.76518     -32.160868    
   1738000   699.60748     -6315851        194.3302       197.60772      198.76518     -52.637191    
   1739000   699.68631     -6315807.2      194.3302       197.60772      198.76518     -90.193416    
   1740000   699.84664     -6315727.3      194.3302       197.60772      198.76518     -38.433176    
   1741000   699.17985     -6315802.7      194.3302       197.60772      198.76518      49.789983    
   1742000   698.39548     -6315922.1      194.3302       197.60772      198.76518     -92.735781    
   1743000   699.70084     -6315795.1      194.3302       197.60772      198.76518     -22.994031    
   1744000   699.70658     -6315848.9      194.3302       197.60772      198.76518      123.52597    
   1745000   700.67159     -6315693.7      194.3302       197.60772      198.76518      27.675016    
   1746000   699.52083     -6315847.9      194.3302       197.60772      198.76518     -52.060358    
   1747000   699.66667     -6315799.2      194.3302       197.60772      198.76518     -56.704737    
   1748000   700.55635     -6315771.7      194.3302       197.60772      198.76518     -199.77381    
   1749000   699.91858     -6315771.4      194.3302       197.60772      198.76518     -22.284155    
   1750000   698.6753      -6315945.5      194.3302       197.60772      198.76518     -175.82112    
   1751000   699.92119     -6315759.5      194.3302       197.60772      198.76518     -61.960986    
   1752000   698.89707     -6315854.4      194.3302       197.60772      198.76518     -62.176609    
   1753000   698.82465     -6315772.6      194.3302       197.60772      198.76518     -107.16082    
   1754000   699.41118     -6315860.2      194.3302       197.60772      198.76518     -35.783891    
   1755000   700.31068     -6315786.3      194.3302       197.60772      198.76518     -70.626693    
   1756000   699.36009     -6315778.1      194.3302       197.60772      198.76518     -7.8298105    
   1757000   698.53404     -6315880.6      194.3302       197.60772      198.76518     -146.08663    
   1758000   699.7353      -6315745.9      194.3302       197.60772      198.76518     -92.840701    
   1759000   699.39636     -6315880.1      194.3302       197.60772      198.76518     -167.10392    
   1760000   700.24276     -6315749.5      194.3302       197.60772      198.76518     -86.366032    
   1761000   699.1808      -6315744.6      194.3302       197.60772      198.76518     -37.750812    
   1762000   699.545       -6315812.3      194.3302       197.60772      198.76518     -78.90326     
   1763000   698.98153     -6315918.2      194.3302       197.60772      198.76518     -284.25719    
   1764000   699.96998     -6315708.6      194.3302       197.60772      198.76518      43.918013    
   1765000   699.49022     -6315951        194.3302       197.60772      198.76518     -234.78333    
   1766000   699.6795      -6315921.1      194.3302       197.60772      198.76518     -103.56851    
   1767000   700.86951     -6315752.3      194.3302       197.60772      198.76518     -87.985013    
   1768000   699.37522     -6315762        194.3302       197.60772      198.76518     -48.218858    
   1769000   699.88401     -6315814.1      194.3302       197.60772      198.76518     -73.285741    
   1770000   700.1337      -6315750.1      194.3302       197.60772      198.76518     -226.30237    
   1771000   700.58536     -6315753        194.3302       197.60772      198.76518     -33.33594     
   1772000   701.05948     -6315766        194.3302       197.60772      198.76518      53.716383    
   1773000   699.20833     -6315883.2      194.3302       197.60772      198.76518     -182.51834    
   1774000   700.67803     -6315675.6      194.3302       197.60772      198.76518     -8.7409122    
   1775000   699.62153     -6315762.8      194.3302       197.60772      198.76518     -126.86531    
   1776000   700.7606      -6315761.5      194.3302       197.60772      198.76518     -141.28585    
   1777000   700.20242     -6315708.3      194.3302       197.60772      198.76518     -30.362377    
   1778000   700.44005     -6315791.8      194.3302       197.60772      198.76518     -281.88394    
   1779000   701.47677     -6315774.7      194.3302       197.60772      198.76518     -28.957365    
   1780000   699.88672     -6315833.3      194.3302       197.60772      198.76518     -64.431332    
   1781000   699.19594     -6315688.5      194.3302       197.60772      198.76518     -73.308755    
   1782000   698.99073     -6315871.8      194.3302       197.60772      198.76518     -28.084003    
   1783000   701.06        -6315669.1      194.3302       197.60772      198.76518     -51.449297    
   1784000   700.74995     -6315805.4      194.3302       197.60772      198.76518     -80.614664    
   1785000   700.62035     -6315818.5      194.3302       197.60772      198.76518     -10.226184    
   1786000   699.6974      -6315862.4      194.3302       197.60772      198.76518     -97.210315    
   1787000   700.13417     -6315788.7      194.3302       197.60772      198.76518     -107.7235     
   1788000   700.09671     -6315731        194.3302       197.60772      198.76518     -47.095943    
   1789000   699.72051     -6315835.1      194.3302       197.60772      198.76518     -113.09432    
   1790000   700.82618     -6315784.6      194.3302       197.60772      198.76518     -70.284001    
   1791000   699.13534     -6315823.8      194.3302       197.60772      198.76518     -87.112731    
   1792000   699.83729     -6315881.7      194.3302       197.60772      198.76518     -128.30343    
   1793000   699.73429     -6315737.5      194.3302       197.60772      198.76518     -9.2418977    
   1794000   698.88188     -6315952.5      194.3302       197.60772      198.76518     -17.512363    
   1795000   700.49274     -6315599.2      194.3302       197.60772      198.76518      40.04274     
   1796000   699.78116     -6315765.5      194.3302       197.60772      198.76518     -83.347605    
   1797000   699.38395     -6315888.8      194.3302       197.60772      198.76518     -38.198444    
   1798000   699.85764     -6315808.2      194.3302       197.60772      198.76518      4.6388046    
   1799000   699.78124     -6315911.4      194.3302       197.60772      198.76518     -236.55497    
   1800000   700.48524     -6315606.9      194.3302       197.60772      198.76518     -47.705593    
   1801000   698.83983     -6315775.6      194.3302       197.60772      198.76518     -151.28474    
   1802000   699.44797     -6315766.5      194.3302       197.60772      198.76518     -151.65294    
   1803000   699.86825     -6315815.4      194.3302       197.60772      198.76518     -190.09927    
   1804000   699.18738     -6315928.5      194.3302       197.60772      198.76518     -103.22885    
   1805000   699.03304     -6315983.5      194.3302       197.60772      198.76518     -190.10899    
   1806000   698.46234     -6315868        194.3302       197.60772      198.76518     -14.227005    
   1807000   700.52795     -6315748.7      194.3302       197.60772      198.76518      12.832582    
   1808000   701.08502     -6315721.8      194.3302       197.60772      198.76518     -107.52185    
   1809000   698.92718     -6315920.4      194.3302       197.60772      198.76518     -94.629567    
   1810000   699.72632     -6315840.9      194.3302       197.60772      198.76518     -97.796211    
   1811000   698.65411     -6315881.7      194.3302       197.60772      198.76518     -40.840359    
   1812000   701.07921     -6315670.3      194.3302       197.60772      198.76518      124.70964    
   1813000   699.86772     -6315807.5      194.3302       197.60772      198.76518     -135.60628    
   1814000   700.0344      -6315747.2      194.3302       197.60772      198.76518     -68.180591    
   1815000   700.33536     -6315766.5      194.3302       197.60772      198.76518      49.132076    
   1816000   700.84029     -6315651.9      194.3302       197.60772      198.76518      34.105915    
   1817000   700.98418     -6315740.4      194.3302       197.60772      198.76518     -174.91051    
   1818000   699.48968     -6315799.7      194.3302       197.60772      198.76518      15.196186    
   1819000   699.90097     -6315851.7      194.3302       197.60772      198.76518     -77.311328    
   1820000   700.17788     -6315739        194.3302       197.60772      198.76518     -18.162734    
   1821000   700.56959     -6315764.7      194.3302       197.60772      198.76518     -198.31806    
   1822000   699.54978     -6315834.4      194.3302       197.60772      198.76518     -69.439883    
   1823000   699.32301     -6315771.8      194.3302       197.60772      198.76518     -121.60788    
   1824000   699.65989     -6315725.8      194.3302       197.60772      198.76518     -84.628735    
   1825000   699.64502     -6315812.2      194.3302       197.60772      198.76518      14.582627    
   1826000   700.44614     -6315712.3      194.3302       197.60772      198.76518     -106.43226    
   1827000   699.40581     -6315827.2      194.3302       197.60772      198.76518     -38.812425    
   1828000   700.73709     -6315797.8      194.3302       197.60772      198.76518     -10.637944    
   1829000   699.24289     -6315857.5      194.3302       197.60772      198.76518     -180.60956    
   1830000   701.80251     -6315702.3      194.3302       197.60772      198.76518      11.8246      
   1831000   698.80542     -6315902.2      194.3302       197.60772      198.76518     -83.739017    
   1832000   699.03056     -6315816        194.3302       197.60772      198.76518     -47.892662    
   1833000   699.67193     -6315754        194.3302       197.60772      198.76518      108.58054    
   1834000   699.13433     -6315839        194.3302       197.60772      198.76518     -139.77272    
   1835000   702.16094     -6315595.4      194.3302       197.60772      198.76518      35.021417    
   1836000   699.13465     -6315956.9      194.3302       197.60772      198.76518     -146.19308    
   1837000   700.23157     -6315709.9      194.3302       197.60772      198.76518     -5.1370136    
   1838000   700.47744     -6315789.3      194.3302       197.60772      198.76518      18.831677    
   1839000   700.24419     -6315697.3      194.3302       197.60772      198.76518     -25.873349    
   1840000   699.16948     -6315813.3      194.3302       197.60772      198.76518     -127.90494    
   1841000   701.11817     -6315735.9      194.3302       197.60772      198.76518      8.2567841    
   1842000   699.98549     -6315808.5      194.3302       197.60772      198.76518      57.864034    
   1843000   700.74897     -6315793.6      194.3302       197.60772      198.76518     -81.410966    
   1844000   701.30728     -6315646.7      194.3302       197.60772      198.76518     -49.011745    
   1845000   700.25178     -6315735.4      194.3302       197.60772      198.76518      92.980956    
   1846000   701.24204     -6315740.4      194.3302       197.60772      198.76518     -1.7481907    
   1847000   699.28664     -6315866.7      194.3302       197.60772      198.76518      44.732956    
   1848000   699.77332     -6315797.6      194.3302       197.60772      198.76518      74.121911    
   1849000   700.44201     -6315630.2      194.3302       197.60772      198.76518     -74.08199     
   1850000   700.21925     -6315733.3      194.3302       197.60772      198.76518     -80.410549    
   1851000   700.47818     -6315724.9      194.3302       197.60772      198.76518     -35.088184    
   1852000   700.55758     -6315813.5      194.3302       197.60772      198.76518     -78.277679    
   1853000   699.08963     -6315885.2      194.3302       197.60772      198.76518     -70.867364    
   1854000   698.61488     -6315949.1      194.3302       197.60772      198.76518     -102.59899    
   1855000   700.49967     -6315788.9      194.3302       197.60772      198.76518     -216.27146    
   1856000   698.32139     -6315950.6      194.3302       197.60772      198.76518     -150.42903    
   1857000   700.36234     -6315771.9      194.3302       197.60772      198.76518     -127.22697    
   1858000   699.36032     -6315876.8      194.3302       197.60772      198.76518      147.16577    
   1859000   701.2292      -6315716.2      194.3302       197.60772      198.76518     -42.660149    
   1860000   701.26511     -6315581.6      194.3302       197.60772      198.76518      34.838659    
   1861000   699.1818      -6315852.9      194.3302       197.60772      198.76518     -101.84952    
   1862000   699.87116     -6315809.5      194.3302       197.60772      198.76518      3.4619706    
   1863000   700.42501     -6315794.7      194.3302       197.60772      198.76518     -110.45359    
   1864000   699.27645     -6315841        194.3302       197.60772      198.76518     -30.788132    
   1865000   699.81153     -6315890.7      194.3302       197.60772      198.76518     -9.0542127    
   1866000   701.11634     -6315611.1      194.3302       197.60772      198.76518      19.921388    
   1867000   700.74564     -6315707.9      194.3302       197.60772      198.76518     -60.384249    
   1868000   700.96361     -6315823.6      194.3302       197.60772      198.76518      12.354163    
   1869000   698.74918     -6315901.4      194.3302       197.60772      198.76518     -102.59917    
   1870000   699.31784     -6315943.9      194.3302       197.60772      198.76518     -36.953086    
   1871000   702.11256     -6315595.3      194.3302       197.60772      198.76518     -115.67643    
   1872000   699.20066     -6315801.6      194.3302       197.60772      198.76518     -28.535443    
   1873000   701.8593      -6315719.3      194.3302       197.60772      198.76518     -112.563      
   1874000   701.12594     -6315787.8      194.3302       197.60772      198.76518     -43.588085    
   1875000   700.31638     -6315780.4      194.3302       197.60772      198.76518      50.408407    
   1876000   699.40316     -6315897.5      194.3302       197.60772      198.76518     -0.72821834   
   1877000   699.58973     -6315758.3      194.3302       197.60772      198.76518     -40.587331    
   1878000   699.93037     -6315800.8      194.3302       197.60772      198.76518      1.1079737    
   1879000   700.62886     -6315869.2      194.3302       197.60772      198.76518     -67.606026    
   1880000   699.96357     -6315806.8      194.3302       197.60772      198.76518     -42.475546    
   1881000   699.12557     -6315908        194.3302       197.60772      198.76518     -172.90806    
   1882000   700.8432      -6315739.4      194.3302       197.60772      198.76518     -2.1085704    
   1883000   699.54649     -6315879.5      194.3302       197.60772      198.76518     -58.044381    
   1884000   699.79559     -6315901.2      194.3302       197.60772      198.76518     -14.025898    
   1885000   699.48574     -6315962.9      194.3302       197.60772      198.76518     -105.3069     
   1886000   699.42422     -6315862        194.3302       197.60772      198.76518     -95.392593    
   1887000   699.49807     -6315818.7      194.3302       197.60772      198.76518     -138.21289    
   1888000   700.02952     -6315804.7      194.3302       197.60772      198.76518     -78.903301    
   1889000   700.1664      -6315788.3      194.3302       197.60772      198.76518     -146.26135    
   1890000   699.43219     -6315885.2      194.3302       197.60772      198.76518     -76.500328    
   1891000   699.34237     -6315851.1      194.3302       197.60772      198.76518     -157.67699    
   1892000   700.75174     -6315681.7      194.3302       197.60772      198.76518      46.474563    
   1893000   700.19083     -6315666.4      194.3302       197.60772      198.76518      53.089283    
   1894000   699.96037     -6315841.3      194.3302       197.60772      198.76518     -209.07161    
   1895000   699.59762     -6315856.9      194.3302       197.60772      198.76518     -170.03059    
   1896000   699.6217      -6315835.8      194.3302       197.60772      198.76518     -114.88874    
   1897000   698.9823      -6315888        194.3302       197.60772      198.76518     -35.838572    
   1898000   699.75366     -6315859.2      194.3302       197.60772      198.76518      18.857347    
   1899000   699.69201     -6315890        194.3302       197.60772      198.76518     -63.590942    
   1900000   699.67171     -6315835.2      194.3302       197.60772      198.76518     -62.809003    
   1901000   700.81631     -6315769.6      194.3302       197.60772      198.76518     -45.37906     
   1902000   699.97597     -6315905.3      194.3302       197.60772      198.76518     -97.099314    
   1903000   699.52865     -6315898.4      194.3302       197.60772      198.76518     -102.48958    
   1904000   701.33421     -6315702        194.3302       197.60772      198.76518     -40.870215    
   1905000   700.24463     -6315763.9      194.3302       197.60772      198.76518      12.668952    
   1906000   700.90002     -6315677.9      194.3302       197.60772      198.76518      9.7037894    
   1907000   699.52227     -6315771.2      194.3302       197.60772      198.76518      5.2495484    
   1908000   699.32259     -6315882.9      194.3302       197.60772      198.76518      138.72304    
   1909000   700.31155     -6315746.4      194.3302       197.60772      198.76518      19.033191    
   1910000   700.47591     -6315797.2      194.3302       197.60772      198.76518     -42.942945    
   1911000   699.97635     -6315739.3      194.3302       197.60772      198.76518     -98.09554     
   1912000   700.01976     -6315745.2      194.3302       197.60772      198.76518     -0.44166633   
   1913000   700.7522      -6315786.2      194.3302       197.60772      198.76518     -151.54915    
   1914000   699.94127     -6315872.6      194.3302       197.60772      198.76518     -0.51360145   
   1915000   699.62864     -6315753.9      194.3302       197.60772      198.76518      10.195409    
   1916000   700.28342     -6315814.4      194.3302       197.60772      198.76518     -39.358858    
   1917000   699.09257     -6315889.5      194.3302       197.60772      198.76518     -103.06892    
   1918000   700.09754     -6315676.4      194.3302       197.60772      198.76518     -57.493423    
   1919000   699.84562     -6315809.2      194.3302       197.60772      198.76518     -186.73453    
   1920000   700.07414     -6315859.4      194.3302       197.60772      198.76518     -124.45112    
   1921000   699.72686     -6315795.3      194.3302       197.60772      198.76518     -122.21794    
   1922000   700.50802     -6315779.5      194.3302       197.60772      198.76518     -170.30357    
   1923000   699.39514     -6315855.9      194.3302       197.60772      198.76518     -174.88911    
   1924000   700.17644     -6315797.1      194.3302       197.60772      198.76518     -68.453309    
   1925000   700.27914     -6315671.3      194.3302       197.60772      198.76518      37.227506    
   1926000   699.95925     -6315774.3      194.3302       197.60772      198.76518     -116.25816    
   1927000   699.4609      -6315821.1      194.3302       197.60772      198.76518     -81.365257    
   1928000   699.67194     -6315870.1      194.3302       197.60772      198.76518     -99.178728    
   1929000   701.72414     -6315730.9      194.3302       197.60772      198.76518     -51.911272    
   1930000   699.70394     -6315741.7      194.3302       197.60772      198.76518     -69.829955    
   1931000   700.4252      -6315701.6      194.3302       197.60772      198.76518     -30.606424    
   1932000   700.3288      -6315730.2      194.3302       197.60772      198.76518     -137.0323     
   1933000   701.82835     -6315576.7      194.3302       197.60772      198.76518     -2.1050723    
   1934000   699.25661     -6315817.3      194.3302       197.60772      198.76518     -203.32291    
   1935000   699.59449     -6315871.6      194.3302       197.60772      198.76518     -204.63708    
   1936000   700.21908     -6315765        194.3302       197.60772      198.76518      48.223108    
   1937000   699.37867     -6315861.9      194.3302       197.60772      198.76518     -128.89004    
   1938000   699.89947     -6315776.8      194.3302       197.60772      198.76518     -65.552475    
   1939000   699.90568     -6315880.9      194.3302       197.60772      198.76518     -53.067773    
   1940000   699.22361     -6315817.1      194.3302       197.60772      198.76518     -73.428467    
   1941000   700.81047     -6315782.8      194.3302       197.60772      198.76518     -67.617452    
   1942000   699.3186      -6315789.2      194.3302       197.60772      198.76518      10.080378    
   1943000   699.08725     -6315864.1      194.3302       197.60772      198.76518     -58.094314    
   1944000   701.68414     -6315673.4      194.3302       197.60772      198.76518      20.489479    
   1945000   699.9245      -6315826.8      194.3302       197.60772      198.76518     -69.056365    
   1946000   699.92404     -6315676.6      194.3302       197.60772      198.76518      42.88349     
   1947000   700.84403     -6315720.5      194.3302       197.60772      198.76518     -17.604778    
   1948000   699.74888     -6315887.3      194.3302       197.60772      198.76518     -115.2915     
   1949000   700.99245     -6315674.4      194.3302       197.60772      198.76518     -178.51307    
   1950000   700.45222     -6315678.8      194.3302       197.60772      198.76518     -74.767251    
   1951000   698.78585     -6315846.7      194.3302       197.60772      198.76518     -7.254145     
   1952000   699.95589     -6315777.2      194.3302       197.60772      198.76518     -27.193447    
   1953000   700.43647     -6315794.4      194.3302       197.60772      198.76518     -170.22011    
   1954000   699.29222     -6315747.5      194.3302       197.60772      198.76518     -242.37975    
   1955000   701.08411     -6315800.5      194.3302       197.60772      198.76518     -176.81997    
   1956000   698.57546     -6315955.9      194.3302       197.60772      198.76518     -35.659867    
   1957000   701.18717     -6315759.1      194.3302       197.60772      198.76518     -126.67192    
   1958000   699.28483     -6315793.9      194.3302       197.60772      198.76518     -5.3296806    
   1959000   701.4067      -6315711.6      194.3302       197.60772      198.76518      33.584843    
   1960000   699.83578     -6315831.2      194.3302       197.60772      198.76518     -69.161549    
   1961000   700.39418     -6315786.5      194.3302       197.60772      198.76518     -40.670333    
   1962000   700.3804      -6315763.4      194.3302       197.60772      198.76518     -60.447014    
   1963000   700.28373     -6315764.5      194.3302       197.60772      198.76518     -0.84587998   
   1964000   700.04816     -6315732.2      194.3302       197.60772      198.76518     -46.071085    
   1965000   700.13273     -6315823        194.3302       197.60772      198.76518     -116.92953    
   1966000   699.5646      -6315844.3      194.3302       197.60772      198.76518     -30.183966    
   1967000   698.86584     -6315945.4      194.3302       197.60772      198.76518     -115.50124    
   1968000   700.47686     -6315648.4      194.3302       197.60772      198.76518     -66.062463    
   1969000   700.90347     -6315698.3      194.3302       197.60772      198.76518     -82.485512    
   1970000   699.52612     -6315774.8      194.3302       197.60772      198.76518     -154.29361    
   1971000   697.62377     -6315863.8      194.3302       197.60772      198.76518     -96.839611    
   1972000   699.6954      -6315853.6      194.3302       197.60772      198.76518     -30.941173    
   1973000   701.07724     -6315639        194.3302       197.60772      198.76518      220.09548    
   1974000   700.0592      -6315766.1      194.3302       197.60772      198.76518     -177.80282    
   1975000   700.20473     -6315860.6      194.3302       197.60772      198.76518     -116.89743    
   1976000   700.3498      -6315815.5      194.3302       197.60772      198.76518     -196.45834    
   1977000   701.01329     -6315661.5      194.3302       197.60772      198.76518      47.157632    
   1978000   700.99474     -6315692.6      194.3302       197.60772      198.76518     -85.924791    
   1979000   700.10549     -6315899.7      194.3302       197.60772      198.76518     -237.85207    
   1980000   699.70288     -6315874.8      194.3302       197.60772      198.76518     -49.878447    
   1981000   700.62947     -6315766.4      194.3302       197.60772      198.76518     -4.7464113    
   1982000   699.6251      -6315862.7      194.3302       197.60772      198.76518     -9.7479371    
   1983000   700.35946     -6315830.8      194.3302       197.60772      198.76518      20.532861    
   1984000   699.76279     -6315705        194.3302       197.60772      198.76518      96.346014    
   1985000   699.39349     -6315773.1      194.3302       197.60772      198.76518     -4.4211669    
   1986000   700.25458     -6315788.5      194.3302       197.60772      198.76518     -41.930111    
   1987000   700.89287     -6315794.4      194.3302       197.60772      198.76518      35.201893    
   1988000   699.38019     -6315855.7      194.3302       197.60772      198.76518     -116.26183    
   1989000   699.27586     -6315761.7      194.3302       197.60772      198.76518      11.215909    
   1990000   700.14798     -6315801        194.3302       197.60772      198.76518     -25.591732    
   1991000   698.97862     -6315856.5      194.3302       197.60772      198.76518     -80.356832    
   1992000   701.03252     -6315609.5      194.3302       197.60772      198.76518      25.747004    
   1993000   700.26382     -6315742.3      194.3302       197.60772      198.76518     -25.686289    
   1994000   700.17319     -6315684.4      194.3302       197.60772      198.76518     -2.174501     
   1995000   699.19393     -6315825.8      194.3302       197.60772      198.76518     -125.4191     
   1996000   700.0759      -6315760.3      194.3302       197.60772      198.76518     -186.20967    
   1997000   699.88204     -6315799.6      194.3302       197.60772      198.76518     -58.813519    
   1998000   698.9604      -6315808.8      194.3302       197.60772      198.76518     -243.53717    
   1999000   699.92829     -6315682.3      194.3302       197.60772      198.76518     -95.275081    
   2000000   700.01954     -6315733.1      194.3302       197.60772      198.76518     -161.39442    
   2001000   700.87068     -6315800.6      194.3302       197.60772      198.76518     -142.33623    
   2002000   700.65259     -6315705.8      194.3302       197.60772      198.76518     -145.25138    
   2003000   701.11051     -6315726.8      194.3302       197.60772      198.76518     -138.03414    
   2004000   700.24613     -6315791.7      194.3302       197.60772      198.76518     -154.89447    
   2005000   700.20103     -6315674.5      194.3302       197.60772      198.76518     -59.500135    
   2006000   699.36016     -6315740.4      194.3302       197.60772      198.76518     -107.51637    
   2007000   699.6519      -6315919.7      194.3302       197.60772      198.76518     -107.97662    
   2008000   700.03956     -6315722.4      194.3302       197.60772      198.76518     -48.418328    
   2009000   700.52386     -6315804        194.3302       197.60772      198.76518      1.1952077    
   2010000   701.97059     -6315610.3      194.3302       197.60772      198.76518     -27.672152    
   2011000   700.24923     -6315725.7      194.3302       197.60772      198.76518     -55.514309    
   2012000   699.0447      -6315977.5      194.3302       197.60772      198.76518     -144.84338    
   2013000   700.51665     -6315750.9      194.3302       197.60772      198.76518      115.1398     
   2014000   700.48309     -6315661.1      194.3302       197.60772      198.76518     -121.48305    
   2015000   699.29444     -6315801.7      194.3302       197.60772      198.76518     -129.72982    
   2016000   700.34211     -6315695.9      194.3302       197.60772      198.76518     -54.234825    
   2017000   699.571       -6315896.5      194.3302       197.60772      198.76518     -9.4604315    
   2018000   698.68878     -6315790.4      194.3302       197.60772      198.76518     -186.15634    
   2019000   699.88141     -6315832.4      194.3302       197.60772      198.76518     -105.25531    
   2020000   700.18325     -6315747.5      194.3302       197.60772      198.76518     -142.52669    
   2021000   699.69415     -6315821.1      194.3302       197.60772      198.76518     -118.34563    
   2022000   700.66787     -6315728.2      194.3302       197.60772      198.76518      50.397259    
   2023000   699.8672      -6315922.8      194.3302       197.60772      198.76518     -38.905136    
   2024000   700.44777     -6315734        194.3302       197.60772      198.76518     -94.57941     
   2025000   700.27309     -6315856.1      194.3302       197.60772      198.76518     -20.616221    
   2026000   701.16364     -6315724.6      194.3302       197.60772      198.76518     -50.078456    
   2027000   700.21745     -6315765        194.3302       197.60772      198.76518      85.981796    
   2028000   701.67124     -6315755.9      194.3302       197.60772      198.76518     -108.7831     
   2029000   701.45843     -6315728.5      194.3302       197.60772      198.76518     -143.67808    
   2030000   699.3316      -6315873.8      194.3302       197.60772      198.76518      144.4175     
   2031000   700.9031      -6315711        194.3302       197.60772      198.76518     -103.29953    
   2032000   698.96641     -6315881.5      194.3302       197.60772      198.76518     -118.59559    
   2033000   699.2487      -6315739.8      194.3302       197.60772      198.76518      48.601008    
   2034000   700.1902      -6315752.4      194.3302       197.60772      198.76518     -115.1717     
   2035000   700.83933     -6315706.7      194.3302       197.60772      198.76518     -88.013647    
   2036000   699.32754     -6315905.5      194.3302       197.60772      198.76518     -73.212815    
   2037000   700.02359     -6315836        194.3302       197.60772      198.76518     -31.743325    
   2038000   699.5823      -6315885.4      194.3302       197.60772      198.76518     -117.79636    
   2039000   700.07861     -6315893.7      194.3302       197.60772      198.76518      21.91513     
   2040000   698.57589     -6315960.5      194.3302       197.60772      198.76518     -73.934539    
   2041000   698.7729      -6316062.9      194.3302       197.60772      198.76518     -195.40677    
   2042000   700.60468     -6315801.1      194.3302       197.60772      198.76518     -129.96034    
   2043000   699.82171     -6315796.8      194.3302       197.60772      198.76518     -11.809021    
   2044000   699.51822     -6315823.8      194.3302       197.60772      198.76518      94.329091    
   2045000   699.31376     -6315904        194.3302       197.60772      198.76518     -67.447482    
   2046000   699.71449     -6315766        194.3302       197.60772      198.76518     -107.1545     
   2047000   700.01547     -6315802.3      194.3302       197.60772      198.76518      45.981606    
   2048000   699.94452     -6315775        194.3302       197.60772      198.76518      1.9754661    
   2049000   699.41248     -6315971.4      194.3302       197.60772      198.76518     -75.967032    
   2050000   699.50821     -6315780.8      194.3302       197.60772      198.76518     -56.639323    
   2051000   699.74257     -6315905.6      194.3302       197.60772      198.76518     -142.15969    
   2052000   700.14477     -6315760.5      194.3302       197.60772      198.76518     -27.833967    
   2053000   699.57922     -6315794.2      194.3302       197.60772      198.76518     -175.69088    
   2054000   699.29813     -6315887        194.3302       197.60772      198.76518     -96.360578    
   2055000   700.48836     -6315726.9      194.3302       197.60772      198.76518     -79.12404     
   2056000   700.1862      -6315736.7      194.3302       197.60772      198.76518     -22.40296     
   2057000   701.22473     -6315616.3      194.3302       197.60772      198.76518      8.6078527    
   2058000   700.69747     -6315736.6      194.3302       197.60772      198.76518     -10.071171    
   2059000   700.47162     -6315809.4      194.3302       197.60772      198.76518     -175.88819    
   2060000   698.61949     -6315886.3      194.3302       197.60772      198.76518     -112.7672     
   2061000   699.17652     -6315787        194.3302       197.60772      198.76518      10.967565    
   2062000   699.89609     -6315852.2      194.3302       197.60772      198.76518     -161.09144    
   2063000   700.34898     -6315736.3      194.3302       197.60772      198.76518     -60.749302    
   2064000   700.87712     -6315788.8      194.3302       197.60772      198.76518     -41.133925    
   2065000   700.12979     -6315857.8      194.3302       197.60772      198.76518     -54.109593    
   2066000   699.18403     -6315914.8      194.3302       197.60772      198.76518     -117.55626    
   2067000   699.36532     -6315951.4      194.3302       197.60772      198.76518     -76.497106    
   2068000   700.24078     -6315764.2      194.3302       197.60772      198.76518     -162.99084    
   2069000   699.23225     -6315799.1      194.3302       197.60772      198.76518     -86.294428    
   2070000   700.27742     -6315745.2      194.3302       197.60772      198.76518     -4.6268248    
   2071000   700.92229     -6315657.6      194.3302       197.60772      198.76518     -222.45383    
   2072000   700.60513     -6315648.3      194.3302       197.60772      198.76518      23.810623    
   2073000   698.92513     -6315842.6      194.3302       197.60772      198.76518     -19.100058    
   2074000   698.78549     -6316014.1      194.3302       197.60772      198.76518     -232.3596     
   2075000   700.15298     -6315854.2      194.3302       197.60772      198.76518     -98.078327    
   2076000   700.55622     -6315692.4      194.3302       197.60772      198.76518     -40.014643    
   2077000   701.3535      -6315712.9      194.3302       197.60772      198.76518      69.120704    
   2078000   699.77068     -6315796.3      194.3302       197.60772      198.76518      38.063933    
   2079000   701.09434     -6315692.6      194.3302       197.60772      198.76518      1.5149113    
   2080000   700.3676      -6315667.2      194.3302       197.60772      198.76518     -55.138713    
   2081000   701.81342     -6315636.8      194.3302       197.60772      198.76518     -1.7413519    
   2082000   698.70813     -6315859.3      194.3302       197.60772      198.76518     -102.46446    
   2083000   700.90839     -6315760.7      194.3302       197.60772      198.76518     -214.77984    
   2084000   701.00391     -6315715.1      194.3302       197.60772      198.76518     -153.85047    
   2085000   700.06628     -6315753        194.3302       197.60772      198.76518     -159.29502    
   2086000   700.75459     -6315770.6      194.3302       197.60772      198.76518     -58.746981    
   2087000   699.4624      -6315853.1      194.3302       197.60772      198.76518     -59.098305    
   2088000   699.43217     -6315774.4      194.3302       197.60772      198.76518      62.89214     
   2089000   700.44027     -6315814.1      194.3302       197.60772      198.76518      30.094042    
   2090000   700.38776     -6315678.7      194.3302       197.60772      198.76518     -50.895053    
   2091000   701.28577     -6315712.6      194.3302       197.60772      198.76518     -4.5345829    
   2092000   701.5632      -6315666.2      194.3302       197.60772      198.76518     -101.62608    
   2093000   700.04539     -6315840.7      194.3302       197.60772      198.76518     -96.093087    
   2094000   697.60699     -6315954        194.3302       197.60772      198.76518     -56.663362    
   2095000   701.48558     -6315676        194.3302       197.60772      198.76518     -48.342229    
   2096000   698.96941     -6315883.8      194.3302       197.60772      198.76518     -62.297761    
   2097000   698.50541     -6315949.4      194.3302       197.60772      198.76518     -134.87973    
   2098000   700.73518     -6315791.3      194.3302       197.60772      198.76518     -69.446161    
   2099000   698.60002     -6315956.9      194.3302       197.60772      198.76518     -71.374912    
   2100000   698.25924     -6315891.7      194.3302       197.60772      198.76518     -104.6344     
   2101000   699.59558     -6315754.4      194.3302       197.60772      198.76518      1.2097038    
   2102000   699.55544     -6315901.7      194.3302       197.60772      198.76518     -98.561708    
   2103000   699.58675     -6315850.8      194.3302       197.60772      198.76518     -98.379215    
   2104000   700.19709     -6315769        194.3302       197.60772      198.76518     -111.39726    
   2105000   700.75098     -6315646.7      194.3302       197.60772      198.76518      23.190363    
   2106000   698.857       -6315819.4      194.3302       197.60772      198.76518     -164.72112    
   2107000   700.0012      -6315796        194.3302       197.60772      198.76518     -145.30009    
   2108000   699.88313     -6315766        194.3302       197.60772      198.76518     -182.50677    
   2109000   700.48398     -6315695.8      194.3302       197.60772      198.76518     -85.892931    
   2110000   699.00975     -6315894.2      194.3302       197.60772      198.76518     -66.015876    
   2111000   700.23271     -6315727.8      194.3302       197.60772      198.76518     -78.493721    
   2112000   699.61929     -6315779.9      194.3302       197.60772      198.76518     -32.860317    
   2113000   700.67584     -6315742.8      194.3302       197.60772      198.76518      20.837056    
   2114000   699.51419     -6315828.4      194.3302       197.60772      198.76518     -39.477751    
   2115000   699.43908     -6315856        194.3302       197.60772      198.76518     -25.3946      
   2116000   700.8211      -6315791.2      194.3302       197.60772      198.76518     -6.7555177    
   2117000   700.46128     -6315788.5      194.3302       197.60772      198.76518     -99.208997    
   2118000   698.8065      -6315951.1      194.3302       197.60772      198.76518     -102.48224    
   2119000   700.30371     -6315826        194.3302       197.60772      198.76518     -108.05561    
   2120000   700.79187     -6315760.8      194.3302       197.60772      198.76518     -40.983436    
   2121000   700.24811     -6315700.6      194.3302       197.60772      198.76518      50.177441    
   2122000   700.97561     -6315727        194.3302       197.60772      198.76518     -84.579363    
   2123000   700.03126     -6315921.9      194.3302       197.60772      198.76518      70.737251    
   2124000   697.89751     -6315944.5      194.3302       197.60772      198.76518     -125.22681    
   2125000   700.50147     -6315700.1      194.3302       197.60772      198.76518     -26.567502    
   2126000   699.98801     -6315853.7      194.3302       197.60772      198.76518     -5.3179423    
   2127000   699.67896     -6315844.7      194.3302       197.60772      198.76518     -152.36816    
   2128000   700.05062     -6315748        194.3302       197.60772      198.76518      7.1210027    
   2129000   701.46011     -6315725.4      194.3302       197.60772      198.76518     -39.518107    
   2130000   699.93073     -6315840.3      194.3302       197.60772      198.76518     -55.024997    
   2131000   700.19105     -6315624.7      194.3302       197.60772      198.76518      25.933915    
   2132000   700.77671     -6315698.3      194.3302       197.60772      198.76518      43.792122    
   2133000   700.47871     -6315814.6      194.3302       197.60772      198.76518     -46.035585    
   2134000   699.60438     -6315792.8      194.3302       197.60772      198.76518      0.75719438   
   2135000   699.5027      -6315806.4      194.3302       197.60772      198.76518      72.658753    
   2136000   700.82585     -6315741.4      194.3302       197.60772      198.76518     -66.336212    
   2137000   699.42804     -6315877.7      194.3302       197.60772      198.76518     -122.15474    
   2138000   700.30567     -6315724.7      194.3302       197.60772      198.76518     -13.907599    
   2139000   698.2144      -6315965.1      194.3302       197.60772      198.76518     -126.06481    
   2140000   699.31399     -6315796.9      194.3302       197.60772      198.76518     -50.155152    
   2141000   699.79031     -6315844.1      194.3302       197.60772      198.76518     -93.832984    
   2142000   700.15215     -6315821.1      194.3302       197.60772      198.76518      50.189331    
   2143000   699.59177     -6315835.7      194.3302       197.60772      198.76518     -62.451171    
   2144000   698.67306     -6315922.3      194.3302       197.60772      198.76518     -105.7125     
   2145000   700.20944     -6315836.9      194.3302       197.60772      198.76518      14.383598    
   2146000   699.84871     -6315780.7      194.3302       197.60772      198.76518     -89.046015    
   2147000   700.76669     -6315689.4      194.3302       197.60772      198.76518      0.92257973   
   2148000   700.25413     -6315823.1      194.3302       197.60772      198.76518     -104.17803    
   2149000   700.3895      -6315886.1      194.3302       197.60772      198.76518     -207.06014    
   2150000   701.17264     -6315817.2      194.3302       197.60772      198.76518     -186.7423     
   2151000   700.32195     -6315715.3      194.3302       197.60772      198.76518      93.812152    
   2152000   700.40176     -6315736        194.3302       197.60772      198.76518     -36.514247    
   2153000   700.11177     -6315746.7      194.3302       197.60772      198.76518      18.933196    
   2154000   699.66422     -6315829.8      194.3302       197.60772      198.76518     -15.496396    
   2155000   700.48729     -6315857.2      194.3302       197.60772      198.76518     -146.06556    
   2156000   699.81681     -6315870.5      194.3302       197.60772      198.76518     -161.09022    
   2157000   701.39175     -6315733.8      194.3302       197.60772      198.76518     -118.08937    
   2158000   700.65856     -6315786.2      194.3302       197.60772      198.76518     -79.034702    
   2159000   700.61335     -6315827.7      194.3302       197.60772      198.76518     -22.337569    
   2160000   700.72437     -6315788        194.3302       197.60772      198.76518     -207.14779    
   2161000   698.97597     -6315896.9      194.3302       197.60772      198.76518      35.850842    
   2162000   699.24818     -6315916.1      194.3302       197.60772      198.76518     -86.658975    
   2163000   700.09834     -6315840.6      194.3302       197.60772      198.76518     -100.39502    
   2164000   699.09827     -6315684.4      194.3302       197.60772      198.76518      72.367701    
   2165000   700.3951      -6315949.5      194.3302       197.60772      198.76518     -238.66778    
   2166000   698.2762      -6315928.3      194.3302       197.60772      198.76518     -52.426086    
   2167000   700.24219     -6315773.7      194.3302       197.60772      198.76518     -112.04228    
   2168000   699.72054     -6315843.1      194.3302       197.60772      198.76518     -15.707466    
   2169000   700.42924     -6315664.2      194.3302       197.60772      198.76518     -51.972636    
   2170000   699.0105      -6315914.2      194.3302       197.60772      198.76518     -108.98571    
   2171000   700.20004     -6315722.6      194.3302       197.60772      198.76518      67.4558      
   2172000   699.53545     -6315759.1      194.3302       197.60772      198.76518      20.678325    
   2173000   701.15879     -6315713.9      194.3302       197.60772      198.76518     -11.360436    
   2174000   700.5896      -6315806.4      194.3302       197.60772      198.76518     -78.796499    
   2175000   699.7575      -6315771        194.3302       197.60772      198.76518     -243.91858    
   2176000   700.39788     -6315754        194.3302       197.60772      198.76518     -93.306977    
   2177000   699.7664      -6315825.8      194.3302       197.60772      198.76518     -58.723276    
   2178000   699.18753     -6315763.8      194.3302       197.60772      198.76518     -160.65125    
   2179000   699.61768     -6315891.3      194.3302       197.60772      198.76518     -57.053166    
   2180000   700.48522     -6315757.4      194.3302       197.60772      198.76518     -175.79046    
   2181000   700.92291     -6315747        194.3302       197.60772      198.76518     -153.7997     
   2182000   699.14468     -6315918.5      194.3302       197.60772      198.76518     -12.467344    
   2183000   699.96768     -6315819.6      194.3302       197.60772      198.76518     -75.097624    
   2184000   699.62682     -6315787.9      194.3302       197.60772      198.76518      50.556635    
   2185000   700.66383     -6315771.6      194.3302       197.60772      198.76518     -195.50929    
   2186000   699.98546     -6315737.5      194.3302       197.60772      198.76518     -151.08368    
   2187000   700.22466     -6315829.1      194.3302       197.60772      198.76518     -116.99548    
   2188000   698.97978     -6315919.1      194.3302       197.60772      198.76518     -270.17696    
   2189000   699.41922     -6315822.3      194.3302       197.60772      198.76518     -37.684551    
   2190000   699.62677     -6315888.8      194.3302       197.60772      198.76518     -102.87375    
   2191000   700.41121     -6315740.5      194.3302       197.60772      198.76518      45.363366    
   2192000   698.73599     -6315916.7      194.3302       197.60772      198.76518     -85.289369    
   2193000   699.6911      -6315856.6      194.3302       197.60772      198.76518     -171.70133    
   2194000   700.46218     -6315787        194.3302       197.60772      198.76518     -28.848147    
   2195000   700.10286     -6315759.8      194.3302       197.60772      198.76518      40.026478    
   2196000   698.75437     -6316031.7      194.3302       197.60772      198.76518     -107.33002    
   2197000   700.19274     -6315899.5      194.3302       197.60772      198.76518      70.812505    
   2198000   699.96458     -6315777.6      194.3302       197.60772      198.76518      196.86041    
   2199000   701.79269     -6315667.3      194.3302       197.60772      198.76518      42.370295    
   2200000   700.03047     -6315805.7      194.3302       197.60772      198.76518     -57.928254    
   2201000   698.82842     -6316032.2      194.3302       197.60772      198.76518     -12.328322    
   2202000   700.3105      -6315756.1      194.3302       197.60772      198.76518     -140.58317    
   2203000   699.85233     -6315905.3      194.3302       197.60772      198.76518     -16.702053    
   2204000   699.96975     -6315798.7      194.3302       197.60772      198.76518     -120.26224    
   2205000   700.94109     -6315771.4      194.3302       197.60772      198.76518     -87.617349    
   2206000   700.45028     -6315723.9      194.3302       197.60772      198.76518      71.045512    
   2207000   700.08315     -6315835.5      194.3302       197.60772      198.76518     -211.77973    
   2208000   700.22694     -6315621.7      194.3302       197.60772      198.76518      78.606034    
   2209000   700.86998     -6315769.3      194.3302       197.60772      198.76518     -136.29       
   2210000   700.23412     -6315773.1      194.3302       197.60772      198.76518     -159.53413    
   2211000   699.22626     -6315751.9      194.3302       197.60772      198.76518     -40.99674     
   2212000   701.21146     -6315705.3      194.3302       197.60772      198.76518     -81.829238    
   2213000   700.57619     -6315786.8      194.3302       197.60772      198.76518     -59.752236    
   2214000   699.53164     -6315800.7      194.3302       197.60772      198.76518     -35.499179    
   2215000   699.70997     -6315785.5      194.3302       197.60772      198.76518     -25.688628    
   2216000   701.54514     -6315714.8      194.3302       197.60772      198.76518     -68.710165    
   2217000   700.32522     -6315770.7      194.3302       197.60772      198.76518      12.818246    
   2218000   699.82822     -6315837.4      194.3302       197.60772      198.76518     -108.60434    
   2219000   699.76889     -6315967.6      194.3302       197.60772      198.76518     -59.589851    
   2220000   699.963       -6315817.4      194.3302       197.60772      198.76518     -2.2610902    
   2221000   700.04636     -6315874.4      194.3302       197.60772      198.76518     -24.094997    
   2222000   699.80884     -6315800.4      194.3302       197.60772      198.76518      33.957416    
   2223000   701.39728     -6315798.3      194.3302       197.60772      198.76518     -32.900066    
   2224000   699.2959      -6315867.1      194.3302       197.60772      198.76518      8.6981788    
   2225000   699.28313     -6315823.7      194.3302       197.60772      198.76518     -129.36036    
   2226000   700.37373     -6315840        194.3302       197.60772      198.76518     -90.471084    
   2227000   700.27889     -6315818.5      194.3302       197.60772      198.76518      38.033565    
   2228000   699.2101      -6315927.7      194.3302       197.60772      198.76518     -159.53579    
   2229000   699.81136     -6315793.6      194.3302       197.60772      198.76518     -5.0662597    
   2230000   700.59492     -6315860        194.3302       197.60772      198.76518     -89.566681    
   2231000   700.28276     -6315740.6      194.3302       197.60772      198.76518     -13.394816    
   2232000   699.15982     -6315863.2      194.3302       197.60772      198.76518     -56.495068    
   2233000   700.09635     -6315887.7      194.3302       197.60772      198.76518     -138.36839    
   2234000   698.29904     -6315963.4      194.3302       197.60772      198.76518     -135.02556    
   2235000   698.80594     -6315871        194.3302       197.60772      198.76518     -54.122025    
   2236000   699.61815     -6315881        194.3302       197.60772      198.76518     -65.376938    
   2237000   698.57399     -6315877.7      194.3302       197.60772      198.76518     -10.355861    
   2238000   700.28212     -6315789.3      194.3302       197.60772      198.76518     -117.26111    
   2239000   700.91396     -6315725.1      194.3302       197.60772      198.76518     -86.925674    
   2240000   699.44853     -6315861.5      194.3302       197.60772      198.76518     -46.502587    
   2241000   699.47745     -6315900.5      194.3302       197.60772      198.76518     -118.94879    
   2242000   699.53685     -6315887.1      194.3302       197.60772      198.76518     -158.17798    
   2243000   700.11655     -6315770.7      194.3302       197.60772      198.76518     -184.66605    
   2244000   700.0558      -6315790.2      194.3302       197.60772      198.76518     -145.63517    
   2245000   699.73396     -6315724.9      194.3302       197.60772      198.76518     -255.09688    
   2246000   700.1433      -6315677.4      194.3302       197.60772      198.76518     -32.761744    
   2247000   700.20556     -6315799.8      194.3302       197.60772      198.76518     -48.067958    
   2248000   700.55264     -6315732.5      194.3302       197.60772      198.76518     -149.07424    
   2249000   699.73155     -6315786.6      194.3302       197.60772      198.76518     -63.694453    
   2250000   699.93502     -6315813.3      194.3302       197.60772      198.76518     -138.51009    
   2251000   700.2857      -6315810.5      194.3302       197.60772      198.76518     -202.75014    
   2252000   698.53289     -6315935.7      194.3302       197.60772      198.76518     -47.600961    
   2253000   698.98352     -6315836.8      194.3302       197.60772      198.76518     -144.10562    
   2254000   700.41842     -6315841        194.3302       197.60772      198.76518      6.8782139    
   2255000   699.48054     -6315850.6      194.3302       197.60772      198.76518     -20.351922    
   2256000   700.20122     -6315859.2      194.3302       197.60772      198.76518     -17.894088    
   2257000   700.22436     -6315744        194.3302       197.60772      198.76518     -83.450527    
   2258000   700.59828     -6315766.1      194.3302       197.60772      198.76518     -42.271743    
   2259000   700.00828     -6315811.4      194.3302       197.60772      198.76518     -64.825608    
   2260000   699.09144     -6315841.5      194.3302       197.60772      198.76518      32.209039    
   2261000   699.48986     -6315949.2      194.3302       197.60772      198.76518     -159.09909    
   2262000   700.05987     -6315833.8      194.3302       197.60772      198.76518     -47.044481    
   2263000   699.23605     -6315818.9      194.3302       197.60772      198.76518     -183.2502     
   2264000   699.56384     -6315786        194.3302       197.60772      198.76518     -90.76735     
   2265000   701.2405      -6315754.7      194.3302       197.60772      198.76518     -47.621437    
   2266000   700.26044     -6315768.8      194.3302       197.60772      198.76518     -110.88864    
   2267000   700.25857     -6315753.3      194.3302       197.60772      198.76518     -187.02678    
   2268000   699.48011     -6315768.4      194.3302       197.60772      198.76518     -97.657808    
   2269000   698.47865     -6315879.5      194.3302       197.60772      198.76518      73.737547    
   2270000   699.96512     -6315837.8      194.3302       197.60772      198.76518     -186.97738    
   2271000   699.9937      -6315801.3      194.3302       197.60772      198.76518      42.165003    
   2272000   699.90522     -6315763.6      194.3302       197.60772      198.76518     -80.296685    
   2273000   700.66772     -6315847.4      194.3302       197.60772      198.76518      1.5005248    
   2274000   700.79846     -6315684.4      194.3302       197.60772      198.76518     -63.90057     
   2275000   701.42309     -6315623.7      194.3302       197.60772      198.76518     -81.894007    
   2276000   700.58167     -6315738.4      194.3302       197.60772      198.76518     -91.506616    
   2277000   698.91429     -6315915.3      194.3302       197.60772      198.76518      14.79842     
   2278000   700.27926     -6315825.7      194.3302       197.60772      198.76518     -61.431983    
   2279000   700.17549     -6315951.7      194.3302       197.60772      198.76518      80.677713    
   2280000   699.74868     -6315760        194.3302       197.60772      198.76518     -25.13164     
   2281000   700.08442     -6315825.3      194.3302       197.60772      198.76518      19.499578    
   2282000   701.50038     -6315707.1      194.3302       197.60772      198.76518      14.436067    
   2283000   700.0607      -6315829.4      194.3302       197.60772      198.76518      9.0808014    
   2284000   699.32871     -6315916.8      194.3302       197.60772      198.76518      104.98268    
   2285000   700.0077      -6315724.8      194.3302       197.60772      198.76518     -60.202275    
   2286000   699.69208     -6315842        194.3302       197.60772      198.76518      47.254052    
   2287000   701.08676     -6315804.2      194.3302       197.60772      198.76518     -67.929974    
   2288000   699.95171     -6315724.1      194.3302       197.60772      198.76518      9.1969281    
   2289000   700.9198      -6315717.7      194.3302       197.60772      198.76518     -85.728172    
   2290000   700.98166     -6315677.7      194.3302       197.60772      198.76518     -93.342924    
   2291000   698.99392     -6316010.4      194.3302       197.60772      198.76518     -152.6054     
   2292000   700.56754     -6315781.4      194.3302       197.60772      198.76518     -161.72027    
   2293000   699.91824     -6315801        194.3302       197.60772      198.76518     -38.119406    
   2294000   700.34158     -6315877.7      194.3302       197.60772      198.76518     -85.977005    
   2295000   699.71766     -6315884.4      194.3302       197.60772      198.76518     -122.80826    
   2296000   700.05021     -6315830.6      194.3302       197.60772      198.76518      95.29171     
   2297000   700.17753     -6315900.9      194.3302       197.60772      198.76518      51.086438    
   2298000   699.44929     -6315852.4      194.3302       197.60772      198.76518     -14.490735    
   2299000   700.94187     -6315717.9      194.3302       197.60772      198.76518      2.735563     
   2300000   699.81906     -6315809.8      194.3302       197.60772      198.76518      90.598396    
   2301000   700.28318     -6315801.8      194.3302       197.60772      198.76518     -112.10139    
   2302000   700.29988     -6315743.5      194.3302       197.60772      198.76518     -21.482665    
   2303000   699.51096     -6315784.6      194.3302       197.60772      198.76518      25.287731    
   2304000   699.47851     -6315773.9      194.3302       197.60772      198.76518     -72.037328    
   2305000   698.47568     -6315961.8      194.3302       197.60772      198.76518      48.850281    
   2306000   699.95987     -6315809.6      194.3302       197.60772      198.76518     -73.248056    
   2307000   700.8602      -6315705.4      194.3302       197.60772      198.76518     -1.6711497    
   2308000   700.87394     -6315716.6      194.3302       197.60772      198.76518     -6.5879457    
   2309000   700.21502     -6315774.2      194.3302       197.60772      198.76518     -176.77996    
   2310000   700.58252     -6315645.1      194.3302       197.60772      198.76518     -100.42896    
   2311000   698.94468     -6315861        194.3302       197.60772      198.76518     -116.88167    
   2312000   700.41558     -6315791.3      194.3302       197.60772      198.76518      5.6280168    
   2313000   700.4433      -6315834.4      194.3302       197.60772      198.76518     -61.923608    
   2314000   699.35541     -6315861.2      194.3302       197.60772      198.76518     -173.72223    
   2315000   700.8519      -6315741.2      194.3302       197.60772      198.76518     -85.371588    
   2316000   699.80796     -6315781.5      194.3302       197.60772      198.76518     -98.565878    
   2317000   700.39942     -6315858.7      194.3302       197.60772      198.76518     -140.62123    
   2318000   700.33628     -6315836.7      194.3302       197.60772      198.76518      37.215706    
   2319000   701.26524     -6315712.5      194.3302       197.60772      198.76518     -192.26017    
   2320000   698.11044     -6315988.9      194.3302       197.60772      198.76518     -70.245646    
   2321000   700.0019      -6315901.7      194.3302       197.60772      198.76518     -102.1482     
   2322000   700.832       -6315776.6      194.3302       197.60772      198.76518     -106.1321     
   2323000   701.17396     -6315654.7      194.3302       197.60772      198.76518      19.129144    
   2324000   700.41163     -6315793.8      194.3302       197.60772      198.76518     -19.093261    
   2325000   698.88515     -6315881.6      194.3302       197.60772      198.76518     -67.673143    
   2326000   699.77966     -6315786.8      194.3302       197.60772      198.76518     -135.6537     
   2327000   700.68768     -6315745.6      194.3302       197.60772      198.76518     -66.311999    
   2328000   699.58803     -6315778.5      194.3302       197.60772      198.76518      48.296058    
   2329000   701.29442     -6315603.9      194.3302       197.60772      198.76518     -75.032099    
   2330000   700.8177      -6315746.8      194.3302       197.60772      198.76518     -33.130211    
   2331000   700.51847     -6315782.8      194.3302       197.60772      198.76518      59.141522    
   2332000   699.32795     -6315823.5      194.3302       197.60772      198.76518     -113.68988    
   2333000   701.13025     -6315841.1      194.3302       197.60772      198.76518     -32.387508    
   2334000   698.95015     -6315871.2      194.3302       197.60772      198.76518     -77.339203    
   2335000   698.74555     -6315948.4      194.3302       197.60772      198.76518     -26.649261    
   2336000   700.28657     -6315789.4      194.3302       197.60772      198.76518      18.442016    
   2337000   699.90632     -6315868.1      194.3302       197.60772      198.76518     -11.917466    
   2338000   699.29782     -6315846        194.3302       197.60772      198.76518     -149.53276    
   2339000   699.12751     -6315906.6      194.3302       197.60772      198.76518     -63.408942    
   2340000   700.02449     -6315851.6      194.3302       197.60772      198.76518     -102.69935    
   2341000   699.88182     -6315831.6      194.3302       197.60772      198.76518     -38.297708    
   2342000   700.2516      -6315815.4      194.3302       197.60772      198.76518     -36.997587    
   2343000   699.70733     -6315830.5      194.3302       197.60772      198.76518     -130.06242    
   2344000   699.51663     -6315996.8      194.3302       197.60772      198.76518     -125.13697    
   2345000   699.36415     -6315902.7      194.3302       197.60772      198.76518     -95.71259     
   2346000   699.4277      -6315783.6      194.3302       197.60772      198.76518     -13.530173    
   2347000   699.05046     -6315891.9      194.3302       197.60772      198.76518     -22.175923    
   2348000   699.22335     -6315882.4      194.3302       197.60772      198.76518     -94.624474    
   2349000   699.84546     -6315805        194.3302       197.60772      198.76518     -34.795477    
   2350000   700.89403     -6315727.4      194.3302       197.60772      198.76518     -15.331111    
   2351000   700.21153     -6315788.9      194.3302       197.60772      198.76518     -17.860585    
   2352000   700.94112     -6315760.7      194.3302       197.60772      198.76518     -87.073107    
   2353000   700.84992     -6315675.5      194.3302       197.60772      198.76518     -22.328655    
   2354000   700.21303     -6315805.9      194.3302       197.60772      198.76518     -100.74675    
   2355000   699.10908     -6315841.3      194.3302       197.60772      198.76518     -72.888242    
   2356000   700.86391     -6315750.7      194.3302       197.60772      198.76518      1.2482732    
   2357000   699.88753     -6315916.3      194.3302       197.60772      198.76518     -243.76156    
   2358000   699.81751     -6315764.8      194.3302       197.60772      198.76518     -11.231016    
   2359000   700.36209     -6315813.2      194.3302       197.60772      198.76518     -57.790487    
   2360000   699.0327      -6315782        194.3302       197.60772      198.76518      56.325074    
   2361000   699.52077     -6315935        194.3302       197.60772      198.76518     -201.15193    
   2362000   699.26836     -6315811        194.3302       197.60772      198.76518     -102.07675    
   2363000   699.41799     -6315842.8      194.3302       197.60772      198.76518     -72.939779    
   2364000   701.05369     -6315776.8      194.3302       197.60772      198.76518     -33.205281    
   2365000   701.43852     -6315676        194.3302       197.60772      198.76518      29.234417    
   2366000   700.17364     -6315848.4      194.3302       197.60772      198.76518     -46.756786    
   2367000   699.21712     -6315782.2      194.3302       197.60772      198.76518     -174.99258    
   2368000   700.48941     -6315768.9      194.3302       197.60772      198.76518     -1.0705589    
   2369000   700.372       -6315784.7      194.3302       197.60772      198.76518      69.641194    
   2370000   699.629       -6315737.6      194.3302       197.60772      198.76518      156.1173     
   2371000   700.82633     -6315821.4      194.3302       197.60772      198.76518      15.074263    
   2372000   700.36134     -6315923.4      194.3302       197.60772      198.76518     -210.37033    
   2373000   699.49966     -6315759.8      194.3302       197.60772      198.76518     -29.617417    
   2374000   700.03516     -6315749.7      194.3302       197.60772      198.76518     -74.1817      
   2375000   699.25377     -6315980.8      194.3302       197.60772      198.76518     -160.4983     
   2376000   698.93379     -6315875.2      194.3302       197.60772      198.76518     -47.244888    
   2377000   699.37323     -6315958.9      194.3302       197.60772      198.76518     -185.42861    
   2378000   700.50532     -6315840.1      194.3302       197.60772      198.76518      53.209218    
   2379000   700.30849     -6315803.5      194.3302       197.60772      198.76518     -74.216062    
   2380000   699.50076     -6315858.7      194.3302       197.60772      198.76518     -99.287468    
   2381000   699.41488     -6315813.7      194.3302       197.60772      198.76518     -68.125276    
   2382000   700.28207     -6315797.2      194.3302       197.60772      198.76518     -91.525295    
   2383000   699.71547     -6315809        194.3302       197.60772      198.76518     -149.01426    
   2384000   699.31804     -6315845.8      194.3302       197.60772      198.76518     -37.684873    
   2385000   701.09033     -6315825.8      194.3302       197.60772      198.76518     -174.86075    
   2386000   699.98842     -6315745.2      194.3302       197.60772      198.76518     -74.616323    
   2387000   698.84582     -6315796.1      194.3302       197.60772      198.76518      16.163128    
   2388000   699.0617      -6315912.5      194.3302       197.60772      198.76518     -46.202348    
   2389000   700.69185     -6315617.9      194.3302       197.60772      198.76518     -14.592447    
   2390000   700.27891     -6315804.5      194.3302       197.60772      198.76518     -46.233726    
   2391000   701.02149     -6315722.2      194.3302       197.60772      198.76518     -80.283539    
   2392000   700.60469     -6315761.6      194.3302       197.60772      198.76518     -117.19565    
   2393000   700.55964     -6315742.1      194.3302       197.60772      198.76518     -66.904437    
   2394000   698.85287     -6315968.8      194.3302       197.60772      198.76518     -106.86341    
   2395000   699.904       -6315765.9      194.3302       197.60772      198.76518      12.698642    
   2396000   699.75426     -6315828.4      194.3302       197.60772      198.76518     -150.63446    
   2397000   699.39412     -6315854.7      194.3302       197.60772      198.76518     -19.629383    
   2398000   700.27016     -6315848.1      194.3302       197.60772      198.76518     -131.58108    
   2399000   701.64073     -6315777.9      194.3302       197.60772      198.76518     -64.855175    
   2400000   699.46205     -6315813.4      194.3302       197.60772      198.76518     -138.36578    
   2401000   700.35178     -6315781.2      194.3302       197.60772      198.76518     -3.1922302    
   2402000   698.85714     -6315940.9      194.3302       197.60772      198.76518     -79.69591     
   2403000   701.52288     -6315731.3      194.3302       197.60772      198.76518     -232.80254    
   2404000   698.98228     -6315890.3      194.3302       197.60772      198.76518     -68.044685    
   2405000   700.47487     -6315737.7      194.3302       197.60772      198.76518     -10.154172    
   2406000   700.19385     -6315826.5      194.3302       197.60772      198.76518     -107.87071    
   2407000   699.19141     -6315826.4      194.3302       197.60772      198.76518      56.588027    
   2408000   700.5857      -6315727.6      194.3302       197.60772      198.76518     -79.495676    
   2409000   700.4468      -6315837.9      194.3302       197.60772      198.76518     -124.83031    
   2410000   700.57562     -6315844        194.3302       197.60772      198.76518      10.167764    
   2411000   699.73585     -6315827.6      194.3302       197.60772      198.76518     -109.0326     
   2412000   698.72831     -6315779.3      194.3302       197.60772      198.76518     -7.6966851    
   2413000   699.20206     -6315782.1      194.3302       197.60772      198.76518     -108.58393    
   2414000   699.50911     -6315859.4      194.3302       197.60772      198.76518     -84.589855    
   2415000   700.20925     -6315812.2      194.3302       197.60772      198.76518     -23.026098    
   2416000   698.79411     -6315920        194.3302       197.60772      198.76518      5.5591619    
   2417000   701.07474     -6315815.6      194.3302       197.60772      198.76518     -139.66053    
   2418000   699.41089     -6315889.3      194.3302       197.60772      198.76518     -3.5662205    
   2419000   699.44808     -6315980.6      194.3302       197.60772      198.76518     -25.193982    
   2420000   698.95757     -6315903        194.3302       197.60772      198.76518     -124.16574    
   2421000   699.41991     -6315793.1      194.3302       197.60772      198.76518     -32.523187    
   2422000   700.49505     -6315747.1      194.3302       197.60772      198.76518      85.70952     
   2423000   700.10827     -6315769.6      194.3302       197.60772      198.76518     -50.10913     
   2424000   701.35152     -6315589.6      194.3302       197.60772      198.76518      51.152492    
   2425000   699.93046     -6315739.1      194.3302       197.60772      198.76518     -174.40551    
   2426000   699.3732      -6315878.5      194.3302       197.60772      198.76518     -133.72709    
   2427000   699.10405     -6315924.6      194.3302       197.60772      198.76518     -26.651548    
   2428000   699.94581     -6315807.3      194.3302       197.60772      198.76518     -63.75842     
   2429000   699.93602     -6315811.7      194.3302       197.60772      198.76518     -210.14755    
   2430000   699.36055     -6315921.7      194.3302       197.60772      198.76518     -163.0005     
   2431000   699.47862     -6315802.7      194.3302       197.60772      198.76518     -128.69934    
   2432000   699.96446     -6315821.5      194.3302       197.60772      198.76518      9.3183928    
   2433000   698.5932      -6315967        194.3302       197.60772      198.76518     -109.29403    
   2434000   699.94815     -6315757.3      194.3302       197.60772      198.76518     -38.305016    
   2435000   699.12518     -6315767        194.3302       197.60772      198.76518     -68.459621    
   2436000   699.06573     -6315827.3      194.3302       197.60772      198.76518     -213.24652    
   2437000   699.33041     -6315857.1      194.3302       197.60772      198.76518     -70.713303    
   2438000   700.41644     -6315774.9      194.3302       197.60772      198.76518     -117.85736    
   2439000   698.6332      -6315897.2      194.3302       197.60772      198.76518      12.695329    
   2440000   700.55216     -6315844.9      194.3302       197.60772      198.76518     -29.741489    
   2441000   699.05034     -6315954.4      194.3302       197.60772      198.76518     -33.009262    
   2442000   698.7653      -6315881.2      194.3302       197.60772      198.76518     -83.759335    
   2443000   698.7198      -6315951.2      194.3302       197.60772      198.76518     -73.995877    
   2444000   698.79857     -6315766.1      194.3302       197.60772      198.76518     -74.784247    
   2445000   699.78213     -6315896.3      194.3302       197.60772      198.76518     -52.702641    
   2446000   700.69784     -6315783.5      194.3302       197.60772      198.76518      74.867497    
   2447000   700.19374     -6315817.7      194.3302       197.60772      198.76518     -254.63054    
   2448000   701.35472     -6315657.5      194.3302       197.60772      198.76518     -8.4934424    
   2449000   700.95319     -6315782.3      194.3302       197.60772      198.76518      81.793486    
   2450000   699.88118     -6315851.3      194.3302       197.60772      198.76518     -25.803226    
   2451000   699.07358     -6315894.7      194.3302       197.60772      198.76518      8.9488083    
   2452000   699.43385     -6315803.5      194.3302       197.60772      198.76518     -37.164484    
   2453000   700.379       -6315854.5      194.3302       197.60772      198.76518     -68.169495    
   2454000   699.62203     -6315852.1      194.3302       197.60772      198.76518     -132.31917    
   2455000   699.57497     -6315880.8      194.3302       197.60772      198.76518     -147.55623    
   2456000   698.30821     -6315959.5      194.3302       197.60772      198.76518     -143.7266     
   2457000   700.47541     -6315739.9      194.3302       197.60772      198.76518     -116.62174    
   2458000   699.53942     -6315868.3      194.3302       197.60772      198.76518     -136.12307    
   2459000   700.91478     -6315744.2      194.3302       197.60772      198.76518     -128.27444    
   2460000   700.61379     -6315794.5      194.3302       197.60772      198.76518     -74.427933    
   2461000   700.37755     -6315786.2      194.3302       197.60772      198.76518     -72.119934    
   2462000   700.16505     -6315717.7      194.3302       197.60772      198.76518     -0.5131826    
   2463000   700.99216     -6315794.1      194.3302       197.60772      198.76518     -10.789498    
   2464000   699.4609      -6315953.6      194.3302       197.60772      198.76518     -181.83296    
   2465000   699.98338     -6315893.9      194.3302       197.60772      198.76518     -62.191297    
   2466000   699.87683     -6315903.4      194.3302       197.60772      198.76518      19.805184    
   2467000   700.47904     -6315766.3      194.3302       197.60772      198.76518     -122.83021    
   2468000   700.21532     -6315879.4      194.3302       197.60772      198.76518     -12.630677    
   2469000   698.57096     -6315925.4      194.3302       197.60772      198.76518     -272.34284    
   2470000   699.22081     -6315832.8      194.3302       197.60772      198.76518     -81.808314    
   2471000   699.11898     -6315894.5      194.3302       197.60772      198.76518     -156.80392    
   2472000   699.30666     -6315912.5      194.3302       197.60772      198.76518     -89.616307    
   2473000   700.43964     -6315763.4      194.3302       197.60772      198.76518     -49.10299     
   2474000   700.2065      -6315865.4      194.3302       197.60772      198.76518     -128.67855    
   2475000   700.6782      -6315844.2      194.3302       197.60772      198.76518     -29.135173    
   2476000   700.44051     -6315748.2      194.3302       197.60772      198.76518     -109.95574    
   2477000   698.81467     -6315893.7      194.3302       197.60772      198.76518     -183.91025    
   2478000   699.71417     -6315849.9      194.3302       197.60772      198.76518     -21.386133    
   2479000   700.8205      -6315698.9      194.3302       197.60772      198.76518      2.5756089    
   2480000   700.72474     -6315837.6      194.3302       197.60772      198.76518     -209.80629    
   2481000   700.29576     -6315765.4      194.3302       197.60772      198.76518     -46.132286    
   2482000   699.78505     -6315855.1      194.3302       197.60772      198.76518     -22.062849    
   2483000   699.66981     -6315881.7      194.3302       197.60772      198.76518     -119.59864    
   2484000   699.04508     -6316001.8      194.3302       197.60772      198.76518     -110.03114    
   2485000   699.75864     -6315762.8      194.3302       197.60772      198.76518      96.98473     
   2486000   699.31642     -6315967.4      194.3302       197.60772      198.76518     -4.2651766    
   2487000   700.24224     -6315718.3      194.3302       197.60772      198.76518      32.786544    
   2488000   700.0835      -6315820.7      194.3302       197.60772      198.76518     -120.05668    
   2489000   700.00563     -6315844.9      194.3302       197.60772      198.76518     -86.979573    
   2490000   698.69158     -6316025.8      194.3302       197.60772      198.76518      23.287547    
   2491000   699.79109     -6315820.4      194.3302       197.60772      198.76518      51.77611     
   2492000   701.40232     -6315776        194.3302       197.60772      198.76518     -1.2303132    
   2493000   700.30055     -6315738.6      194.3302       197.60772      198.76518      114.76428    
   2494000   701.20377     -6315691.1      194.3302       197.60772      198.76518     -103.03797    
   2495000   700.71499     -6315737.7      194.3302       197.60772      198.76518      78.28163     
   2496000   700.46602     -6315758.9      194.3302       197.60772      198.76518      42.731134    
   2497000   700.38649     -6315860.9      194.3302       197.60772      198.76518     -90.280641    
   2498000   699.70055     -6315772.4      194.3302       197.60772      198.76518      43.48661     
   2499000   700.8592      -6315722.5      194.3302       197.60772      198.76518     -40.115351    
   2500000   699.45387     -6315819.6      194.3302       197.60772      198.76518      27.664612    
   2501000   700.75332     -6315784.2      194.3302       197.60772      198.76518     -95.3904      
   2502000   700.25767     -6315866.8      194.3302       197.60772      198.76518     -67.995       
   2503000   700.08721     -6315796.2      194.3302       197.60772      198.76518     -26.506243    
   2504000   699.96943     -6315739.3      194.3302       197.60772      198.76518     -23.512304    
   2505000   700.30116     -6315864.5      194.3302       197.60772      198.76518     -72.986238    
   2506000   700.8019      -6315762.3      194.3302       197.60772      198.76518     -164.96646    
   2507000   699.55945     -6315847.3      194.3302       197.60772      198.76518     -104.1487     
   2508000   699.89736     -6315840.7      194.3302       197.60772      198.76518     -209.16152    
   2509000   700.53471     -6315730.6      194.3302       197.60772      198.76518     -1.8759792    
   2510000   699.61529     -6315838.1      194.3302       197.60772      198.76518      47.21832     
Loop time of 197571 on 16384 procs for 2500000 steps with 557304 atoms

Performance: 2.187 ns/day, 10.976 hours/ns, 12.654 timesteps/s, 7.052 Matom-step/s
85.0% CPU use with 128 MPI tasks x 128 OpenMP threads

MPI task timing breakdown:
Section |  min time  |  avg time  |  max time  |%varavg| %total
---------------------------------------------------------------
Pair    | 94535      | 1.1598e+05 | 1.3573e+05 |4690.1 | 58.70
Bond    | 0.38353    | 0.60962    | 0.91813    |  14.1 |  0.00
Kspace  | 32740      | 56215      | 80954      |7905.1 | 28.45
Neigh   | 14969      | 18645      | 22266      |2127.5 |  9.44
Comm    | 4798.2     | 5352.9     | 5882.2     | 343.2 |  2.71
Output  | 0.42454    | 0.47132    | 0.4831     |   1.1 |  0.00
Modify  | 557.83     | 966.1      | 1479.1     | 906.4 |  0.49
Other   |            | 407.7      |            |       |  0.21

Nlocal:        4353.94 ave        4927 max        3776 min
Histogram: 64 0 0 0 0 0 0 0 0 64
Nghost:        13122.5 ave       14154 max       12104 min
Histogram: 64 0 0 0 0 0 0 0 0 64
Neighs:    1.06232e+06 ave 1.26183e+06 max      862074 min
Histogram: 23 33 8 0 0 0 0 14 27 23

Total # of neighbors = 1.3597754e+08
Ave neighs/atom = 243.99169
Ave special neighs/atom = 0
Neighbor list builds = 516446
Dangerous builds = 0
Total wall time: 55:07:50
