La3 Li7 O12 Zr2 Li7                     
   1.00000000000000     
    12.8433017554548012   -0.0055577416184379   -0.0025067424437048
    -0.0053870033096856   13.0599166785308061   -0.0062429994601691
    -0.0023216389131211   -0.0062037652544968   13.1364163161308234
   Al   La   Zr   O    Li
     2    24    16    96    50
Direct
  0.4976666646427717  0.7505884729810290  0.3724001262387873
  0.2541019212426505  0.6229946420231016  0.4947960767157298
  0.1213432357452717  0.9978896330005895  0.2475579196357955
  0.8717213213529504  0.9969332004747784  0.7493311588869886
  0.3760887367932568  0.9959347207160079  0.7475138453080277
  0.6232454311207860  0.9974095467839490  0.2509857219397134
  0.8717847390783220  0.4977816596365017  0.2453713848511612
  0.1229653169032829  0.4980391977840810  0.7511703830349461
  0.6269685807638297  0.4972208853739986  0.7488352035428889
  0.3776539171141735  0.4963741863125009  0.2451213703737878
  0.2493933293116726  0.1265687178304233  0.9967397152357620
  0.7481070879456553  0.8731336525237268  0.0027943534454380
  0.7472197061110535  0.3736164704027019  0.9994918040906740
  0.2517363856768071  0.6142232447055704  0.9988300913801424
  0.2481452085546252  0.8729721440909231  0.4967156376950612
  0.7500324248297048  0.1277937932593574  0.4991947726322579
  0.7489409520960137  0.6281586462062450  0.4950211519890360
  0.2478134280976647  0.3693623868202636  0.4972000839241488
  0.9962171868700977  0.2455212417657151  0.1227575803678249
  0.9974459957694251  0.7457036522514926  0.8832669498977737
  0.9949144287816978  0.7476748729591591  0.3715946499711080
  0.9988645634658440  0.2502711391550321  0.6224657921465209
  0.5021921633438566  0.2473663080156498  0.8727728424328518
  0.5001852750911908  0.7443673493488774  0.1195696980801486
  0.5041101558228505  0.7478870609510864  0.6225934223669682
  0.4977957336691503  0.2468251179957974  0.3729988597124603
  0.9991670532077137  0.9985034411684808  0.9973751443091672
  0.5025508826681317  0.9979218291162653  0.4948540201028422
  0.9956542142921094  0.5004920435964877  0.4959802613363209
  0.5017826869378155  0.4976019716103579  0.9962879727920395
  0.7502891449603410  0.2468710604197923  0.2522660157862475
  0.2480352953090019  0.7438605115358641  0.7506306573293671
  0.7474446577340643  0.7473142648247659  0.7543366383941432
  0.2513803213148336  0.2436393021647731  0.2471597141055923
  0.2480162112166084  0.2452175198692572  0.7473335761916857
  0.7456914012671660  0.7432913089799200  0.2498937837116983
  0.2498478146162384  0.7463923230674965  0.2491630745773747
  0.7503136119058453  0.2485378907583495  0.7476061656291932
  0.4989749853830645  0.5019690688042715  0.4940175620566691
  0.0016037544976513  0.4944015514977167  0.9986078032278414
  0.5001717014262468  0.9994122795053215  0.9976296638866131
  0.9983096273940291  0.9967182571168678  0.4996846674645354
  0.9632326411821808  0.0550406975218252  0.1445211485676197
  0.0365288353013256  0.9422400429938733  0.8500898715327523
  0.5318282878714200  0.9394370895971846  0.6424621469828935
  0.4615809703733120  0.0566380280729248  0.3515951209941832
  0.0171159758952939  0.5629647222898200  0.3492338064679430
  0.9809900639270595  0.4432720503533503  0.6456622358431261
  0.4703591496062387  0.4409330913214120  0.8441455424926616
  0.5201026635705617  0.5537873424934645  0.1447976214133888
  0.1511655976557620  0.9637880907595289  0.0524480764371731
  0.8482979203815120  0.0377012065008202  0.9426890913875638
  0.6500160284794916  0.5230757510431019  0.9331499422911378
  0.3511038893356186  0.4548550998797438  0.0506953717633394
  0.3472201184318209  0.0298035815832023  0.5519882779924927
  0.6522339147981455  0.9726882020421783  0.4419216096341714
  0.8516882163602588  0.4592752127918942  0.4419483708144227
  0.1521686702448974  0.5462133741974640  0.5471421594588364
  0.0546632567337255  0.1496943335853445  0.9670333969394562
  0.9404173641224176  0.8518299022572791  0.0224270087848950
  0.9419750865393297  0.6493869829285615  0.5343819905146390
  0.0546062071537108  0.3513973491537925  0.4644000970054449
  0.5551128569275292  0.3469928926900465  0.0326500450095182
  0.4399981267834576  0.6459028997811487  0.9722045493153786
  0.4469884578996286  0.8434175720623784  0.4604844315447565
  0.5462613300576749  0.1493835841492555  0.5292701666729727
  0.8029435210422307  0.2258517716777675  0.1015201574216533
  0.2033551324022227  0.7757957145503127  0.8995603437462236
  0.6935017085751838  0.7685249035919881  0.6045545864972937
  0.3037827952902390  0.2246018369740526  0.3989419625324473
  0.3045704545469334  0.2790806370920293  0.8959302838229277
  0.6893631422078315  0.7208821893569208  0.0994316353521256
  0.1985563941638517  0.7093964265394703  0.4043193847554960
  0.8109023321280020  0.2723873466617235  0.5997436471825495
  0.7098510128824884  0.3964089615577535  0.2097119505083498
  0.2844984804670077  0.5962432176463537  0.8036366712111302
  0.2651311420439058  0.8949406304732435  0.3085512293993702
  0.7139120644029404  0.0991890760187886  0.6939779507559649
  0.7857833242948971  0.5991895254467750  0.7034914917313415
  0.2095006799403265  0.3937883208629245  0.2932273870802433
  0.2167087739515665  0.0977039711180510  0.8026563596867291
  0.7747318897911626  0.8952318173796243  0.1981412707990415
  0.9045132359353545  0.2984505393186296  0.2817999841953878
  0.0949217921220509  0.6949307985780564  0.7207056204259814
  0.4017603336517652  0.1928991911922466  0.7142930768378193
  0.5916680253969631  0.7996250590453542  0.2852797448477986
  0.0951824674755102  0.7930413335563529  0.2121372996549908
  0.9021880676870140  0.1920348994355408  0.7817156088104014
  0.5976362503796864  0.6935681094621771  0.7896007613431735
  0.4027095553504196  0.2979492968728294  0.2171043741334984
  0.4831359642231519  0.5615273396060019  0.6420287493927717
  0.5275814498194151  0.4428511609352697  0.3459784022719390
  0.0300960302941391  0.4451259524913525  0.1495594929365538
  0.9661218746666762  0.5491191523628132  0.8480791160891599
  0.5310065277276195  0.0534408961730719  0.8474539501087008
  0.4628534571732530  0.9545872714128620  0.1463686835569575
  0.9681952728267120  0.9441888272270802  0.3497997559989940
  0.0330372109543404  0.0504028732869060  0.6477429729357453
  0.6480309853292425  0.4649088621538127  0.5383414688497794
  0.3418553026114708  0.5322041883943882  0.4442665207431986
  0.1510230864351527  0.0332282478433257  0.4475577300603604
  0.8469410499579624  0.9595348298938333  0.5519980970122020
  0.8510886444192707  0.5215534411772680  0.0455075520319213
  0.1512215850695569  0.4555917501054552  0.9385510574574596
  0.3464277859574310  0.9651860267716543  0.9441085720475897
  0.6520946669070753  0.0370608125909371  0.0511216984458045
  0.5470082564401579  0.6562874628039665  0.4586036087882590
  0.4454619220045828  0.3532783409727145  0.5283948897115920
  0.4466568002353881  0.1533051545508428  0.0272292602882160
  0.5531216729478103  0.8508518936215950  0.9765024786700636
  0.0515754935656645  0.8429721140027979  0.5297402783558738
  0.9502916773769030  0.1487437517966370  0.4692542868800658
  0.9506816035760934  0.3416946388525020  0.9683302908724869
  0.0640849620298951  0.6431997800099651  0.0214034414945061
  0.2983938699586801  0.7096213041110389  0.5919144709587343
  0.6920307997708193  0.2768341261225160  0.4036678696127822
  0.1930782592577174  0.2789891405328149  0.0984950978266852
  0.8007968403938790  0.7133513738789006  0.9067893060445869
  0.8130669809662407  0.7727385880183562  0.3958668063777395
  0.1935197010730789  0.2234837105080416  0.5970834806488057
  0.6909502568699679  0.2235561592216158  0.8959470338064435
  0.2998787343966924  0.7786198204685491  0.1020864763340654
  0.2172020807795931  0.8917271120364276  0.6917935188225783
  0.7864875621597847  0.0998106947812261  0.3069346663312018
  0.7898578696138472  0.3934080133237075  0.8055913727166484
  0.2219430360000132  0.5964163722808493  0.1929934859327744
  0.2832551827885439  0.0960429051773986  0.1920226294508538
  0.7170826726648514  0.8959599053864196  0.8102648224181976
  0.7236262109641061  0.5972999510799823  0.3112641361224462
  0.2871060461002344  0.3957794157363494  0.6995201891919720
  0.4018360899713258  0.7992684857736023  0.7815688904840457
  0.5984809161327718  0.1911264108907886  0.2183686535253528
  0.8932578014779295  0.6906678754357500  0.2032061112488961
  0.0958925926607321  0.2971962597975235  0.7800609591625971
  0.5989962742847581  0.3023690065206992  0.7097480593386507
  0.4029624252601351  0.6992111683226199  0.2861139340714374
  0.0982459734999281  0.1897443018604292  0.2814007459159313
  0.9006898147393585  0.8018694167356699  0.7198188878133251
  0.6953028868148223  0.9059679920452410  0.5693221632618872
  0.1266980312500934  0.9966930209874931  0.7466264725622125
  0.7997437374038157  0.9141346520467053  0.4112207651330309
  0.6232767708456279  0.5201188501190686  0.2385117031917545
  0.3673236929193209  0.5196307081181217  0.7125025831678258
  0.1344821959144085  0.5209578184020245  0.2823806387825201
  0.2512625932434744  0.3660191255906611  0.9974473919331288
  0.3108641734492821  0.9235160622682912  0.0893910929534556
  0.7705488164656842  0.3893389641622562  0.5353868485943778
  0.1089056678609381  0.1772450811745827  0.4263969870519944
  0.9478691510354764  0.8188942838892359  0.1573000439857282
  0.3897587967103107  0.1748894382134125  0.5710345432981256
  0.5501691684587158  0.8240349986467450  0.8392412484241589
  0.0800076886305234  0.6921601828286938  0.5778364675983525
  0.9026864860083279  0.3153477361287713  0.4228429171357106
  0.4138650012899134  0.3068157624906434  0.0751003770017604
  0.6550680833477074  0.6661032062297565  0.9443210355276506
  0.8890230985832090  0.1818071844763054  0.9255210452554579
  0.1470706965633397  0.8164101316963936  0.0684081048260055
  0.5618959087023399  0.1553582472775545  0.6710443588317290
  0.0624694642951411  0.3380847801431415  0.3207123209395562
  0.9308002654155416  0.6544266174622280  0.6793173828293106
  0.8726822294811001  0.9935748302672351  0.2455531258163859
  0.0562568688186147  0.1535122906868978  0.8230186439617100
  0.4492446738817364  0.6602031789730205  0.8325501987165893
  0.5671644653827386  0.3449624158320006  0.1779834538303788
  0.3271215751410921  0.4232256412624267  0.8511004838143492
  0.3031464037424598  0.0831199458970104  0.4164172266099158
  0.1900808786116102  0.9191785916233570  0.9092026672072961
  0.8007192209152834  0.0860498469630215  0.0791544340868384
  0.8743955327295652  0.4878375143966878  0.7339649603312424
  0.4384270277640780  0.3392628404291216  0.6726058927301608
  0.0467721279774551  0.6580490053403878  0.1607848641913137
  0.9353368553989796  0.3387688110694569  0.8271637003566354
  0.9377039411745471  0.1524306645503941  0.3261655732411697
  0.0573197926904854  0.8423233137846466  0.6777785224854966
  0.6248236078130560  0.9923040244658878  0.7480299775430339
  0.4355469548755906  0.1371015142209089  0.1720341503154685
  0.8879246836409180  0.8140010250525549  0.5729426887897944
  0.0933502101162702  0.3088108272792098  0.9231963728087891
  0.8223287485259476  0.6590608707908387  0.0619824587405944
  0.6100181634307091  0.1823260493116621  0.0730396782283904
  0.3585885031500098  0.8176284330681440  0.9292331896711872
  0.5958203658934522  0.3165899015549698  0.5652436396898466
  0.3742282902677871  0.9823358320498272  0.2604621263381333
  0.6967652646337825  0.0824646231990300  0.9125419826228622
  0.8175677819102418  0.5673377438144414  0.8918488316313571
  0.1722024420964630  0.4201588943678232  0.1465460458210899
  0.6768808952758860  0.4210336766407323  0.3784440406796179
  0.1940135589633698  0.0818804938556426  0.5824008031592598
  0.00000000E+00  0.00000000E+00  0.00000000E+00
  0.00000000E+00  0.00000000E+00  0.00000000E+00
