LAMMPS (8 Feb 2023)
WARNING: Using I/O redirection is unreliable with parallel runs. Better to use the -in switch to read input files. (src/src/lammps.cpp:531)
  using 128 OpenMP thread(s) per MPI task
Reading data file ...
  orthogonal box = (-1.1285642 -1.1285642 -1.1285642) to (196.12856 196.12856 196.12856)
  4 by 8 by 8 MPI processor grid
  reading atoms ...
  482050 atoms
  reading velocities ...
  482050 velocities
Finding 1-2 1-3 1-4 neighbors ...
  special bond factors lj:    0        0        0       
  special bond factors coul:  0        0        0       
     0 = max # of 1-2 neighbors
     0 = max # of 1-3 neighbors
     0 = max # of 1-4 neighbors
     1 = max # of special neighbors
  special bonds CPU = 0.973 seconds
  read_data CPU = 4.175 seconds
128208 atoms in group Li
246152 atoms in group O
PPPM initialization ...
  using 12-bit tables for long-range coulomb (src/src/kspace.cpp:342)
  G vector (1/distance) = 0.27675344
  grid = 135 135 135
  stencil order = 5
  estimated absolute RMS force accuracy = 0.0016318071
  estimated relative force accuracy = 0.00011332273
  using double precision MKL FFT
  3d grid and FFT values/proc = 21160 10935
Generated 0 of 10 mixed pair_coeff terms from geometric mixing rule
Neighbor list info ...
  update: every = 1 steps, delay = 0 steps, check = yes
  max neighbors/atom: 5000, page size: 100000
  master list distance cutoff = 11.5
  ghost atom cutoff = 11.5
  binsize = 5.75, bins = 35 35 35
  3 neighbor lists, perpetual/occasional/extra = 3 0 0
  (1) pair buck/coul/long, perpetual
      attributes: half, newton on
      pair build: half/bin/newton
      stencil: half/bin/3d
      bin: standard
  (2) pair lennard/mdf, perpetual, skip from (3)
      attributes: half, newton on, cut 4
      pair build: skip
      stencil: none
      bin: none
  (3) neighbor class addition, perpetual, trim from (1)
      attributes: half, newton on, cut 4
      pair build: trim
      stencil: none
      bin: none
Setting up cg style minimization ...
  Unit style    : metal
  Current step  : 0
Per MPI rank memory allocation (min/avg/max) = 221.9 | 223.4 | 224.7 Mbytes
   Step          Temp          E_pair         E_mol          TotEng         Press     
         0   699.68124     -5499402.6      0             -5455805.7     -346.12656    
       619   699.68124     -5544290.1      0             -5500693.2     -11386.838    
Loop time of 57.21 on 32768 procs for 619 steps with 482050 atoms

78.8% CPU use with 256 MPI tasks x 128 OpenMP threads

Minimization stats:
  Stopping criterion = linesearch alpha is zero
  Energy initial, next-to-last, final = 
     -5499402.63328321  -5544290.11675466  -5544290.11675466
  Force two-norm initial, final = 1013.6681 0.54757262
  Force max component initial, final = 6.579823 0.27270062
  Final line search alpha, max atom move = 3.0198129e-08 8.2350487e-09
  Iterations, force evaluations = 619 1080

MPI task timing breakdown:
Section |  min time  |  avg time  |  max time  |%varavg| %total
---------------------------------------------------------------
Pair    | 10.264     | 28.543     | 41.847     | 186.9 | 49.89
Bond    | 6.93e-05   | 0.00013936 | 0.00022415 |   0.0 |  0.00
Kspace  | 12.714     | 26.528     | 45.475     | 200.4 | 46.37
Neigh   | 0.28749    | 0.82779    | 1.2221     |  32.5 |  1.45
Comm    | 0.60718    | 0.91052    | 1.1211     |  12.7 |  1.59
Output  | 0          | 0          | 0          |   0.0 |  0.00
Modify  | 0          | 0          | 0          |   0.0 |  0.00
Other   |            | 0.4004     |            |       |  0.70

Nlocal:        1883.01 ave        2531 max         832 min
Histogram: 64 0 0 0 0 0 1 127 0 64
Nghost:        8475.29 ave       10453 max        5793 min
Histogram: 64 0 0 0 0 0 128 0 0 64
Neighs:         470684 ave      692742 max      170418 min
Histogram: 63 1 0 0 0 23 67 38 19 45

Total # of neighbors = 1.2049499e+08
Ave neighs/atom = 249.96367
Ave special neighs/atom = 0
Neighbor list builds = 58
Dangerous builds = 0
PPPM initialization ...
  using 12-bit tables for long-range coulomb (src/src/kspace.cpp:342)
  G vector (1/distance) = 0.27675344
  grid = 135 135 135
  stencil order = 5
  estimated absolute RMS force accuracy = 0.0016318071
  estimated relative force accuracy = 0.00011332273
  using double precision MKL FFT
  3d grid and FFT values/proc = 21160 10935
Generated 0 of 10 mixed pair_coeff terms from geometric mixing rule
Setting up Verlet run ...
  Unit style    : metal
  Current step  : 0
  Time step     : 0.002
Per MPI rank memory allocation (min/avg/max) = 220.7 | 222.3 | 223.6 Mbytes
   Step          Temp          TotEng           Lx             Ly             Lz           Press     
         0   699.68124     -5500693.2      197.25713      197.25713      197.25713     -11386.838    
      1000   698.85303     -5455518.9      197.75073      197.75073      197.75073     -71.94851     
      2000   697.99965     -5455848.4      197.46619      197.46619      197.46619      87.85725     
      3000   699.52477     -5455849.5      197.28508      197.28508      197.28508      37.656021    
      4000   699.81695     -5455799.5      197.07756      197.07756      197.07756      23.533439    
      5000   700.56682     -5455493.9      197.04799      197.04799      197.04799      1.6455925    
      6000   700.18647     -5455471.8      197.05608      197.05608      197.05608      47.033526    
      7000   700.37283     -5455609.9      197.08333      197.08333      197.08333      58.438288    
      8000   699.69447     -5455590.7      197.1512       197.1512       197.1512       80.309318    
      9000   700.96292     -5455522.3      197.20549      197.20549      197.20549      65.748617    
     10000   700.46239     -5455581.2      197.2361       197.2361       197.2361       33.409345    
Loop time of 522.471 on 32768 procs for 10000 steps with 482050 atoms

Performance: 3.307 ns/day, 7.257 hours/ns, 19.140 timesteps/s, 9.226 Matom-step/s
77.8% CPU use with 256 MPI tasks x 128 OpenMP threads

MPI task timing breakdown:
Section |  min time  |  avg time  |  max time  |%varavg| %total
---------------------------------------------------------------
Pair    | 72.586     | 209.34     | 329.1      | 508.5 | 40.07
Bond    | 0.00080398 | 0.0015186  | 0.0023499  |   0.7 |  0.00
Kspace  | 113.77     | 246.64     | 400.3      | 526.7 | 47.21
Neigh   | 8.7094     | 24.823     | 36.534     | 175.9 |  4.75
Comm    | 7.1912     | 10.216     | 12.453     |  37.8 |  1.96
Output  | 0.0013675  | 0.0014111  | 0.0016159  |   0.1 |  0.00
Modify  | 17.292     | 23.907     | 31.916     |  57.0 |  4.58
Other   |            | 7.549      |            |       |  1.44

Nlocal:        1883.01 ave        2508 max         843 min
Histogram: 64 0 0 0 0 0 0 128 0 64
Nghost:        8464.75 ave       10382 max        5843 min
Histogram: 64 0 0 0 0 0 128 0 0 64
Neighs:         466547 ave      678143 max      170718 min
Histogram: 62 2 0 0 0 14 69 45 19 45

Total # of neighbors = 1.19436e+08
Ave neighs/atom = 247.76682
Ave special neighs/atom = 0
Neighbor list builds = 1704
Dangerous builds = 0
PPPM initialization ...
  using 12-bit tables for long-range coulomb (src/src/kspace.cpp:342)
  G vector (1/distance) = 0.27676132
  grid = 135 135 135
  stencil order = 5
  estimated absolute RMS force accuracy = 0.0016312832
  estimated relative force accuracy = 0.00011328635
  using double precision MKL FFT
  3d grid and FFT values/proc = 21160 10935
Generated 0 of 10 mixed pair_coeff terms from geometric mixing rule
Setting up Verlet run ...
  Unit style    : metal
  Current step  : 0
  Time step     : 0.002
Per MPI rank memory allocation (min/avg/max) = 222.1 | 223.7 | 224.9 Mbytes
   Step          Temp          TotEng           Lx             Ly             Lz           Press     
         0   700.46239     -5455581.2      197.2361       197.2361       197.2361       33.425182    
      1000   699.96322     -5455678.1      197.2361       197.2361       197.2361       142.60027    
      2000   699.51796     -5455711.9      197.2361       197.2361       197.2361      -161.1916     
      3000   700.3722      -5455620.4      197.2361       197.2361       197.2361      -55.77625     
      4000   699.35123     -5455592.6      197.2361       197.2361       197.2361      -72.697844    
      5000   700.78957     -5455530.9      197.2361       197.2361       197.2361      -82.341438    
      6000   699.88741     -5455591        197.2361       197.2361       197.2361      -83.19687     
      7000   699.813       -5455656.3      197.2361       197.2361       197.2361      -138.90081    
      8000   699.85293     -5455720.4      197.2361       197.2361       197.2361      -126.22908    
      9000   701.42376     -5455482.2      197.2361       197.2361       197.2361      -179.23746    
     10000   700.72897     -5455605        197.2361       197.2361       197.2361      -110.95748    
Loop time of 486.798 on 32768 procs for 10000 steps with 482050 atoms

Performance: 3.550 ns/day, 6.761 hours/ns, 20.542 timesteps/s, 9.902 Matom-step/s
77.5% CPU use with 256 MPI tasks x 128 OpenMP threads

MPI task timing breakdown:
Section |  min time  |  avg time  |  max time  |%varavg| %total
---------------------------------------------------------------
Pair    | 72.009     | 208.59     | 325.27     | 508.2 | 42.85
Bond    | 0.00077494 | 0.0013661  | 0.0019867  |   0.6 |  0.00
Kspace  | 112.26     | 238.36     | 387.2      | 520.0 | 48.97
Neigh   | 8.6311     | 24.682     | 36.304     | 175.5 |  5.07
Comm    | 9.7269     | 11.581     | 15.966     |  39.8 |  2.38
Output  | 0.0013632  | 0.001422   | 0.001649   |   0.1 |  0.00
Modify  | 1.5583     | 2.7748     | 4.554      |  44.2 |  0.57
Other   |            | 0.8066     |            |       |  0.17

Nlocal:        1883.01 ave        2506 max         839 min
Histogram: 64 0 0 0 0 0 0 127 1 64
Nghost:        8464.36 ave       10370 max        5844 min
Histogram: 64 0 0 0 0 0 128 0 0 64
Neighs:         466445 ave      674372 max      171105 min
Histogram: 60 4 0 0 0 12 65 51 13 51

Total # of neighbors = 1.1940995e+08
Ave neighs/atom = 247.71278
Ave special neighs/atom = 0
Neighbor list builds = 1696
Dangerous builds = 0
PPPM initialization ...
  using 12-bit tables for long-range coulomb (src/src/kspace.cpp:342)
  G vector (1/distance) = 0.27676132
  grid = 135 135 135
  stencil order = 5
  estimated absolute RMS force accuracy = 0.0016312832
  estimated relative force accuracy = 0.00011328635
  using double precision MKL FFT
  3d grid and FFT values/proc = 21160 10935
Generated 0 of 10 mixed pair_coeff terms from geometric mixing rule
Setting up Verlet run ...
  Unit style    : metal
  Current step  : 10000
  Time step     : 0.002
Per MPI rank memory allocation (min/avg/max) = 222.4 | 224.1 | 225.3 Mbytes
   Step          Temp          TotEng           Lx             Ly             Lz           Press     
     10000   700.72897     -5455605        197.2361       197.2361       197.2361      -110.95748    
     11000   698.83694     -5455708.2      197.2361       197.2361       197.2361      -222.53274    
     12000   700.2738      -5455645.9      197.2361       197.2361       197.2361      -123.80598    
     13000   701.19713     -5455583.6      197.2361       197.2361       197.2361      -119.72688    
     14000   699.88459     -5455607.4      197.2361       197.2361       197.2361      -83.976122    
     15000   700.10502     -5455492.6      197.2361       197.2361       197.2361      -168.2541     
     16000   700.00505     -5455622.7      197.2361       197.2361       197.2361      -143.3646     
     17000   700.74319     -5455482        197.2361       197.2361       197.2361      -8.3761378    
     18000   698.7324      -5455758.9      197.2361       197.2361       197.2361      -155.85796    
     19000   700.6042      -5455565.4      197.2361       197.2361       197.2361      -68.40014     
     20000   699.5758      -5455692.7      197.2361       197.2361       197.2361      -223.00948    
     21000   699.65688     -5455641.5      197.2361       197.2361       197.2361      -203.77674    
     22000   701.08791     -5455546.4      197.2361       197.2361       197.2361      -27.127101    
     23000   700.33075     -5455475.3      197.2361       197.2361       197.2361      -172.83435    
     24000   699.56162     -5455638.8      197.2361       197.2361       197.2361      -117.65687    
     25000   699.44041     -5455650.2      197.2361       197.2361       197.2361      -35.910623    
     26000   699.89642     -5455597.3      197.2361       197.2361       197.2361      -199.9844     
     27000   700.3522      -5455586.7      197.2361       197.2361       197.2361      -130.02646    
     28000   700.28285     -5455651.7      197.2361       197.2361       197.2361      -144.53775    
     29000   701.34742     -5455587.6      197.2361       197.2361       197.2361      -57.574035    
     30000   701.13942     -5455556        197.2361       197.2361       197.2361      -132.47504    
     31000   700.10985     -5455586.7      197.2361       197.2361       197.2361      -53.250663    
     32000   700.81387     -5455556.3      197.2361       197.2361       197.2361      -70.898923    
     33000   699.02177     -5455629.1      197.2361       197.2361       197.2361       15.320228    
     34000   700.13999     -5455584.8      197.2361       197.2361       197.2361      -85.102261    
     35000   700.02195     -5455550.2      197.2361       197.2361       197.2361       20.584239    
     36000   699.46763     -5455637.1      197.2361       197.2361       197.2361      -176.72816    
     37000   701.413       -5455456.5      197.2361       197.2361       197.2361      -92.78654     
     38000   700.37903     -5455691        197.2361       197.2361       197.2361      -121.29423    
     39000   700.59561     -5455495.7      197.2361       197.2361       197.2361       9.5133576    
     40000   699.17815     -5455715.9      197.2361       197.2361       197.2361      -47.302565    
     41000   700.6025      -5455513.8      197.2361       197.2361       197.2361      -69.123719    
     42000   699.2819      -5455580.2      197.2361       197.2361       197.2361       2.3512226    
     43000   699.48239     -5455609        197.2361       197.2361       197.2361       66.135909    
     44000   699.28202     -5455635.9      197.2361       197.2361       197.2361      -21.186273    
     45000   700.36338     -5455640.4      197.2361       197.2361       197.2361      -135.91514    
     46000   699.45546     -5455612.3      197.2361       197.2361       197.2361       38.807255    
     47000   700.40392     -5455515        197.2361       197.2361       197.2361      -175.86563    
     48000   701.15472     -5455501.8      197.2361       197.2361       197.2361       25.097561    
     49000   700.62074     -5455535.9      197.2361       197.2361       197.2361      -155.28012    
     50000   698.67978     -5455621.7      197.2361       197.2361       197.2361      -55.945655    
     51000   701.17109     -5455535        197.2361       197.2361       197.2361       36.980481    
     52000   700.71024     -5455593.3      197.2361       197.2361       197.2361      -116.57063    
     53000   698.90595     -5455745.1      197.2361       197.2361       197.2361      -51.909066    
     54000   699.90191     -5455621.1      197.2361       197.2361       197.2361      -6.2580199    
     55000   700.4237      -5455605.1      197.2361       197.2361       197.2361      -79.288615    
     56000   700.79222     -5455646.6      197.2361       197.2361       197.2361      -96.02384     
     57000   700.90259     -5455621.4      197.2361       197.2361       197.2361      -193.28       
     58000   701.05872     -5455536.2      197.2361       197.2361       197.2361      -33.790065    
     59000   700.79644     -5455575.5      197.2361       197.2361       197.2361      -83.762037    
     60000   701.30066     -5455525.5      197.2361       197.2361       197.2361      -129.59088    
     61000   700.24073     -5455688.1      197.2361       197.2361       197.2361      -65.876104    
     62000   699.97906     -5455645.4      197.2361       197.2361       197.2361       23.765122    
     63000   700.40776     -5455551.6      197.2361       197.2361       197.2361      -140.29184    
     64000   698.97511     -5455714.6      197.2361       197.2361       197.2361      -84.563418    
     65000   701.4205      -5455582.5      197.2361       197.2361       197.2361      -46.061276    
     66000   699.82886     -5455648.3      197.2361       197.2361       197.2361      -80.398342    
     67000   699.66902     -5455634.5      197.2361       197.2361       197.2361       12.164875    
     68000   699.79784     -5455688.9      197.2361       197.2361       197.2361      -183.6397     
     69000   701.27138     -5455541.3      197.2361       197.2361       197.2361      -63.585254    
     70000   700.08066     -5455595.6      197.2361       197.2361       197.2361      -26.317752    
     71000   699.60332     -5455652        197.2361       197.2361       197.2361      -9.3170139    
     72000   700.34885     -5455563.4      197.2361       197.2361       197.2361       61.604929    
     73000   699.23832     -5455744        197.2361       197.2361       197.2361      -74.684014    
     74000   700.38319     -5455543.1      197.2361       197.2361       197.2361      -34.69621     
     75000   698.8178      -5455684.2      197.2361       197.2361       197.2361      -95.400579    
     76000   701.21235     -5455499.7      197.2361       197.2361       197.2361       14.753526    
     77000   700.80534     -5455531        197.2361       197.2361       197.2361      -11.617717    
     78000   699.33979     -5455587.7      197.2361       197.2361       197.2361      -99.091083    
     79000   699.61926     -5455689.3      197.2361       197.2361       197.2361      -23.411238    
     80000   700.04617     -5455648.7      197.2361       197.2361       197.2361      -106.98108    
     81000   698.44708     -5455736.8      197.2361       197.2361       197.2361       109.08624    
     82000   700.54006     -5455567.8      197.2361       197.2361       197.2361      -63.298906    
     83000   700.88221     -5455570.8      197.2361       197.2361       197.2361      -96.351404    
     84000   699.74388     -5455646.4      197.2361       197.2361       197.2361       80.638979    
     85000   698.62207     -5455708.3      197.2361       197.2361       197.2361      -11.227431    
     86000   699.78515     -5455661.1      197.2361       197.2361       197.2361      -193.616      
     87000   699.44967     -5455675.8      197.2361       197.2361       197.2361      -140.45374    
     88000   699.60575     -5455551.6      197.2361       197.2361       197.2361      -0.0091514582 
     89000   701.23593     -5455640.9      197.2361       197.2361       197.2361      -79.562792    
     90000   701.39479     -5455572.9      197.2361       197.2361       197.2361      -84.532809    
     91000   700.09463     -5455609.8      197.2361       197.2361       197.2361      -222.10044    
     92000   700.3929      -5455644.9      197.2361       197.2361       197.2361      -37.89675     
     93000   700.65629     -5455562.9      197.2361       197.2361       197.2361      -126.69617    
     94000   700.27396     -5455573.1      197.2361       197.2361       197.2361      -33.959948    
     95000   700.35834     -5455632.9      197.2361       197.2361       197.2361      -188.72179    
     96000   700.44287     -5455570.6      197.2361       197.2361       197.2361      -55.059671    
     97000   701.54793     -5455523.3      197.2361       197.2361       197.2361      -41.672295    
     98000   700.61033     -5455619.1      197.2361       197.2361       197.2361      -188.66331    
     99000   700.69322     -5455659.8      197.2361       197.2361       197.2361      -97.386029    
    100000   700.05569     -5455672.2      197.2361       197.2361       197.2361      -173.40701    
    101000   700.15942     -5455669.4      197.2361       197.2361       197.2361      -71.94174     
    102000   700.12029     -5455628.1      197.2361       197.2361       197.2361       3.7418004    
    103000   700.82316     -5455593.2      197.2361       197.2361       197.2361      -21.912782    
    104000   699.26259     -5455676.2      197.2361       197.2361       197.2361      -79.28166     
    105000   699.38744     -5455712.7      197.2361       197.2361       197.2361      -29.758416    
    106000   699.42627     -5455600.5      197.2361       197.2361       197.2361      -142.01642    
    107000   698.9424      -5455811        197.2361       197.2361       197.2361      -188.22028    
    108000   699.55252     -5455633.7      197.2361       197.2361       197.2361      -18.588533    
    109000   699.79019     -5455581.9      197.2361       197.2361       197.2361      -46.504086    
    110000   699.35962     -5455696.3      197.2361       197.2361       197.2361      -29.222194    
    111000   700.04002     -5455621.3      197.2361       197.2361       197.2361       4.0683593    
    112000   700.47722     -5455659.1      197.2361       197.2361       197.2361       58.42858     
    113000   699.75611     -5455664.4      197.2361       197.2361       197.2361       22.681919    
    114000   700.02719     -5455593.5      197.2361       197.2361       197.2361       36.130924    
    115000   701.16135     -5455585.6      197.2361       197.2361       197.2361       28.556572    
    116000   699.12493     -5455723.3      197.2361       197.2361       197.2361      -89.442096    
    117000   700.52756     -5455627        197.2361       197.2361       197.2361      -99.337144    
    118000   700.27723     -5455585        197.2361       197.2361       197.2361       77.139055    
    119000   700.67809     -5455584.3      197.2361       197.2361       197.2361      -1.7595966    
    120000   699.84405     -5455633.8      197.2361       197.2361       197.2361      -171.33688    
    121000   700.37339     -5455586.6      197.2361       197.2361       197.2361      -122.89762    
    122000   700.09768     -5455673.7      197.2361       197.2361       197.2361      -126.54297    
    123000   698.99839     -5455674.3      197.2361       197.2361       197.2361      -95.097607    
    124000   700.81044     -5455544.5      197.2361       197.2361       197.2361      -136.77621    
    125000   699.597       -5455650.9      197.2361       197.2361       197.2361      -2.5345177    
    126000   699.20175     -5455715        197.2361       197.2361       197.2361      -189.60774    
    127000   700.0926      -5455679.8      197.2361       197.2361       197.2361      -189.12506    
    128000   699.09887     -5455648.1      197.2361       197.2361       197.2361      -42.267039    
    129000   698.13545     -5455723.3      197.2361       197.2361       197.2361      -123.16403    
    130000   699.07095     -5455612        197.2361       197.2361       197.2361      -50.220296    
    131000   698.97066     -5455661.1      197.2361       197.2361       197.2361      -17.104537    
    132000   700.4209      -5455552.1      197.2361       197.2361       197.2361       29.462888    
    133000   701.15897     -5455600.3      197.2361       197.2361       197.2361      -54.666335    
    134000   701.07852     -5455608.3      197.2361       197.2361       197.2361      -68.207327    
    135000   699.64208     -5455605.2      197.2361       197.2361       197.2361       17.554861    
    136000   700.71343     -5455596.3      197.2361       197.2361       197.2361      -41.451869    
    137000   699.94464     -5455634.5      197.2361       197.2361       197.2361      -24.245903    
    138000   700.01169     -5455746.7      197.2361       197.2361       197.2361       75.4084      
    139000   699.80165     -5455686.3      197.2361       197.2361       197.2361      -82.235074    
    140000   700.81077     -5455586.9      197.2361       197.2361       197.2361      -50.931168    
    141000   700.45071     -5455646.1      197.2361       197.2361       197.2361      -92.802079    
    142000   699.60832     -5455620.6      197.2361       197.2361       197.2361       104.2272     
    143000   699.31363     -5455768.6      197.2361       197.2361       197.2361      -39.507419    
    144000   699.38356     -5455661        197.2361       197.2361       197.2361      -104.37975    
    145000   700.38926     -5455578.4      197.2361       197.2361       197.2361       86.295551    
    146000   700.11203     -5455633.4      197.2361       197.2361       197.2361      -33.05093     
    147000   699.74805     -5455617.7      197.2361       197.2361       197.2361       30.995771    
    148000   699.35935     -5455657.3      197.2361       197.2361       197.2361       20.098006    
    149000   700.27131     -5455627.3      197.2361       197.2361       197.2361       90.39151     
    150000   700.34158     -5455615.5      197.2361       197.2361       197.2361      -38.51085     
    151000   700.30459     -5455719.1      197.2361       197.2361       197.2361      -66.219858    
    152000   700.63344     -5455640.8      197.2361       197.2361       197.2361      -86.113936    
    153000   700.62944     -5455607.5      197.2361       197.2361       197.2361      -180.07202    
    154000   700.30525     -5455537.1      197.2361       197.2361       197.2361       75.275564    
    155000   700.35273     -5455641.8      197.2361       197.2361       197.2361      -82.657521    
    156000   701.43964     -5455519.3      197.2361       197.2361       197.2361      -126.71318    
    157000   700.26793     -5455683.1      197.2361       197.2361       197.2361      -75.45197     
    158000   699.24803     -5455632.8      197.2361       197.2361       197.2361      -82.3296      
    159000   700.87645     -5455573.6      197.2361       197.2361       197.2361      -135.12031    
    160000   699.60769     -5455612.2      197.2361       197.2361       197.2361      -151.10296    
    161000   699.83884     -5455614.4      197.2361       197.2361       197.2361      -86.71771     
    162000   699.70166     -5455651        197.2361       197.2361       197.2361      -172.89326    
    163000   699.9151      -5455579.9      197.2361       197.2361       197.2361      -149.46732    
    164000   699.46888     -5455617.8      197.2361       197.2361       197.2361       34.191369    
    165000   699.2221      -5455633.6      197.2361       197.2361       197.2361      -83.54321     
    166000   700.04923     -5455623.1      197.2361       197.2361       197.2361      -164.4546     
    167000   700.05731     -5455641        197.2361       197.2361       197.2361      -69.697316    
    168000   700.78759     -5455547.6      197.2361       197.2361       197.2361      -153.04007    
    169000   700.6289      -5455628        197.2361       197.2361       197.2361       74.449248    
    170000   698.01513     -5455782.1      197.2361       197.2361       197.2361      -130.99399    
    171000   700.35888     -5455619.5      197.2361       197.2361       197.2361       5.1922448    
    172000   699.42643     -5455651.6      197.2361       197.2361       197.2361      -40.968213    
    173000   700.01835     -5455579.3      197.2361       197.2361       197.2361       10.472661    
    174000   698.83434     -5455772.6      197.2361       197.2361       197.2361      -175.9268     
    175000   700.20124     -5455631.6      197.2361       197.2361       197.2361      -136.91064    
    176000   700.82844     -5455534.6      197.2361       197.2361       197.2361       56.618277    
    177000   700.27017     -5455639.5      197.2361       197.2361       197.2361      -100.68491    
    178000   699.56111     -5455703.5      197.2361       197.2361       197.2361       50.381771    
    179000   698.63585     -5455789.4      197.2361       197.2361       197.2361      -103.37477    
    180000   699.67791     -5455620.5      197.2361       197.2361       197.2361      -57.858975    
    181000   700.96562     -5455520.1      197.2361       197.2361       197.2361      -143.10017    
    182000   700.97018     -5455631.1      197.2361       197.2361       197.2361       16.30481     
    183000   699.95498     -5455724.8      197.2361       197.2361       197.2361      -102.35349    
    184000   700.41908     -5455651.6      197.2361       197.2361       197.2361      -112.01376    
    185000   699.94965     -5455723.3      197.2361       197.2361       197.2361      -73.236348    
    186000   699.84786     -5455592.5      197.2361       197.2361       197.2361      -87.81446     
    187000   699.62106     -5455687.3      197.2361       197.2361       197.2361      -145.69056    
    188000   701.23948     -5455615.3      197.2361       197.2361       197.2361      -155.73142    
    189000   700.32588     -5455616.4      197.2361       197.2361       197.2361      -126.02869    
    190000   700.55234     -5455594.5      197.2361       197.2361       197.2361       83.590749    
    191000   700.92994     -5455552.7      197.2361       197.2361       197.2361       162.45692    
    192000   699.80347     -5455748        197.2361       197.2361       197.2361      -147.49654    
    193000   700.68266     -5455565.6      197.2361       197.2361       197.2361      -80.113441    
    194000   699.48229     -5455687.1      197.2361       197.2361       197.2361      -112.28627    
    195000   698.8167      -5455734.3      197.2361       197.2361       197.2361      -60.63854     
    196000   701.52151     -5455568        197.2361       197.2361       197.2361      -146.28293    
    197000   700.86283     -5455557.8      197.2361       197.2361       197.2361       36.073636    
    198000   699.0917      -5455720.4      197.2361       197.2361       197.2361      -171.97461    
    199000   700.71443     -5455610        197.2361       197.2361       197.2361      -34.920157    
    200000   699.10732     -5455740.6      197.2361       197.2361       197.2361      -94.056699    
    201000   700.49332     -5455689.6      197.2361       197.2361       197.2361      -93.970395    
    202000   700.20742     -5455471.6      197.2361       197.2361       197.2361      -25.021735    
    203000   702.27762     -5455658.8      197.2361       197.2361       197.2361      -139.68774    
    204000   699.96195     -5455709.8      197.2361       197.2361       197.2361      -111.3374     
    205000   700.5754      -5455648.4      197.2361       197.2361       197.2361      -176.55533    
    206000   699.05428     -5455692.3      197.2361       197.2361       197.2361      -219.41058    
    207000   697.83805     -5455764.3      197.2361       197.2361       197.2361      -233.4013     
    208000   700.42781     -5455709.5      197.2361       197.2361       197.2361      -89.515216    
    209000   699.35782     -5455705.7      197.2361       197.2361       197.2361      -145.44813    
    210000   700.34251     -5455635.4      197.2361       197.2361       197.2361      -139.02664    
    211000   701.49431     -5455668.6      197.2361       197.2361       197.2361      -39.836574    
    212000   699.56162     -5455647.1      197.2361       197.2361       197.2361      -92.003233    
    213000   700.5629      -5455679.6      197.2361       197.2361       197.2361      -78.799363    
    214000   700.22324     -5455676.7      197.2361       197.2361       197.2361      -180.36688    
    215000   699.84736     -5455599.8      197.2361       197.2361       197.2361      -137.87215    
    216000   700.55088     -5455643.8      197.2361       197.2361       197.2361      -20.153455    
    217000   699.91862     -5455694.5      197.2361       197.2361       197.2361      -206.92683    
    218000   698.80316     -5455649.8      197.2361       197.2361       197.2361       19.515302    
    219000   700.33536     -5455616.9      197.2361       197.2361       197.2361      -122.57261    
    220000   699.87855     -5455618.9      197.2361       197.2361       197.2361      -60.570532    
    221000   699.86344     -5455736.3      197.2361       197.2361       197.2361      -195.6918     
    222000   699.01231     -5455639.4      197.2361       197.2361       197.2361       0.95613285   
    223000   700.1087      -5455633.6      197.2361       197.2361       197.2361      -38.791499    
    224000   700.58361     -5455526.7      197.2361       197.2361       197.2361       2.3329583    
    225000   700.13388     -5455678        197.2361       197.2361       197.2361      -59.728787    
    226000   701.03618     -5455577.5      197.2361       197.2361       197.2361      -30.714986    
    227000   699.61284     -5455645.1      197.2361       197.2361       197.2361       13.033979    
    228000   698.84959     -5455802.8      197.2361       197.2361       197.2361      -173.79417    
    229000   700.78064     -5455593.5      197.2361       197.2361       197.2361      -175.95079    
    230000   699.21262     -5455734        197.2361       197.2361       197.2361      -113.92484    
    231000   699.38164     -5455755.4      197.2361       197.2361       197.2361      -162.42236    
    232000   699.12171     -5455626.8      197.2361       197.2361       197.2361      -199.54922    
    233000   701.18396     -5455657        197.2361       197.2361       197.2361      -89.108793    
    234000   699.49103     -5455666.4      197.2361       197.2361       197.2361      -52.576581    
    235000   700.08112     -5455610.4      197.2361       197.2361       197.2361      -133.65227    
    236000   698.65547     -5455706.7      197.2361       197.2361       197.2361      -118.3273     
    237000   699.79071     -5455662.3      197.2361       197.2361       197.2361      -143.56189    
    238000   699.92011     -5455636.2      197.2361       197.2361       197.2361      -258.39253    
    239000   697.92316     -5455767.9      197.2361       197.2361       197.2361      -85.866917    
    240000   698.84041     -5455699        197.2361       197.2361       197.2361      -65.95813     
    241000   698.81497     -5455677.3      197.2361       197.2361       197.2361       76.920484    
    242000   700.90343     -5455578.4      197.2361       197.2361       197.2361      -20.018028    
    243000   698.85248     -5455725        197.2361       197.2361       197.2361      -25.869642    
    244000   699.10512     -5455686.2      197.2361       197.2361       197.2361      -58.912882    
    245000   698.97077     -5455628.2      197.2361       197.2361       197.2361      -127.63172    
    246000   700.34515     -5455527.7      197.2361       197.2361       197.2361      -12.948401    
    247000   700.66955     -5455692.8      197.2361       197.2361       197.2361      -89.538712    
    248000   699.67281     -5455698.1      197.2361       197.2361       197.2361      -135.71195    
    249000   700.30683     -5455624.4      197.2361       197.2361       197.2361       36.63332     
    250000   700.22299     -5455676.1      197.2361       197.2361       197.2361      -42.15476     
    251000   700.56498     -5455594.5      197.2361       197.2361       197.2361       15.202182    
    252000   699.49045     -5455647.9      197.2361       197.2361       197.2361       29.970971    
    253000   699.93028     -5455694.2      197.2361       197.2361       197.2361       34.413911    
    254000   699.39879     -5455713.8      197.2361       197.2361       197.2361      -53.427107    
    255000   699.33272     -5455640.2      197.2361       197.2361       197.2361      -67.782873    
    256000   700.24243     -5455677.2      197.2361       197.2361       197.2361      -192.07388    
    257000   701.16497     -5455595.7      197.2361       197.2361       197.2361      -144.14752    
    258000   701.14757     -5455726.3      197.2361       197.2361       197.2361      -98.603892    
    259000   699.68256     -5455732.9      197.2361       197.2361       197.2361      -11.796982    
    260000   700.77537     -5455622.4      197.2361       197.2361       197.2361      -87.361723    
    261000   700.36458     -5455611.7      197.2361       197.2361       197.2361      -23.334255    
    262000   701.0218      -5455493.5      197.2361       197.2361       197.2361       40.552308    
    263000   699.92239     -5455609.7      197.2361       197.2361       197.2361      -43.300371    
    264000   698.04732     -5455860.3      197.2361       197.2361       197.2361      -39.984296    
    265000   700.18949     -5455662.7      197.2361       197.2361       197.2361      -132.88241    
    266000   699.69051     -5455740.6      197.2361       197.2361       197.2361      -2.2551943    
    267000   700.42017     -5455648.8      197.2361       197.2361       197.2361      -143.44627    
    268000   699.73748     -5455662.2      197.2361       197.2361       197.2361       66.8298      
    269000   700.75314     -5455607.2      197.2361       197.2361       197.2361       10.069203    
    270000   699.28297     -5455728.4      197.2361       197.2361       197.2361      -126.16439    
    271000   700.7712      -5455640.9      197.2361       197.2361       197.2361      -36.488946    
    272000   699.75996     -5455689.6      197.2361       197.2361       197.2361      -95.020684    
    273000   700.16291     -5455637.2      197.2361       197.2361       197.2361       35.322563    
    274000   699.0267      -5455630.8      197.2361       197.2361       197.2361      -113.59096    
    275000   699.33254     -5455603.3      197.2361       197.2361       197.2361      -0.24237089   
    276000   699.28029     -5455700.3      197.2361       197.2361       197.2361      -27.37169     
    277000   699.53869     -5455586.6      197.2361       197.2361       197.2361      -87.926498    
    278000   700.68554     -5455620.3      197.2361       197.2361       197.2361      -106.27247    
    279000   698.66857     -5455717.6      197.2361       197.2361       197.2361      -264.30134    
    280000   699.93746     -5455582.8      197.2361       197.2361       197.2361      -40.538877    
    281000   700.65129     -5455609.1      197.2361       197.2361       197.2361      -40.809588    
    282000   699.41494     -5455773.2      197.2361       197.2361       197.2361      -30.269652    
    283000   700.06943     -5455688.3      197.2361       197.2361       197.2361      -223.33484    
    284000   699.68169     -5455724.2      197.2361       197.2361       197.2361      -183.09666    
    285000   700.58209     -5455656        197.2361       197.2361       197.2361      -317.47389    
    286000   699.62481     -5455660.4      197.2361       197.2361       197.2361      -97.537713    
    287000   701.04121     -5455568.2      197.2361       197.2361       197.2361      -116.84157    
    288000   699.99077     -5455671.5      197.2361       197.2361       197.2361       55.832389    
    289000   699.26049     -5455632.6      197.2361       197.2361       197.2361      -102.84582    
    290000   700.31214     -5455666.3      197.2361       197.2361       197.2361       118.35826    
    291000   699.89495     -5455711.6      197.2361       197.2361       197.2361      -106.38659    
    292000   698.79289     -5455771.4      197.2361       197.2361       197.2361      -94.716567    
    293000   699.209       -5455601.6      197.2361       197.2361       197.2361      -159.44466    
    294000   699.9359      -5455712.4      197.2361       197.2361       197.2361      -35.041413    
    295000   700.78936     -5455651        197.2361       197.2361       197.2361      -26.182884    
    296000   700.01097     -5455608.9      197.2361       197.2361       197.2361      -106.92       
    297000   700.06277     -5455563.1      197.2361       197.2361       197.2361      -235.45048    
    298000   697.79753     -5455788.6      197.2361       197.2361       197.2361      -100.5395     
    299000   699.66334     -5455700.6      197.2361       197.2361       197.2361       5.2623596    
    300000   699.18698     -5455726.3      197.2361       197.2361       197.2361       50.153314    
    301000   699.95145     -5455661.1      197.2361       197.2361       197.2361       20.225028    
    302000   700.26112     -5455657.5      197.2361       197.2361       197.2361      -188.53863    
    303000   700.45008     -5455543        197.2361       197.2361       197.2361       3.5058108    
    304000   700.51427     -5455662.4      197.2361       197.2361       197.2361       3.6421348    
    305000   699.39656     -5455712.9      197.2361       197.2361       197.2361      -154.07926    
    306000   699.15602     -5455721.5      197.2361       197.2361       197.2361      -150.38574    
    307000   700.0179      -5455740.1      197.2361       197.2361       197.2361      -117.4553     
    308000   700.38536     -5455648.7      197.2361       197.2361       197.2361      -240.16935    
    309000   700.01753     -5455716        197.2361       197.2361       197.2361      -49.993033    
    310000   699.77317     -5455702.4      197.2361       197.2361       197.2361      -165.67459    
    311000   699.83822     -5455575.3      197.2361       197.2361       197.2361      -197.96045    
    312000   699.14036     -5455657        197.2361       197.2361       197.2361      -165.43048    
    313000   702.15953     -5455576.5      197.2361       197.2361       197.2361      -280.28991    
    314000   699.8573      -5455700        197.2361       197.2361       197.2361      -95.116455    
    315000   700.59107     -5455650        197.2361       197.2361       197.2361      -32.297851    
    316000   699.83273     -5455682.4      197.2361       197.2361       197.2361      -212.19375    
    317000   701.18083     -5455544.2      197.2361       197.2361       197.2361      -59.876834    
    318000   701.22575     -5455501        197.2361       197.2361       197.2361      -177.70824    
    319000   699.32217     -5455663.9      197.2361       197.2361       197.2361      -244.1816     
    320000   699.03656     -5455682.2      197.2361       197.2361       197.2361      -67.906874    
    321000   700.20792     -5455642.2      197.2361       197.2361       197.2361      -28.681985    
    322000   699.21604     -5455786.6      197.2361       197.2361       197.2361      -30.810043    
    323000   700.49452     -5455688.6      197.2361       197.2361       197.2361      -123.50752    
    324000   699.99134     -5455691.7      197.2361       197.2361       197.2361      -124.30968    
    325000   699.69458     -5455627.6      197.2361       197.2361       197.2361      -75.581494    
    326000   699.65343     -5455661.3      197.2361       197.2361       197.2361      -1.9411768    
    327000   698.99894     -5455714.7      197.2361       197.2361       197.2361      -129.85289    
    328000   699.20779     -5455730.9      197.2361       197.2361       197.2361      -89.46276     
    329000   700.28967     -5455715        197.2361       197.2361       197.2361      -11.392587    
    330000   698.84673     -5455746.9      197.2361       197.2361       197.2361      -169.96053    
    331000   699.42786     -5455742.1      197.2361       197.2361       197.2361      -5.0167546    
    332000   701.03794     -5455598.6      197.2361       197.2361       197.2361      -163.89806    
    333000   700.66997     -5455644.8      197.2361       197.2361       197.2361       16.35722     
    334000   699.97077     -5455696.6      197.2361       197.2361       197.2361      -156.3815     
    335000   700.65454     -5455710.3      197.2361       197.2361       197.2361      -141.46593    
    336000   698.8736      -5455655.1      197.2361       197.2361       197.2361       8.366697     
    337000   701.63913     -5455521.6      197.2361       197.2361       197.2361      -56.37694     
    338000   699.97136     -5455752        197.2361       197.2361       197.2361      -208.79202    
    339000   700.04075     -5455635        197.2361       197.2361       197.2361      -126.27716    
    340000   699.49808     -5455607.8      197.2361       197.2361       197.2361      -144.01277    
    341000   700.84974     -5455595.6      197.2361       197.2361       197.2361      -150.64724    
    342000   700.80686     -5455676        197.2361       197.2361       197.2361      -133.8487     
    343000   699.07804     -5455772.1      197.2361       197.2361       197.2361      -184.17964    
    344000   700.89567     -5455544.6      197.2361       197.2361       197.2361      -78.628631    
    345000   699.67066     -5455781.4      197.2361       197.2361       197.2361      -39.716782    
    346000   700.73724     -5455648.1      197.2361       197.2361       197.2361      -98.332915    
    347000   700.31688     -5455636.8      197.2361       197.2361       197.2361      -58.822723    
    348000   699.84909     -5455647.4      197.2361       197.2361       197.2361      -200.20113    
    349000   699.5407      -5455753.9      197.2361       197.2361       197.2361      -199.9997     
    350000   700.32039     -5455670.3      197.2361       197.2361       197.2361      -214.69471    
    351000   699.61884     -5455647.7      197.2361       197.2361       197.2361      -179.95003    
    352000   699.76592     -5455626.5      197.2361       197.2361       197.2361      -108.32346    
    353000   700.03402     -5455723.4      197.2361       197.2361       197.2361      -210.17693    
    354000   700.63817     -5455616.4      197.2361       197.2361       197.2361      -31.688256    
    355000   700.36003     -5455725.3      197.2361       197.2361       197.2361      -104.99319    
    356000   700.45528     -5455640.8      197.2361       197.2361       197.2361      -27.592608    
    357000   699.89696     -5455616.8      197.2361       197.2361       197.2361      -89.427847    
    358000   699.11528     -5455724.2      197.2361       197.2361       197.2361      -120.07514    
    359000   700.03693     -5455611.8      197.2361       197.2361       197.2361      -117.98368    
    360000   698.73257     -5455759.4      197.2361       197.2361       197.2361      -123.47844    
    361000   699.66227     -5455625.7      197.2361       197.2361       197.2361      -65.872825    
    362000   699.77822     -5455659.2      197.2361       197.2361       197.2361      -153.25572    
    363000   701.51342     -5455652.2      197.2361       197.2361       197.2361      -19.740287    
    364000   699.46034     -5455707.4      197.2361       197.2361       197.2361      -66.873402    
    365000   699.60049     -5455707.5      197.2361       197.2361       197.2361      -278.11997    
    366000   699.64448     -5455741.7      197.2361       197.2361       197.2361      -154.13845    
    367000   700.30629     -5455668.4      197.2361       197.2361       197.2361      -143.06695    
    368000   701.13306     -5455597.4      197.2361       197.2361       197.2361       69.035981    
    369000   700.53166     -5455680        197.2361       197.2361       197.2361      -235.69189    
    370000   698.66858     -5455712.1      197.2361       197.2361       197.2361      -152.51871    
    371000   700.24114     -5455550.8      197.2361       197.2361       197.2361      -56.971714    
    372000   700.50642     -5455585.1      197.2361       197.2361       197.2361      -115.67343    
    373000   700.17248     -5455677.8      197.2361       197.2361       197.2361      -121.95214    
    374000   699.40217     -5455715.5      197.2361       197.2361       197.2361      -21.146363    
    375000   700.03826     -5455719.6      197.2361       197.2361       197.2361      -62.398295    
    376000   700.76223     -5455704.7      197.2361       197.2361       197.2361      -103.82431    
    377000   700.08423     -5455745.9      197.2361       197.2361       197.2361      -61.402355    
    378000   699.19204     -5455589        197.2361       197.2361       197.2361      -90.517562    
    379000   700.24282     -5455803        197.2361       197.2361       197.2361      -174.44655    
    380000   700.33834     -5455744.3      197.2361       197.2361       197.2361      -72.114425    
    381000   700.27337     -5455643.2      197.2361       197.2361       197.2361      -133.38506    
    382000   700.85856     -5455693.6      197.2361       197.2361       197.2361      -69.960246    
    383000   700.89627     -5455651.9      197.2361       197.2361       197.2361      -223.00624    
    384000   700.26905     -5455672.6      197.2361       197.2361       197.2361      -153.94207    
    385000   698.31304     -5455799.8      197.2361       197.2361       197.2361       19.601772    
    386000   699.00324     -5455724.8      197.2361       197.2361       197.2361      -41.936442    
    387000   700.03091     -5455659.7      197.2361       197.2361       197.2361      -89.17842     
    388000   699.87555     -5455697        197.2361       197.2361       197.2361       22.542705    
    389000   699.15792     -5455785.6      197.2361       197.2361       197.2361      -112.55222    
    390000   700.39975     -5455677.9      197.2361       197.2361       197.2361       18.526959    
    391000   699.94413     -5455688.7      197.2361       197.2361       197.2361       38.366027    
    392000   701.23175     -5455733.5      197.2361       197.2361       197.2361      -70.153945    
    393000   700.73751     -5455629.6      197.2361       197.2361       197.2361      -48.182178    
    394000   699.71749     -5455690.5      197.2361       197.2361       197.2361      -76.209055    
    395000   700.30597     -5455681.6      197.2361       197.2361       197.2361      -62.932177    
    396000   700.7793      -5455695.1      197.2361       197.2361       197.2361      -35.135075    
    397000   700.23993     -5455623.5      197.2361       197.2361       197.2361       72.888588    
    398000   700.16801     -5455685.2      197.2361       197.2361       197.2361       13.910001    
    399000   700.75766     -5455711.6      197.2361       197.2361       197.2361      -196.41062    
    400000   699.64588     -5455659.8      197.2361       197.2361       197.2361       13.844547    
    401000   700.31635     -5455674        197.2361       197.2361       197.2361      -143.25025    
    402000   700.10892     -5455750.3      197.2361       197.2361       197.2361      -127.3948     
    403000   699.8155      -5455648.9      197.2361       197.2361       197.2361      -172.83842    
    404000   700.52711     -5455594        197.2361       197.2361       197.2361      -49.056098    
    405000   699.8397      -5455662.1      197.2361       197.2361       197.2361      -19.295497    
    406000   700.07418     -5455674.7      197.2361       197.2361       197.2361      -214.87516    
    407000   698.8853      -5455745        197.2361       197.2361       197.2361      -186.64762    
    408000   699.85673     -5455735.1      197.2361       197.2361       197.2361      -92.918078    
    409000   700.3489      -5455709.7      197.2361       197.2361       197.2361      -40.151378    
    410000   700.30253     -5455673        197.2361       197.2361       197.2361      -62.855966    
    411000   700.24416     -5455686.7      197.2361       197.2361       197.2361      -32.391097    
    412000   700.71194     -5455591.9      197.2361       197.2361       197.2361      -7.757522     
    413000   698.91646     -5455775        197.2361       197.2361       197.2361      -117.8457     
    414000   699.52624     -5455651.4      197.2361       197.2361       197.2361      -20.642295    
    415000   699.40648     -5455740.6      197.2361       197.2361       197.2361      -46.840363    
    416000   700.81584     -5455697.2      197.2361       197.2361       197.2361       43.250017    
    417000   699.97985     -5455718.2      197.2361       197.2361       197.2361      -38.729249    
    418000   699.39479     -5455692.7      197.2361       197.2361       197.2361      -214.29239    
    419000   698.90039     -5455700.7      197.2361       197.2361       197.2361      -47.116159    
    420000   698.68784     -5455748        197.2361       197.2361       197.2361      -28.179302    
    421000   700.98768     -5455608.1      197.2361       197.2361       197.2361      -119.48893    
    422000   699.99033     -5455682.9      197.2361       197.2361       197.2361      -33.220997    
    423000   700.56006     -5455740.2      197.2361       197.2361       197.2361      -136.54029    
    424000   698.98048     -5455785        197.2361       197.2361       197.2361      -20.865534    
    425000   698.51836     -5455739.1      197.2361       197.2361       197.2361      -64.923053    
    426000   699.93357     -5455745.4      197.2361       197.2361       197.2361      -15.273582    
    427000   699.05596     -5455768.3      197.2361       197.2361       197.2361      -95.844423    
    428000   700.90448     -5455658.2      197.2361       197.2361       197.2361       29.428443    
    429000   698.91293     -5455748.1      197.2361       197.2361       197.2361      -229.5015     
    430000   699.44455     -5455698.6      197.2361       197.2361       197.2361      -230.11778    
    431000   699.21432     -5455701        197.2361       197.2361       197.2361      -53.806576    
    432000   700.74056     -5455594.8      197.2361       197.2361       197.2361      -101.39185    
    433000   701.01303     -5455616.8      197.2361       197.2361       197.2361      -68.816184    
    434000   699.94956     -5455649.4      197.2361       197.2361       197.2361      -195.86737    
    435000   699.91788     -5455636.8      197.2361       197.2361       197.2361      -102.43282    
    436000   698.63932     -5455703.9      197.2361       197.2361       197.2361       34.576853    
    437000   700.81783     -5455625.6      197.2361       197.2361       197.2361      -33.03443     
    438000   700.95977     -5455591.1      197.2361       197.2361       197.2361       38.003344    
    439000   699.22936     -5455723        197.2361       197.2361       197.2361      -214.64526    
    440000   698.84214     -5455578.2      197.2361       197.2361       197.2361      -81.089997    
    441000   700.02156     -5455730.6      197.2361       197.2361       197.2361      -31.505082    
    442000   699.49616     -5455686.9      197.2361       197.2361       197.2361       9.9021115    
    443000   699.07874     -5455716.2      197.2361       197.2361       197.2361      -44.816079    
    444000   698.79295     -5455663.5      197.2361       197.2361       197.2361      -308.47948    
    445000   699.80138     -5455684.9      197.2361       197.2361       197.2361      -20.601089    
    446000   699.17062     -5455700.1      197.2361       197.2361       197.2361      -105.07428    
    447000   698.9073      -5455781        197.2361       197.2361       197.2361      -302.26829    
    448000   700.39064     -5455697.1      197.2361       197.2361       197.2361      -132.46442    
    449000   699.29041     -5455705.4      197.2361       197.2361       197.2361      -159.92664    
    450000   699.60392     -5455801.5      197.2361       197.2361       197.2361      -209.84674    
    451000   699.74451     -5455644.8      197.2361       197.2361       197.2361       24.179419    
    452000   699.70046     -5455643.5      197.2361       197.2361       197.2361       6.7145432    
    453000   699.09096     -5455664.6      197.2361       197.2361       197.2361      -149.84345    
    454000   700.51617     -5455690.4      197.2361       197.2361       197.2361      -128.98888    
    455000   698.74946     -5455779.8      197.2361       197.2361       197.2361      -177.13113    
    456000   700.5439      -5455556.3      197.2361       197.2361       197.2361      -67.843099    
    457000   700.88459     -5455639.3      197.2361       197.2361       197.2361      -116.64927    
    458000   700.2433      -5455614.9      197.2361       197.2361       197.2361      -262.32932    
    459000   699.51698     -5455723.1      197.2361       197.2361       197.2361      -172.09023    
    460000   700.63312     -5455602.3      197.2361       197.2361       197.2361      -212.95674    
    461000   700.72942     -5455677.1      197.2361       197.2361       197.2361      -96.036419    
    462000   698.9151      -5455785.1      197.2361       197.2361       197.2361      -137.94857    
    463000   700.59438     -5455572.9      197.2361       197.2361       197.2361      -136.26249    
    464000   700.9422      -5455787.3      197.2361       197.2361       197.2361      -195.41589    
    465000   699.59184     -5455738.1      197.2361       197.2361       197.2361      -31.952176    
    466000   701.34274     -5455603.6      197.2361       197.2361       197.2361      -193.52925    
    467000   700.09779     -5455735.5      197.2361       197.2361       197.2361      -261.67935    
    468000   701.49066     -5455590.5      197.2361       197.2361       197.2361      -218.37873    
    469000   699.05695     -5455738        197.2361       197.2361       197.2361      -206.43984    
    470000   700.34609     -5455662.3      197.2361       197.2361       197.2361      -173.97626    
    471000   699.1485      -5455784.2      197.2361       197.2361       197.2361      -213.93926    
    472000   699.8439      -5455628.1      197.2361       197.2361       197.2361      -49.769715    
    473000   699.3489      -5455799.5      197.2361       197.2361       197.2361      -163.02524    
    474000   698.71948     -5455799.1      197.2361       197.2361       197.2361       6.2644896    
    475000   700.78416     -5455719.9      197.2361       197.2361       197.2361      -170.0293     
    476000   700.50877     -5455625.9      197.2361       197.2361       197.2361      -2.1611161    
    477000   699.78249     -5455668.9      197.2361       197.2361       197.2361       34.804531    
    478000   699.87518     -5455693.8      197.2361       197.2361       197.2361      -146.80876    
    479000   698.75927     -5455759.6      197.2361       197.2361       197.2361      -140.41867    
    480000   699.74379     -5455710.7      197.2361       197.2361       197.2361      -63.256653    
    481000   700.18543     -5455747.4      197.2361       197.2361       197.2361       19.536164    
    482000   698.72649     -5455926.9      197.2361       197.2361       197.2361      -39.103109    
    483000   699.8674      -5455664.3      197.2361       197.2361       197.2361      -115.57129    
    484000   699.21658     -5455778.1      197.2361       197.2361       197.2361      -86.495249    
    485000   700.55879     -5455658.8      197.2361       197.2361       197.2361      -171.42103    
    486000   700.87372     -5455611.5      197.2361       197.2361       197.2361       32.831566    
    487000   700.72124     -5455674.3      197.2361       197.2361       197.2361      -293.42877    
    488000   698.94754     -5455709.7      197.2361       197.2361       197.2361      -74.39826     
    489000   700.41233     -5455716.4      197.2361       197.2361       197.2361      -217.2301     
    490000   700.47425     -5455689.6      197.2361       197.2361       197.2361      -30.013658    
    491000   699.40427     -5455790.3      197.2361       197.2361       197.2361      -202.6104     
    492000   701.25621     -5455649.5      197.2361       197.2361       197.2361      -193.07712    
    493000   700.25826     -5455643.2      197.2361       197.2361       197.2361      -36.045081    
    494000   700.6736      -5455715.5      197.2361       197.2361       197.2361      -21.20086     
    495000   698.25349     -5455848.1      197.2361       197.2361       197.2361      -160.43187    
    496000   700.3347      -5455735.4      197.2361       197.2361       197.2361       30.310936    
    497000   700.17861     -5455633.2      197.2361       197.2361       197.2361       29.446555    
    498000   700.27936     -5455731        197.2361       197.2361       197.2361      -152.67499    
    499000   699.39878     -5455679.4      197.2361       197.2361       197.2361      -18.911651    
    500000   699.86252     -5455765.2      197.2361       197.2361       197.2361      -10.311204    
    501000   699.21263     -5455668.9      197.2361       197.2361       197.2361      -61.808941    
    502000   699.12596     -5455694.7      197.2361       197.2361       197.2361      -137.68068    
    503000   699.09135     -5455783.6      197.2361       197.2361       197.2361      -93.357458    
    504000   699.3         -5455748        197.2361       197.2361       197.2361      -60.85582     
    505000   699.00324     -5455783.1      197.2361       197.2361       197.2361      -102.08067    
    506000   699.89933     -5455753        197.2361       197.2361       197.2361      -101.23449    
    507000   699.93839     -5455770.2      197.2361       197.2361       197.2361      -116.06861    
    508000   700.12349     -5455709        197.2361       197.2361       197.2361      -26.595139    
    509000   700.4179      -5455712.5      197.2361       197.2361       197.2361      -83.140555    
    510000   699.67195     -5455734.5      197.2361       197.2361       197.2361      -225.74493    
    511000   698.897       -5455749.6      197.2361       197.2361       197.2361      -82.801415    
    512000   701.30994     -5455618.7      197.2361       197.2361       197.2361      -134.63627    
    513000   698.8811      -5455737.2      197.2361       197.2361       197.2361       3.9810073    
    514000   700.52266     -5455670.5      197.2361       197.2361       197.2361      -64.097907    
    515000   700.00895     -5455778.4      197.2361       197.2361       197.2361      -185.5281     
    516000   700.17395     -5455632.5      197.2361       197.2361       197.2361       25.646723    
    517000   699.22934     -5455662.8      197.2361       197.2361       197.2361      -240.46118    
    518000   699.51753     -5455682        197.2361       197.2361       197.2361      -103.59433    
    519000   699.31054     -5455720.2      197.2361       197.2361       197.2361      -182.89856    
    520000   699.89341     -5455712.1      197.2361       197.2361       197.2361      -94.079717    
    521000   700.04833     -5455709.8      197.2361       197.2361       197.2361      -103.35749    
    522000   698.99691     -5455707.3      197.2361       197.2361       197.2361      -6.4727411    
    523000   699.09542     -5455681.9      197.2361       197.2361       197.2361      -217.38037    
    524000   699.74333     -5455707        197.2361       197.2361       197.2361       11.53941     
    525000   698.95487     -5455798.5      197.2361       197.2361       197.2361       10.149098    
    526000   699.20814     -5455657.5      197.2361       197.2361       197.2361       7.5877533    
    527000   699.06632     -5455755        197.2361       197.2361       197.2361       0.0069464982 
    528000   698.5579      -5455766.8      197.2361       197.2361       197.2361      -271.00109    
    529000   700.50749     -5455712.4      197.2361       197.2361       197.2361      -86.685393    
    530000   699.74051     -5455770        197.2361       197.2361       197.2361      -31.192648    
    531000   700.23503     -5455666.7      197.2361       197.2361       197.2361      -51.223941    
    532000   700.00803     -5455788.2      197.2361       197.2361       197.2361       87.949555    
    533000   698.21554     -5455791.6      197.2361       197.2361       197.2361      -96.927687    
    534000   700.03055     -5455703.9      197.2361       197.2361       197.2361      -195.06545    
    535000   700.34922     -5455769        197.2361       197.2361       197.2361      -138.77242    
    536000   700.06918     -5455757.7      197.2361       197.2361       197.2361      -18.973219    
    537000   700.02723     -5455815.9      197.2361       197.2361       197.2361      -17.956205    
    538000   699.7846      -5455784.2      197.2361       197.2361       197.2361      -124.43108    
    539000   702.55329     -5455623.6      197.2361       197.2361       197.2361      -73.68792     
    540000   700.18335     -5455630.5      197.2361       197.2361       197.2361      -115.008      
    541000   699.8629      -5455672.2      197.2361       197.2361       197.2361      -97.471448    
    542000   699.92202     -5455638.8      197.2361       197.2361       197.2361      -89.173771    
    543000   700.16523     -5455703.9      197.2361       197.2361       197.2361      -108.9588     
    544000   699.31566     -5455756.9      197.2361       197.2361       197.2361      -126.53808    
    545000   700.24183     -5455610.4      197.2361       197.2361       197.2361       29.592178    
    546000   699.84987     -5455594.1      197.2361       197.2361       197.2361      -155.25525    
    547000   699.83941     -5455678.8      197.2361       197.2361       197.2361      -164.20661    
    548000   698.66436     -5455762.4      197.2361       197.2361       197.2361      -17.110552    
    549000   700.54954     -5455630.7      197.2361       197.2361       197.2361      -121.06352    
    550000   702.34595     -5455538.5      197.2361       197.2361       197.2361      -132.67232    
    551000   700.50985     -5455626.1      197.2361       197.2361       197.2361      -39.92768     
    552000   700.18237     -5455712.4      197.2361       197.2361       197.2361       0.21406064   
    553000   699.53707     -5455771.5      197.2361       197.2361       197.2361      -164.44204    
    554000   699.38664     -5455711.1      197.2361       197.2361       197.2361       14.394697    
    555000   700.77247     -5455620.1      197.2361       197.2361       197.2361      -162.37602    
    556000   699.79638     -5455698.6      197.2361       197.2361       197.2361      -167.13812    
    557000   699.88783     -5455637        197.2361       197.2361       197.2361      -124.07546    
    558000   701.25689     -5455656.7      197.2361       197.2361       197.2361      -162.08286    
    559000   700.33815     -5455712.5      197.2361       197.2361       197.2361      -66.739484    
    560000   698.11087     -5455843.1      197.2361       197.2361       197.2361      -139.65341    
    561000   698.80672     -5455729.6      197.2361       197.2361       197.2361      -221.39697    
    562000   700.46986     -5455687.9      197.2361       197.2361       197.2361      -58.145879    
    563000   699.68643     -5455762.7      197.2361       197.2361       197.2361      -158.21167    
    564000   699.75117     -5455691.5      197.2361       197.2361       197.2361      -72.152062    
    565000   700.09769     -5455691.7      197.2361       197.2361       197.2361      -25.351288    
    566000   699.2935      -5455784.8      197.2361       197.2361       197.2361       14.782761    
    567000   699.79974     -5455811        197.2361       197.2361       197.2361      -125.29693    
    568000   699.76889     -5455763.6      197.2361       197.2361       197.2361       123.94915    
    569000   700.38035     -5455660.5      197.2361       197.2361       197.2361      -68.677362    
    570000   700.41607     -5455722.7      197.2361       197.2361       197.2361      -95.568646    
    571000   699.63496     -5455675.8      197.2361       197.2361       197.2361      -118.02877    
    572000   699.08713     -5455645.8      197.2361       197.2361       197.2361      -70.411283    
    573000   700.27156     -5455709.2      197.2361       197.2361       197.2361      -68.413642    
    574000   701.28451     -5455643.2      197.2361       197.2361       197.2361       45.089145    
    575000   700.21511     -5455718.8      197.2361       197.2361       197.2361      -251.13981    
    576000   700.75089     -5455767.8      197.2361       197.2361       197.2361      -153.49388    
    577000   700.42586     -5455643.8      197.2361       197.2361       197.2361      -195.88071    
    578000   699.48634     -5455712        197.2361       197.2361       197.2361      -73.830423    
    579000   700.64588     -5455666.5      197.2361       197.2361       197.2361      -233.10226    
    580000   699.27334     -5455709.3      197.2361       197.2361       197.2361      -250.53815    
    581000   699.3445      -5455663.8      197.2361       197.2361       197.2361      -239.73433    
    582000   700.07065     -5455724.7      197.2361       197.2361       197.2361      -103.62484    
    583000   699.56586     -5455694.3      197.2361       197.2361       197.2361      -204.80042    
    584000   700.23259     -5455601.4      197.2361       197.2361       197.2361      -139.11013    
    585000   698.99065     -5455801.2      197.2361       197.2361       197.2361      -195.97462    
    586000   698.93419     -5455717.5      197.2361       197.2361       197.2361      -151.27342    
    587000   700.79051     -5455651.6      197.2361       197.2361       197.2361      -120.79252    
    588000   700.55909     -5455695.7      197.2361       197.2361       197.2361      -95.45122     
    589000   700.1791      -5455733.4      197.2361       197.2361       197.2361      -166.881      
    590000   699.3985      -5455766        197.2361       197.2361       197.2361      -4.8160178    
    591000   698.9464      -5455787.7      197.2361       197.2361       197.2361      -32.09979     
    592000   700.95156     -5455697.3      197.2361       197.2361       197.2361      -51.10255     
    593000   700.27643     -5455704.7      197.2361       197.2361       197.2361      -59.883875    
    594000   700.51463     -5455790.9      197.2361       197.2361       197.2361      -88.96861     
    595000   699.34038     -5455762.3      197.2361       197.2361       197.2361      -176.87393    
    596000   700.12166     -5455644.9      197.2361       197.2361       197.2361      -98.285073    
    597000   699.49321     -5455771.5      197.2361       197.2361       197.2361      -277.89308    
    598000   699.25624     -5455735.3      197.2361       197.2361       197.2361      -36.709403    
    599000   700.07893     -5455741.7      197.2361       197.2361       197.2361      -46.592041    
    600000   700.82674     -5455622.4      197.2361       197.2361       197.2361       1.1019489    
    601000   700.01732     -5455631.8      197.2361       197.2361       197.2361      -15.696336    
    602000   699.80569     -5455723.2      197.2361       197.2361       197.2361      -8.0405385    
    603000   701.12175     -5455627.9      197.2361       197.2361       197.2361      -85.498759    
    604000   700.50059     -5455711        197.2361       197.2361       197.2361      -289.22154    
    605000   700.68581     -5455707.9      197.2361       197.2361       197.2361       63.156176    
    606000   700.19635     -5455718.1      197.2361       197.2361       197.2361      -106.67463    
    607000   700.60887     -5455647.4      197.2361       197.2361       197.2361      -67.883004    
    608000   700.56845     -5455741.2      197.2361       197.2361       197.2361      -24.078668    
    609000   700.4481      -5455699.4      197.2361       197.2361       197.2361      -138.03361    
    610000   700.01183     -5455611.6      197.2361       197.2361       197.2361      -88.082915    
    611000   701.2349      -5455637.5      197.2361       197.2361       197.2361      -72.146636    
    612000   699.00083     -5455831.6      197.2361       197.2361       197.2361      -185.5035     
    613000   699.20986     -5455781.2      197.2361       197.2361       197.2361      -61.02975     
    614000   700.33328     -5455689.3      197.2361       197.2361       197.2361      -97.035365    
    615000   699.38204     -5455716.3      197.2361       197.2361       197.2361      -143.0809     
    616000   701.33656     -5455604.2      197.2361       197.2361       197.2361      -31.304955    
    617000   700.3554      -5455684.2      197.2361       197.2361       197.2361       20.876164    
    618000   699.70352     -5455833.3      197.2361       197.2361       197.2361      -130.57072    
    619000   700.09236     -5455761.7      197.2361       197.2361       197.2361      -37.198011    
    620000   700.51776     -5455767.2      197.2361       197.2361       197.2361      -57.546541    
    621000   700.86761     -5455668.9      197.2361       197.2361       197.2361      -153.12096    
    622000   699.68014     -5455699.3      197.2361       197.2361       197.2361      -162.96492    
    623000   700.33323     -5455674.3      197.2361       197.2361       197.2361      -106.76912    
    624000   700.90847     -5455680.4      197.2361       197.2361       197.2361      -42.90192     
    625000   699.80644     -5455685.6      197.2361       197.2361       197.2361      -102.09773    
    626000   699.67657     -5455743.4      197.2361       197.2361       197.2361      -136.1563     
    627000   701.8345      -5455604        197.2361       197.2361       197.2361      -77.604589    
    628000   699.81123     -5455733.1      197.2361       197.2361       197.2361      -223.58744    
    629000   701.49574     -5455594.8      197.2361       197.2361       197.2361      -152.22132    
    630000   700.45972     -5455704.7      197.2361       197.2361       197.2361      -146.12651    
    631000   700.31685     -5455778.1      197.2361       197.2361       197.2361      -98.39837     
    632000   700.14711     -5455746.2      197.2361       197.2361       197.2361      -50.141656    
    633000   698.59595     -5455701.7      197.2361       197.2361       197.2361      -125.66936    
    634000   698.57212     -5455747.3      197.2361       197.2361       197.2361       17.177258    
    635000   699.11802     -5455769.3      197.2361       197.2361       197.2361      -102.29525    
    636000   700.93772     -5455595.5      197.2361       197.2361       197.2361       32.413271    
    637000   700.16316     -5455631.3      197.2361       197.2361       197.2361      -131.72038    
    638000   701.39983     -5455644.9      197.2361       197.2361       197.2361       24.099268    
    639000   699.97353     -5455732.3      197.2361       197.2361       197.2361      -31.817897    
    640000   700.20969     -5455672        197.2361       197.2361       197.2361      -93.714303    
    641000   700.62293     -5455657.1      197.2361       197.2361       197.2361      -115.1013     
    642000   699.75995     -5455626.3      197.2361       197.2361       197.2361      -126.56706    
    643000   700.69643     -5455561.5      197.2361       197.2361       197.2361      -277.5722     
    644000   699.04346     -5455792.5      197.2361       197.2361       197.2361      -213.38277    
    645000   701.44802     -5455682.8      197.2361       197.2361       197.2361      -128.6478     
    646000   699.6879      -5455637.3      197.2361       197.2361       197.2361      -144.3317     
    647000   699.82025     -5455698.3      197.2361       197.2361       197.2361      -238.05406    
    648000   700.30643     -5455627.5      197.2361       197.2361       197.2361      -56.22501     
    649000   699.77953     -5455680        197.2361       197.2361       197.2361      -172.60115    
    650000   699.26503     -5455768.3      197.2361       197.2361       197.2361      -277.98454    
    651000   700.44525     -5455670.7      197.2361       197.2361       197.2361      -52.333974    
    652000   700.59494     -5455720.9      197.2361       197.2361       197.2361      -176.99229    
    653000   699.59457     -5455808.8      197.2361       197.2361       197.2361      -124.13109    
    654000   700.23218     -5455793.9      197.2361       197.2361       197.2361      -61.125013    
    655000   700.01106     -5455616.3      197.2361       197.2361       197.2361      -176.74087    
    656000   700.22046     -5455653.6      197.2361       197.2361       197.2361       1.56141      
    657000   699.74593     -5455645.6      197.2361       197.2361       197.2361      -153.49406    
    658000   700.31391     -5455810.3      197.2361       197.2361       197.2361      -114.9746     
    659000   699.60139     -5455771.2      197.2361       197.2361       197.2361      -225.92201    
    660000   701.02441     -5455703.5      197.2361       197.2361       197.2361      -168.08801    
    661000   701.06204     -5455737.6      197.2361       197.2361       197.2361      -205.75005    
    662000   700.39005     -5455564.7      197.2361       197.2361       197.2361      -73.512498    
    663000   699.87648     -5455656.2      197.2361       197.2361       197.2361      -183.36619    
    664000   699.32105     -5455702.4      197.2361       197.2361       197.2361      -271.60552    
    665000   699.59428     -5455715.5      197.2361       197.2361       197.2361      -141.5437     
    666000   699.65634     -5455701.3      197.2361       197.2361       197.2361      -70.639558    
    667000   700.57629     -5455792.4      197.2361       197.2361       197.2361      -295.80948    
    668000   700.8504      -5455597.3      197.2361       197.2361       197.2361      -267.2592     
    669000   699.77629     -5455675.8      197.2361       197.2361       197.2361      -282.08826    
    670000   700.75201     -5455596.3      197.2361       197.2361       197.2361      -69.628432    
    671000   699.78839     -5455733.2      197.2361       197.2361       197.2361      -52.565234    
    672000   699.85264     -5455764.2      197.2361       197.2361       197.2361      -20.56159     
    673000   700.42877     -5455741.2      197.2361       197.2361       197.2361       46.352784    
    674000   700.35411     -5455784.5      197.2361       197.2361       197.2361      -28.530387    
    675000   700.52005     -5455668.2      197.2361       197.2361       197.2361      -69.623208    
    676000   700.36964     -5455655        197.2361       197.2361       197.2361      -211.1461     
    677000   700.73741     -5455691.2      197.2361       197.2361       197.2361      -91.754528    
    678000   698.64579     -5455797.6      197.2361       197.2361       197.2361      -97.721116    
    679000   700.15521     -5455779.6      197.2361       197.2361       197.2361      -143.57758    
    680000   698.72565     -5455794.6      197.2361       197.2361       197.2361       58.724331    
    681000   698.72957     -5455804.1      197.2361       197.2361       197.2361      -223.65186    
    682000   699.26721     -5455741.6      197.2361       197.2361       197.2361      -215.2401     
    683000   699.63747     -5455751.9      197.2361       197.2361       197.2361      -130.44112    
    684000   700.54387     -5455670.1      197.2361       197.2361       197.2361      -139.86711    
    685000   700.06549     -5455718.3      197.2361       197.2361       197.2361      -178.50492    
    686000   699.96859     -5455726.6      197.2361       197.2361       197.2361      -262.73353    
    687000   701.10081     -5455574.3      197.2361       197.2361       197.2361      -188.75498    
    688000   700.36265     -5455726.6      197.2361       197.2361       197.2361      -122.13095    
    689000   699.48678     -5455750.7      197.2361       197.2361       197.2361      -211.43903    
    690000   700.40583     -5455629.4      197.2361       197.2361       197.2361      -132.18186    
    691000   700.56313     -5455720.4      197.2361       197.2361       197.2361      -99.074662    
    692000   700.00702     -5455674.4      197.2361       197.2361       197.2361      -8.6919762    
    693000   699.83594     -5455731.3      197.2361       197.2361       197.2361      -145.38552    
    694000   701.11017     -5455653.4      197.2361       197.2361       197.2361      -325.44422    
    695000   698.53538     -5455835.8      197.2361       197.2361       197.2361      -229.45917    
    696000   699.36323     -5455711.1      197.2361       197.2361       197.2361      -98.125574    
    697000   700.01253     -5455790.3      197.2361       197.2361       197.2361      -275.61869    
    698000   699.89102     -5455728.5      197.2361       197.2361       197.2361      -106.47121    
    699000   699.54892     -5455769        197.2361       197.2361       197.2361      -89.476455    
    700000   699.67011     -5455680.8      197.2361       197.2361       197.2361      -244.03297    
    701000   698.4585      -5455793.9      197.2361       197.2361       197.2361      -185.40155    
    702000   701.11142     -5455658.1      197.2361       197.2361       197.2361      -20.993377    
    703000   700.76974     -5455703.3      197.2361       197.2361       197.2361       5.2783747    
    704000   699.21187     -5455799.2      197.2361       197.2361       197.2361      -35.232867    
    705000   700.59103     -5455705.9      197.2361       197.2361       197.2361       138.43774    
    706000   699.31963     -5455813        197.2361       197.2361       197.2361      -166.08939    
    707000   700.28839     -5455666.2      197.2361       197.2361       197.2361      -40.558553    
    708000   700.33688     -5455723.9      197.2361       197.2361       197.2361       74.898497    
    709000   700.8459      -5455699.7      197.2361       197.2361       197.2361       10.994005    
    710000   700.37922     -5455670.1      197.2361       197.2361       197.2361      -3.2204525    
    711000   700.11283     -5455648.9      197.2361       197.2361       197.2361      -177.98896    
    712000   700.28881     -5455699.5      197.2361       197.2361       197.2361      -61.381882    
    713000   700.42869     -5455751.5      197.2361       197.2361       197.2361      -69.024462    
    714000   700.24689     -5455809.9      197.2361       197.2361       197.2361      -218.28022    
    715000   701.40786     -5455631.5      197.2361       197.2361       197.2361      -86.06134     
    716000   700.69546     -5455690.5      197.2361       197.2361       197.2361      -145.04552    
    717000   698.9168      -5455887        197.2361       197.2361       197.2361      -259.63279    
    718000   700.24298     -5455701.1      197.2361       197.2361       197.2361      -78.236031    
    719000   701.1675      -5455611.6      197.2361       197.2361       197.2361      -86.333599    
    720000   700.67301     -5455669.3      197.2361       197.2361       197.2361      -21.863307    
    721000   701.44861     -5455678.3      197.2361       197.2361       197.2361      -87.076195    
    722000   700.50583     -5455760.1      197.2361       197.2361       197.2361      -132.49733    
    723000   701.47633     -5455606.3      197.2361       197.2361       197.2361      -90.297652    
    724000   700.55196     -5455693.1      197.2361       197.2361       197.2361      -8.7131677    
    725000   701.11695     -5455661.8      197.2361       197.2361       197.2361       31.740444    
    726000   701.58374     -5455636.2      197.2361       197.2361       197.2361      -142.97599    
    727000   701.69893     -5455601.5      197.2361       197.2361       197.2361      -12.695947    
    728000   700.00075     -5455657.8      197.2361       197.2361       197.2361      -138.68858    
    729000   699.61774     -5455786.6      197.2361       197.2361       197.2361      -4.6426824    
    730000   698.8746      -5455806.3      197.2361       197.2361       197.2361      -125.08178    
    731000   700.463       -5455673.3      197.2361       197.2361       197.2361      -69.261664    
    732000   700.41495     -5455727.9      197.2361       197.2361       197.2361      -292.07738    
    733000   699.71055     -5455713.9      197.2361       197.2361       197.2361      -169.92605    
    734000   698.86894     -5455861.2      197.2361       197.2361       197.2361      -288.51917    
    735000   699.32874     -5455821.4      197.2361       197.2361       197.2361      -216.53966    
    736000   700.14846     -5455713.4      197.2361       197.2361       197.2361      -39.124439    
    737000   698.93933     -5455736.2      197.2361       197.2361       197.2361       87.239888    
    738000   699.89863     -5455737.9      197.2361       197.2361       197.2361      -186.97572    
    739000   699.59277     -5455682.2      197.2361       197.2361       197.2361      -47.297827    
    740000   701.15971     -5455641.1      197.2361       197.2361       197.2361      -80.036247    
    741000   700.60782     -5455664.5      197.2361       197.2361       197.2361      -225.18641    
    742000   700.29274     -5455704.4      197.2361       197.2361       197.2361      -179.5934     
    743000   698.36759     -5455801.5      197.2361       197.2361       197.2361      -118.73776    
    744000   699.68914     -5455707.2      197.2361       197.2361       197.2361      -32.504601    
    745000   702.14821     -5455641.5      197.2361       197.2361       197.2361      -205.78041    
    746000   700.12792     -5455761.1      197.2361       197.2361       197.2361      -140.04979    
    747000   700.46773     -5455778.9      197.2361       197.2361       197.2361      -64.794995    
    748000   700.26598     -5455715.2      197.2361       197.2361       197.2361      -14.935476    
    749000   700.39376     -5455729.8      197.2361       197.2361       197.2361      -85.534449    
    750000   700.34168     -5455657.8      197.2361       197.2361       197.2361      -136.06928    
    751000   700.31        -5455712.9      197.2361       197.2361       197.2361      -273.74231    
    752000   700.56731     -5455792.8      197.2361       197.2361       197.2361      -286.95277    
    753000   699.83018     -5455775.5      197.2361       197.2361       197.2361      -257.57444    
    754000   699.42659     -5455755        197.2361       197.2361       197.2361      -124.04757    
    755000   700.50801     -5455705.8      197.2361       197.2361       197.2361      -35.01049     
    756000   700.42051     -5455683.7      197.2361       197.2361       197.2361      -132.62172    
    757000   700.23348     -5455703.2      197.2361       197.2361       197.2361      -86.693552    
    758000   699.00646     -5455745.9      197.2361       197.2361       197.2361      -217.94787    
    759000   699.93245     -5455705.1      197.2361       197.2361       197.2361      -122.92276    
    760000   700.34773     -5455705.5      197.2361       197.2361       197.2361      -20.162735    
    761000   700.13386     -5455674.2      197.2361       197.2361       197.2361      -303.20618    
    762000   699.07725     -5455852.7      197.2361       197.2361       197.2361      -242.02335    
    763000   699.93819     -5455711.1      197.2361       197.2361       197.2361      -204.95216    
    764000   700.06091     -5455672.9      197.2361       197.2361       197.2361      -114.72019    
    765000   700.86827     -5455606.2      197.2361       197.2361       197.2361       14.390181    
    766000   699.68274     -5455798.2      197.2361       197.2361       197.2361      -273.73594    
    767000   700.38833     -5455721.9      197.2361       197.2361       197.2361      -164.52053    
    768000   700.72411     -5455729.6      197.2361       197.2361       197.2361      -173.64926    
    769000   700.38304     -5455696.8      197.2361       197.2361       197.2361      -215.03851    
    770000   699.28395     -5455847.9      197.2361       197.2361       197.2361      -148.65588    
    771000   698.80659     -5455743.7      197.2361       197.2361       197.2361      -155.96595    
    772000   699.33162     -5455821.7      197.2361       197.2361       197.2361      -130.64678    
    773000   700.79222     -5455742.7      197.2361       197.2361       197.2361      -187.5247     
    774000   700.44145     -5455738.1      197.2361       197.2361       197.2361      -223.0921     
    775000   699.96177     -5455653.7      197.2361       197.2361       197.2361      -25.857835    
    776000   700.46047     -5455688.4      197.2361       197.2361       197.2361      -156.96186    
    777000   699.10214     -5455813.7      197.2361       197.2361       197.2361      -298.26214    
    778000   701.09369     -5455697.2      197.2361       197.2361       197.2361      -47.019323    
    779000   699.83642     -5455786.8      197.2361       197.2361       197.2361      -148.48931    
    780000   700.51975     -5455753        197.2361       197.2361       197.2361      -225.56503    
    781000   701.49682     -5455655.6      197.2361       197.2361       197.2361      -91.509467    
    782000   700.61682     -5455751.4      197.2361       197.2361       197.2361      -183.45049    
    783000   700.20772     -5455727.1      197.2361       197.2361       197.2361      -118.1361     
    784000   700.66812     -5455713.1      197.2361       197.2361       197.2361      -40.148655    
    785000   698.59641     -5455825.1      197.2361       197.2361       197.2361      -273.24284    
    786000   700.26321     -5455746.9      197.2361       197.2361       197.2361      -230.6485     
    787000   700.6541      -5455757.1      197.2361       197.2361       197.2361      -68.738527    
    788000   699.89001     -5455680.1      197.2361       197.2361       197.2361      -72.039854    
    789000   700.67173     -5455723.7      197.2361       197.2361       197.2361      -61.170966    
    790000   699.62761     -5455726.9      197.2361       197.2361       197.2361      -204.90215    
    791000   700.04734     -5455796.5      197.2361       197.2361       197.2361      -234.85282    
    792000   700.2528      -5455679.5      197.2361       197.2361       197.2361      -240.01073    
    793000   699.12252     -5455798.4      197.2361       197.2361       197.2361      -124.23743    
    794000   700.07831     -5455693.1      197.2361       197.2361       197.2361      -139.0484     
    795000   699.91201     -5455772.2      197.2361       197.2361       197.2361      -290.81316    
    796000   700.71974     -5455764.4      197.2361       197.2361       197.2361      -155.60055    
    797000   699.12794     -5455842        197.2361       197.2361       197.2361      -211.17655    
    798000   700.28231     -5455674.6      197.2361       197.2361       197.2361      -58.469613    
    799000   700.25217     -5455761        197.2361       197.2361       197.2361      -159.8402     
    800000   700.97507     -5455705.5      197.2361       197.2361       197.2361      -162.79158    
    801000   700.48497     -5455716.3      197.2361       197.2361       197.2361      -165.68088    
    802000   700.47485     -5455671.5      197.2361       197.2361       197.2361      -154.95647    
    803000   700.30145     -5455727.9      197.2361       197.2361       197.2361       1.5695786    
    804000   700.67357     -5455613.4      197.2361       197.2361       197.2361      -119.50397    
    805000   700.5676      -5455790.4      197.2361       197.2361       197.2361      -110.42145    
    806000   700.4009      -5455703.8      197.2361       197.2361       197.2361      -158.47025    
    807000   698.45671     -5455889.9      197.2361       197.2361       197.2361      -154.86122    
    808000   701.88891     -5455693.2      197.2361       197.2361       197.2361      -171.63933    
    809000   700.53988     -5455650.7      197.2361       197.2361       197.2361      -66.321706    
    810000   699.06545     -5455659.6      197.2361       197.2361       197.2361      -134.27244    
    811000   700.46008     -5455780.3      197.2361       197.2361       197.2361      -106.13062    
    812000   701.20664     -5455715.7      197.2361       197.2361       197.2361      -149.68545    
    813000   699.09667     -5455778.3      197.2361       197.2361       197.2361      -87.313441    
    814000   698.3223      -5455775.9      197.2361       197.2361       197.2361      -223.80944    
    815000   700.37716     -5455774.5      197.2361       197.2361       197.2361      -241.79477    
    816000   699.60593     -5455822.5      197.2361       197.2361       197.2361      -271.35775    
    817000   700.99944     -5455653.2      197.2361       197.2361       197.2361      -164.43302    
    818000   700.68429     -5455692.1      197.2361       197.2361       197.2361      -170.18914    
    819000   700.90166     -5455682.5      197.2361       197.2361       197.2361      -252.41647    
    820000   700.75176     -5455717.6      197.2361       197.2361       197.2361      -133.12381    
    821000   697.80804     -5455821.3      197.2361       197.2361       197.2361      -140.65268    
    822000   700.36877     -5455630.3      197.2361       197.2361       197.2361      -34.083649    
    823000   700.34305     -5455745.1      197.2361       197.2361       197.2361      -138.51149    
    824000   698.96905     -5455794        197.2361       197.2361       197.2361      -181.50463    
    825000   700.19118     -5455766.7      197.2361       197.2361       197.2361      -189.3596     
    826000   700.54652     -5455693.9      197.2361       197.2361       197.2361      -252.26309    
    827000   700.48391     -5455799        197.2361       197.2361       197.2361      -255.00456    
    828000   700.96046     -5455644.6      197.2361       197.2361       197.2361      -67.387297    
    829000   698.62223     -5455783.3      197.2361       197.2361       197.2361      -147.28413    
    830000   699.33306     -5455732.7      197.2361       197.2361       197.2361      -166.73191    
    831000   700.64377     -5455652.4      197.2361       197.2361       197.2361      -196.93073    
    832000   700.12907     -5455700.3      197.2361       197.2361       197.2361      -96.728639    
    833000   700.74564     -5455723        197.2361       197.2361       197.2361      -197.05582    
    834000   700.33811     -5455703.3      197.2361       197.2361       197.2361      -271.56678    
    835000   699.33846     -5455758.5      197.2361       197.2361       197.2361      -145.70088    
    836000   700.73733     -5455722.1      197.2361       197.2361       197.2361      -87.579659    
    837000   699.4712      -5455688        197.2361       197.2361       197.2361      -123.08289    
    838000   701.00666     -5455621.8      197.2361       197.2361       197.2361      -94.37244     
    839000   699.90721     -5455665.7      197.2361       197.2361       197.2361      -67.292968    
    840000   700.25897     -5455665.8      197.2361       197.2361       197.2361      -226.94819    
    841000   699.5177      -5455690.3      197.2361       197.2361       197.2361      -23.912605    
    842000   700.47236     -5455722.5      197.2361       197.2361       197.2361      -204.88561    
    843000   700.2971      -5455678.5      197.2361       197.2361       197.2361      -136.92831    
    844000   699.72276     -5455815.9      197.2361       197.2361       197.2361      -13.339552    
    845000   699.81903     -5455700        197.2361       197.2361       197.2361      -136.32156    
    846000   701.31155     -5455645.3      197.2361       197.2361       197.2361      -339.31552    
    847000   698.877       -5455776.3      197.2361       197.2361       197.2361      -131.38888    
    848000   700.71945     -5455624.1      197.2361       197.2361       197.2361      -118.60763    
    849000   699.65943     -5455745.1      197.2361       197.2361       197.2361      -188.89235    
    850000   699.49606     -5455834.2      197.2361       197.2361       197.2361      -211.15768    
    851000   699.43743     -5455757        197.2361       197.2361       197.2361      -80.747066    
    852000   699.33817     -5455819.3      197.2361       197.2361       197.2361      -54.230486    
    853000   699.83568     -5455727        197.2361       197.2361       197.2361      -28.850905    
    854000   700.75629     -5455681.8      197.2361       197.2361       197.2361      -114.55736    
    855000   700.78074     -5455775.7      197.2361       197.2361       197.2361      -180.24359    
    856000   700.55758     -5455779.2      197.2361       197.2361       197.2361      -279.67525    
    857000   699.38725     -5455767.2      197.2361       197.2361       197.2361      -98.567537    
    858000   699.77843     -5455727.2      197.2361       197.2361       197.2361      -191.99786    
    859000   699.51516     -5455848.1      197.2361       197.2361       197.2361      -243.83377    
    860000   699.51359     -5455788.1      197.2361       197.2361       197.2361      -216.35853    
    861000   700.09196     -5455822.2      197.2361       197.2361       197.2361      -103.16079    
    862000   699.51255     -5455753.7      197.2361       197.2361       197.2361      -202.43649    
    863000   699.63378     -5455761.5      197.2361       197.2361       197.2361      -261.83877    
    864000   699.22628     -5455858.9      197.2361       197.2361       197.2361      -218.6238     
    865000   698.08034     -5455789.5      197.2361       197.2361       197.2361      -220.58289    
    866000   698.14531     -5455886.4      197.2361       197.2361       197.2361      -154.54803    
    867000   701.23763     -5455742.2      197.2361       197.2361       197.2361      -334.06132    
    868000   698.79546     -5455737.4      197.2361       197.2361       197.2361      -137.29439    
    869000   699.20173     -5455762.9      197.2361       197.2361       197.2361      -169.75443    
    870000   700.12212     -5455680.1      197.2361       197.2361       197.2361      -210.91541    
    871000   699.98829     -5455672.4      197.2361       197.2361       197.2361      -139.92048    
    872000   700.60184     -5455689.7      197.2361       197.2361       197.2361      -161.47554    
    873000   699.65459     -5455809.4      197.2361       197.2361       197.2361      -262.95126    
    874000   698.58239     -5455803        197.2361       197.2361       197.2361      -274.41158    
    875000   699.58557     -5455733        197.2361       197.2361       197.2361      -203.76258    
    876000   699.26535     -5455780.6      197.2361       197.2361       197.2361      -121.78749    
    877000   699.95449     -5455777.3      197.2361       197.2361       197.2361      -145.73203    
    878000   699.88965     -5455743.7      197.2361       197.2361       197.2361      -237.28161    
    879000   699.82263     -5455715.2      197.2361       197.2361       197.2361      -216.524      
    880000   699.08115     -5455827        197.2361       197.2361       197.2361      -327.91455    
    881000   699.16275     -5455728.2      197.2361       197.2361       197.2361      -169.11899    
    882000   700.43798     -5455776.7      197.2361       197.2361       197.2361      -420.48482    
    883000   699.73183     -5455819        197.2361       197.2361       197.2361      -207.59262    
    884000   701.67641     -5455682.5      197.2361       197.2361       197.2361      -198.37842    
    885000   700.19427     -5455698.3      197.2361       197.2361       197.2361      -471.29758    
    886000   700.12852     -5455689        197.2361       197.2361       197.2361      -228.15305    
    887000   700.50601     -5455678.8      197.2361       197.2361       197.2361      -127.51088    
    888000   701.01928     -5455673.5      197.2361       197.2361       197.2361      -86.081795    
    889000   700.95119     -5455688.1      197.2361       197.2361       197.2361      -91.810058    
    890000   700.10559     -5455774.3      197.2361       197.2361       197.2361      -210.03709    
    891000   699.87471     -5455798.6      197.2361       197.2361       197.2361      -149.30724    
    892000   700.21752     -5455735        197.2361       197.2361       197.2361      -30.20797     
    893000   699.39531     -5455783.1      197.2361       197.2361       197.2361      -241.41984    
    894000   699.9772      -5455705.6      197.2361       197.2361       197.2361      -48.548105    
    895000   701.25186     -5455720.7      197.2361       197.2361       197.2361       15.932602    
    896000   700.15431     -5455735.9      197.2361       197.2361       197.2361      -219.67123    
    897000   700.05306     -5455782.1      197.2361       197.2361       197.2361      -43.954487    
    898000   697.95529     -5455793.6      197.2361       197.2361       197.2361      -119.5778     
    899000   699.24095     -5455780        197.2361       197.2361       197.2361      -284.58423    
    900000   700.50902     -5455676        197.2361       197.2361       197.2361      -162.24155    
    901000   699.81453     -5455719.1      197.2361       197.2361       197.2361      -63.239676    
    902000   698.5781      -5455664.3      197.2361       197.2361       197.2361      -59.232635    
    903000   700.7439      -5455767.3      197.2361       197.2361       197.2361      -179.08436    
    904000   698.93524     -5455815.9      197.2361       197.2361       197.2361      -65.392941    
    905000   699.02676     -5455742.6      197.2361       197.2361       197.2361      -45.983029    
    906000   699.19761     -5455771.6      197.2361       197.2361       197.2361      -247.696      
    907000   701.10286     -5455574.7      197.2361       197.2361       197.2361      -92.114131    
    908000   700.25103     -5455709.7      197.2361       197.2361       197.2361      -160.8336     
    909000   700.88008     -5455621.1      197.2361       197.2361       197.2361      -167.61605    
    910000   700.61375     -5455673.7      197.2361       197.2361       197.2361      -248.7993     
    911000   698.45856     -5455778.3      197.2361       197.2361       197.2361      -194.4096     
    912000   699.55211     -5455831        197.2361       197.2361       197.2361      -212.38697    
    913000   698.80036     -5455801.2      197.2361       197.2361       197.2361      -125.28004    
    914000   700.25531     -5455681.7      197.2361       197.2361       197.2361      -194.62137    
    915000   700.61943     -5455724.2      197.2361       197.2361       197.2361      -259.93221    
    916000   699.70368     -5455805        197.2361       197.2361       197.2361      -196.14689    
    917000   701.73841     -5455650.9      197.2361       197.2361       197.2361      -216.93514    
    918000   700.13297     -5455704.3      197.2361       197.2361       197.2361      -194.18182    
    919000   700.03876     -5455815.1      197.2361       197.2361       197.2361      -184.17842    
    920000   700.12588     -5455756.1      197.2361       197.2361       197.2361      -180.70754    
    921000   700.61233     -5455816.9      197.2361       197.2361       197.2361      -52.474876    
    922000   700.53718     -5455754        197.2361       197.2361       197.2361      -189.08741    
    923000   700.45947     -5455727.1      197.2361       197.2361       197.2361      -163.83497    
    924000   699.03304     -5455809.5      197.2361       197.2361       197.2361      -111.52298    
    925000   700.20467     -5455778.5      197.2361       197.2361       197.2361      -69.110868    
    926000   699.4832      -5455822        197.2361       197.2361       197.2361      -165.77921    
    927000   700.29016     -5455824.1      197.2361       197.2361       197.2361      -207.17802    
    928000   699.97566     -5455758.7      197.2361       197.2361       197.2361      -131.66968    
    929000   699.69735     -5455821.4      197.2361       197.2361       197.2361       26.183747    
    930000   698.58409     -5455873.5      197.2361       197.2361       197.2361       15.532128    
    931000   700.44849     -5455743.1      197.2361       197.2361       197.2361      -32.46434     
    932000   700.07955     -5455718.5      197.2361       197.2361       197.2361      -23.529932    
    933000   699.79286     -5455800        197.2361       197.2361       197.2361      -204.84601    
    934000   700.32562     -5455691.5      197.2361       197.2361       197.2361      -160.42066    
    935000   700.75161     -5455671.9      197.2361       197.2361       197.2361      -173.93915    
    936000   699.3922      -5455750.2      197.2361       197.2361       197.2361      -183.59682    
    937000   700.58245     -5455612.4      197.2361       197.2361       197.2361      -124.41079    
    938000   699.94734     -5455811.8      197.2361       197.2361       197.2361      -213.7046     
    939000   700.31291     -5455739.4      197.2361       197.2361       197.2361      -44.863683    
    940000   700.24086     -5455825.3      197.2361       197.2361       197.2361      -264.95904    
    941000   699.49811     -5455814.1      197.2361       197.2361       197.2361      -220.12008    
    942000   698.99349     -5455734        197.2361       197.2361       197.2361      -186.54242    
    943000   699.43579     -5455793.4      197.2361       197.2361       197.2361      -165.70626    
    944000   700.71937     -5455752.5      197.2361       197.2361       197.2361      -80.339       
    945000   700.58913     -5455632.1      197.2361       197.2361       197.2361      -216.33045    
    946000   698.94646     -5455829.7      197.2361       197.2361       197.2361      -153.96297    
    947000   700.37884     -5455670.3      197.2361       197.2361       197.2361      -147.6832     
    948000   699.93301     -5455678.4      197.2361       197.2361       197.2361      -182.13003    
    949000   700.46158     -5455762.9      197.2361       197.2361       197.2361      -118.54773    
    950000   700.75164     -5455673.5      197.2361       197.2361       197.2361      -53.596616    
    951000   699.35308     -5455818        197.2361       197.2361       197.2361      -149.58422    
    952000   700.74185     -5455666        197.2361       197.2361       197.2361      -136.17701    
    953000   700.14186     -5455851.5      197.2361       197.2361       197.2361      -67.722079    
    954000   700.86256     -5455712.4      197.2361       197.2361       197.2361      -38.90061     
    955000   700.66991     -5455665.5      197.2361       197.2361       197.2361      -67.619273    
    956000   699.95362     -5455787.6      197.2361       197.2361       197.2361      -290.18352    
    957000   699.8696      -5455769.7      197.2361       197.2361       197.2361      -122.42734    
    958000   699.89618     -5455761.8      197.2361       197.2361       197.2361      -185.03027    
    959000   701.28999     -5455691.7      197.2361       197.2361       197.2361      -236.17942    
    960000   701.42621     -5455733.9      197.2361       197.2361       197.2361      -103.83306    
    961000   698.8335      -5455887.4      197.2361       197.2361       197.2361      -212.0336     
    962000   698.98928     -5455830.1      197.2361       197.2361       197.2361      -132.6631     
    963000   699.72663     -5455731.1      197.2361       197.2361       197.2361      -120.45206    
    964000   700.20178     -5455752.9      197.2361       197.2361       197.2361      -244.30567    
    965000   700.13733     -5455769        197.2361       197.2361       197.2361      -208.26369    
    966000   702.00815     -5455596.6      197.2361       197.2361       197.2361      -208.28362    
    967000   699.69024     -5455691.2      197.2361       197.2361       197.2361      -140.59502    
    968000   699.12428     -5455843.5      197.2361       197.2361       197.2361      -111.67014    
    969000   700.87865     -5455702.8      197.2361       197.2361       197.2361      -114.33754    
    970000   700.59262     -5455692.3      197.2361       197.2361       197.2361       29.46241     
    971000   699.95707     -5455773.3      197.2361       197.2361       197.2361      -194.57401    
    972000   700.16177     -5455730.9      197.2361       197.2361       197.2361      -136.36842    
    973000   700.4179      -5455730.1      197.2361       197.2361       197.2361      -208.24398    
    974000   701.09642     -5455708.4      197.2361       197.2361       197.2361      -142.67542    
    975000   699.94679     -5455810.7      197.2361       197.2361       197.2361       0.31529432   
    976000   700.31719     -5455781.3      197.2361       197.2361       197.2361      -171.45126    
    977000   699.96677     -5455737        197.2361       197.2361       197.2361       38.470252    
    978000   700.81488     -5455768.4      197.2361       197.2361       197.2361      -208.70827    
    979000   699.35041     -5455819.8      197.2361       197.2361       197.2361      -137.96121    
    980000   700.16365     -5455855.7      197.2361       197.2361       197.2361      -58.326113    
    981000   699.33887     -5455834.9      197.2361       197.2361       197.2361      -120.525      
    982000   699.14486     -5455666.3      197.2361       197.2361       197.2361      -85.709838    
    983000   700.02234     -5455694.4      197.2361       197.2361       197.2361      -98.641442    
    984000   699.68084     -5455770.6      197.2361       197.2361       197.2361      -21.952692    
    985000   699.68648     -5455774.7      197.2361       197.2361       197.2361      -195.86351    
    986000   699.45405     -5455894.3      197.2361       197.2361       197.2361      -233.1831     
    987000   699.70898     -5455760.2      197.2361       197.2361       197.2361      -105.53904    
    988000   700.97243     -5455717.1      197.2361       197.2361       197.2361      -192.25576    
    989000   699.9185      -5455839.6      197.2361       197.2361       197.2361       2.2790229    
    990000   701.42276     -5455730.1      197.2361       197.2361       197.2361      -160.99895    
    991000   700.17896     -5455674        197.2361       197.2361       197.2361      -101.06045    
    992000   700.7652      -5455677.3      197.2361       197.2361       197.2361      -34.555754    
    993000   700.35448     -5455781.2      197.2361       197.2361       197.2361      -143.70258    
    994000   698.80397     -5455813.3      197.2361       197.2361       197.2361      -268.31238    
    995000   698.63562     -5455799.3      197.2361       197.2361       197.2361      -168.41218    
    996000   699.53996     -5455837.8      197.2361       197.2361       197.2361      -291.937      
    997000   700.6792      -5455687.9      197.2361       197.2361       197.2361      -120.87584    
    998000   699.98387     -5455708.2      197.2361       197.2361       197.2361      -36.253549    
    999000   699.86191     -5455804.8      197.2361       197.2361       197.2361      -164.27271    
   1000000   699.2802      -5455759.1      197.2361       197.2361       197.2361      -183.30545    
   1001000   700.0823      -5455821.4      197.2361       197.2361       197.2361      -55.278578    
   1002000   698.79819     -5455840.2      197.2361       197.2361       197.2361      -176.07285    
   1003000   699.32187     -5455724.7      197.2361       197.2361       197.2361      -386.32162    
   1004000   699.86551     -5455725.9      197.2361       197.2361       197.2361      -227.9522     
   1005000   699.00514     -5455874.1      197.2361       197.2361       197.2361      -143.47356    
   1006000   700.71035     -5455769.6      197.2361       197.2361       197.2361      -91.128172    
   1007000   700.08717     -5455795.2      197.2361       197.2361       197.2361      -176.55553    
   1008000   699.85845     -5455774        197.2361       197.2361       197.2361      -42.480912    
   1009000   700.91445     -5455692.6      197.2361       197.2361       197.2361      -192.84132    
   1010000   699.52795     -5455696.8      197.2361       197.2361       197.2361       3.611944     
   1011000   698.72955     -5455842.4      197.2361       197.2361       197.2361      -147.98819    
   1012000   700.39266     -5455777.9      197.2361       197.2361       197.2361      -222.56053    
   1013000   699.86029     -5455739.9      197.2361       197.2361       197.2361      -155.71823    
   1014000   700.43195     -5455765.8      197.2361       197.2361       197.2361      -229.22451    
   1015000   700.53815     -5455741.3      197.2361       197.2361       197.2361      -129.30485    
   1016000   698.79327     -5455915.3      197.2361       197.2361       197.2361      -157.39117    
   1017000   700.75295     -5455673.8      197.2361       197.2361       197.2361      -57.887714    
   1018000   700.94749     -5455703.1      197.2361       197.2361       197.2361      -129.64579    
   1019000   699.07008     -5455827.3      197.2361       197.2361       197.2361      -33.372476    
   1020000   700.48989     -5455695.5      197.2361       197.2361       197.2361      -112.21042    
   1021000   700.50807     -5455787.4      197.2361       197.2361       197.2361      -103.34682    
   1022000   699.51631     -5455832.7      197.2361       197.2361       197.2361      -133.80059    
   1023000   700.44087     -5455691.2      197.2361       197.2361       197.2361      -259.55277    
   1024000   700.03543     -5455809.7      197.2361       197.2361       197.2361      -318.14049    
   1025000   701.28746     -5455659        197.2361       197.2361       197.2361      -126.85451    
   1026000   699.33298     -5455801.7      197.2361       197.2361       197.2361      -234.35042    
   1027000   699.54548     -5455783.5      197.2361       197.2361       197.2361      -316.54757    
   1028000   700.69101     -5455678.1      197.2361       197.2361       197.2361      -350.44882    
   1029000   701.03179     -5455627.7      197.2361       197.2361       197.2361      -116.99262    
   1030000   700.06252     -5455691.3      197.2361       197.2361       197.2361      -190.50642    
   1031000   700.24698     -5455855.3      197.2361       197.2361       197.2361      -249.74394    
   1032000   700.89321     -5455716.5      197.2361       197.2361       197.2361      -239.03783    
   1033000   700.10244     -5455775.8      197.2361       197.2361       197.2361      -244.10865    
   1034000   698.41835     -5455886        197.2361       197.2361       197.2361      -171.90986    
   1035000   700.69285     -5455769.7      197.2361       197.2361       197.2361      -224.51743    
   1036000   700.08692     -5455805.2      197.2361       197.2361       197.2361      -68.475496    
   1037000   699.67649     -5455746.7      197.2361       197.2361       197.2361      -27.976436    
   1038000   699.52957     -5455875.1      197.2361       197.2361       197.2361      -46.717346    
   1039000   700.85786     -5455777.2      197.2361       197.2361       197.2361      -86.894297    
   1040000   700.68155     -5455755.6      197.2361       197.2361       197.2361      -61.094741    
   1041000   698.88926     -5455845.2      197.2361       197.2361       197.2361      -149.0079     
   1042000   699.88017     -5455779        197.2361       197.2361       197.2361      -98.025172    
   1043000   700.09345     -5455774.7      197.2361       197.2361       197.2361      -190.27696    
   1044000   700.34722     -5455739.9      197.2361       197.2361       197.2361      -144.64938    
   1045000   700.47119     -5455711.8      197.2361       197.2361       197.2361      -240.43898    
   1046000   699.97485     -5455658.3      197.2361       197.2361       197.2361      -44.163349    
   1047000   699.06302     -5455848.7      197.2361       197.2361       197.2361      -152.74345    
   1048000   701.11532     -5455735.8      197.2361       197.2361       197.2361      -346.18005    
   1049000   700.54962     -5455697.8      197.2361       197.2361       197.2361      -124.84206    
   1050000   698.61382     -5455847.4      197.2361       197.2361       197.2361      -287.37648    
   1051000   699.09809     -5455813.4      197.2361       197.2361       197.2361      -155.96591    
   1052000   701.02723     -5455790.6      197.2361       197.2361       197.2361      -50.383085    
   1053000   700.7232      -5455822.6      197.2361       197.2361       197.2361      -277.19557    
   1054000   699.80838     -5455771.5      197.2361       197.2361       197.2361      -156.18861    
   1055000   701.0007      -5455655.9      197.2361       197.2361       197.2361      -85.897106    
   1056000   699.54264     -5455829.2      197.2361       197.2361       197.2361      -171.23519    
   1057000   700.02129     -5455755.8      197.2361       197.2361       197.2361      -185.2585     
   1058000   699.50463     -5455852.7      197.2361       197.2361       197.2361      -35.514839    
   1059000   700.43702     -5455761.4      197.2361       197.2361       197.2361      -105.73877    
   1060000   699.42096     -5455810.9      197.2361       197.2361       197.2361      -128.0717     
   1061000   699.9079      -5455778.5      197.2361       197.2361       197.2361      -25.52052     
   1062000   699.9264      -5455764.5      197.2361       197.2361       197.2361      -278.20541    
   1063000   699.78551     -5455700.5      197.2361       197.2361       197.2361      -72.281593    
   1064000   700.14151     -5455822.2      197.2361       197.2361       197.2361      -133.76039    
   1065000   699.84973     -5455737.2      197.2361       197.2361       197.2361      -215.81691    
   1066000   699.80207     -5455866.1      197.2361       197.2361       197.2361      -209.1882     
   1067000   700.64709     -5455676.6      197.2361       197.2361       197.2361      -51.611609    
   1068000   700.05995     -5455764.9      197.2361       197.2361       197.2361      -166.20078    
   1069000   699.92469     -5455800        197.2361       197.2361       197.2361      -233.0579     
   1070000   700.90589     -5455832.2      197.2361       197.2361       197.2361      -174.4922     
   1071000   701.05999     -5455730.3      197.2361       197.2361       197.2361      -187.31235    
   1072000   700.41203     -5455794.7      197.2361       197.2361       197.2361      -188.69946    
   1073000   699.35749     -5455790.4      197.2361       197.2361       197.2361      -234.70061    
   1074000   701.4025      -5455626.6      197.2361       197.2361       197.2361      -189.40861    
   1075000   700.18493     -5455721.1      197.2361       197.2361       197.2361      -90.474001    
   1076000   699.68274     -5455741.1      197.2361       197.2361       197.2361      -175.66879    
   1077000   698.44801     -5455831.2      197.2361       197.2361       197.2361      -283.11645    
   1078000   699.99239     -5455781.3      197.2361       197.2361       197.2361      -72.688178    
   1079000   700.12334     -5455854.6      197.2361       197.2361       197.2361      -142.61423    
   1080000   700.34043     -5455837.9      197.2361       197.2361       197.2361       10.39042     
   1081000   698.55731     -5455831.4      197.2361       197.2361       197.2361      -44.246887    
   1082000   698.83026     -5455928.5      197.2361       197.2361       197.2361      -88.141985    
   1083000   700.08649     -5455794.8      197.2361       197.2361       197.2361      -203.85542    
   1084000   700.20364     -5455780.6      197.2361       197.2361       197.2361      -125.33334    
   1085000   701.00048     -5455727.2      197.2361       197.2361       197.2361      -68.892024    
   1086000   699.74776     -5455830.1      197.2361       197.2361       197.2361      -120.46519    
   1087000   700.1049      -5455696.9      197.2361       197.2361       197.2361      -84.438793    
   1088000   699.69457     -5455733.8      197.2361       197.2361       197.2361       66.863745    
   1089000   700.35972     -5455710.2      197.2361       197.2361       197.2361       4.8611495    
   1090000   700.2164      -5455825.8      197.2361       197.2361       197.2361      -112.7673     
   1091000   699.9193      -5455665.3      197.2361       197.2361       197.2361      -116.30327    
   1092000   700.08065     -5455786.8      197.2361       197.2361       197.2361      -0.31241867   
   1093000   698.96832     -5455835.3      197.2361       197.2361       197.2361      -135.50013    
   1094000   698.84269     -5455836.4      197.2361       197.2361       197.2361      -235.64026    
   1095000   699.71226     -5455809.3      197.2361       197.2361       197.2361      -250.7717     
   1096000   700.5633      -5455768.9      197.2361       197.2361       197.2361      -230.77432    
   1097000   700.8415      -5455723.6      197.2361       197.2361       197.2361      -214.96206    
   1098000   700.11164     -5455736.5      197.2361       197.2361       197.2361      -44.046037    
   1099000   699.61339     -5455833.4      197.2361       197.2361       197.2361      -30.630413    
   1100000   700.55202     -5455771.3      197.2361       197.2361       197.2361      -156.64777    
   1101000   699.27015     -5455780.4      197.2361       197.2361       197.2361      -227.67321    
   1102000   701.29128     -5455654.1      197.2361       197.2361       197.2361      -194.99608    
   1103000   698.46031     -5455942.4      197.2361       197.2361       197.2361      -160.34071    
   1104000   700.40151     -5455695.1      197.2361       197.2361       197.2361      -255.71261    
   1105000   699.47559     -5455784.3      197.2361       197.2361       197.2361      -223.01939    
   1106000   699.24779     -5455864.3      197.2361       197.2361       197.2361      -224.77822    
   1107000   699.81237     -5455807        197.2361       197.2361       197.2361      -232.9973     
   1108000   700.12504     -5455748.7      197.2361       197.2361       197.2361      -221.06614    
   1109000   699.87782     -5455728.9      197.2361       197.2361       197.2361      -169.31218    
   1110000   698.17923     -5455865.8      197.2361       197.2361       197.2361      -206.58917    
   1111000   701.13784     -5455749        197.2361       197.2361       197.2361      -245.38933    
   1112000   698.23604     -5455805        197.2361       197.2361       197.2361      -201.38772    
   1113000   699.69306     -5455701.1      197.2361       197.2361       197.2361      -125.96916    
   1114000   701.41032     -5455751.2      197.2361       197.2361       197.2361      -106.98508    
   1115000   699.34178     -5455842.1      197.2361       197.2361       197.2361      -45.130038    
   1116000   698.95868     -5455841.6      197.2361       197.2361       197.2361      -194.94445    
   1117000   700.37239     -5455696.3      197.2361       197.2361       197.2361      -246.33781    
   1118000   703.09475     -5455665.6      197.2361       197.2361       197.2361      -190.79208    
   1119000   699.07256     -5455908.4      197.2361       197.2361       197.2361      -137.06711    
   1120000   699.14823     -5455737.1      197.2361       197.2361       197.2361      -194.4735     
   1121000   699.3665      -5455777.1      197.2361       197.2361       197.2361      -185.20977    
   1122000   699.69701     -5455822.7      197.2361       197.2361       197.2361      -211.52689    
   1123000   699.39973     -5455841.9      197.2361       197.2361       197.2361      -224.55051    
   1124000   700.76698     -5455758        197.2361       197.2361       197.2361      -206.66663    
   1125000   700.57763     -5455728.7      197.2361       197.2361       197.2361      -258.75139    
   1126000   699.00831     -5455829.9      197.2361       197.2361       197.2361      -118.361      
   1127000   700.63326     -5455794.7      197.2361       197.2361       197.2361      -76.303249    
   1128000   699.98959     -5455850.5      197.2361       197.2361       197.2361      -183.78105    
   1129000   700.35071     -5455879.9      197.2361       197.2361       197.2361      -212.82772    
   1130000   699.38097     -5455818.4      197.2361       197.2361       197.2361      -65.939022    
   1131000   699.06024     -5455844.5      197.2361       197.2361       197.2361      -174.65592    
   1132000   700.4748      -5455744.4      197.2361       197.2361       197.2361      -124.52592    
   1133000   699.67838     -5455865.2      197.2361       197.2361       197.2361      -172.95726    
   1134000   700.51343     -5455787.4      197.2361       197.2361       197.2361      -107.56155    
   1135000   700.42099     -5455756.3      197.2361       197.2361       197.2361      -57.55268     
   1136000   698.88102     -5455879.7      197.2361       197.2361       197.2361      -246.71063    
   1137000   698.96812     -5455865.3      197.2361       197.2361       197.2361      -213.77338    
   1138000   699.80923     -5455820.9      197.2361       197.2361       197.2361      -55.481539    
   1139000   698.89573     -5455917.1      197.2361       197.2361       197.2361      -282.30292    
   1140000   700.35972     -5455863.8      197.2361       197.2361       197.2361      -185.60275    
   1141000   699.84086     -5455883.5      197.2361       197.2361       197.2361      -128.53883    
   1142000   700.08132     -5455728.6      197.2361       197.2361       197.2361      -117.07918    
   1143000   699.15605     -5455867.2      197.2361       197.2361       197.2361      -282.98458    
   1144000   699.23579     -5455832.7      197.2361       197.2361       197.2361      -136.13557    
   1145000   701.40349     -5455714.3      197.2361       197.2361       197.2361      -126.55765    
   1146000   699.35553     -5455832.9      197.2361       197.2361       197.2361      -141.79075    
   1147000   700.57425     -5455763        197.2361       197.2361       197.2361      -123.21619    
   1148000   699.03305     -5455775.6      197.2361       197.2361       197.2361      -258.17653    
   1149000   698.98505     -5455815.1      197.2361       197.2361       197.2361      -172.5134     
   1150000   699.97288     -5455701.6      197.2361       197.2361       197.2361      -155.79869    
   1151000   699.0447      -5455794.3      197.2361       197.2361       197.2361      -57.727449    
   1152000   699.9462      -5455809.8      197.2361       197.2361       197.2361      -181.69001    
   1153000   699.94156     -5455821.8      197.2361       197.2361       197.2361      -98.237734    
   1154000   699.4794      -5455739.3      197.2361       197.2361       197.2361      -192.82014    
   1155000   698.39225     -5455858.5      197.2361       197.2361       197.2361      -314.62569    
   1156000   700.4324      -5455815.8      197.2361       197.2361       197.2361      -245.55447    
   1157000   700.06349     -5455887.2      197.2361       197.2361       197.2361      -226.70259    
   1158000   699.57601     -5455753.9      197.2361       197.2361       197.2361      -142.01138    
   1159000   700.06462     -5455720.7      197.2361       197.2361       197.2361      -164.76943    
   1160000   699.4824      -5455769.1      197.2361       197.2361       197.2361      -222.09885    
   1161000   699.63048     -5455875.4      197.2361       197.2361       197.2361      -168.48076    
   1162000   699.33208     -5455864.7      197.2361       197.2361       197.2361      -96.959507    
   1163000   701.09389     -5455730.1      197.2361       197.2361       197.2361      -258.69898    
   1164000   700.23452     -5455673.3      197.2361       197.2361       197.2361      -260.55944    
   1165000   699.52371     -5455883.7      197.2361       197.2361       197.2361      -97.790232    
   1166000   699.38829     -5455762        197.2361       197.2361       197.2361      -97.998466    
   1167000   701.02021     -5455705.1      197.2361       197.2361       197.2361      -331.82941    
   1168000   699.81279     -5455798        197.2361       197.2361       197.2361      -133.01147    
   1169000   700.39545     -5455769.9      197.2361       197.2361       197.2361      -113.2585     
   1170000   700.9329      -5455677.8      197.2361       197.2361       197.2361      -198.31076    
   1171000   698.13538     -5455897.2      197.2361       197.2361       197.2361      -365.91166    
   1172000   700.5284      -5455755.1      197.2361       197.2361       197.2361      -196.15247    
   1173000   700.6141      -5455834.2      197.2361       197.2361       197.2361      -171.13249    
   1174000   700.09178     -5455833.6      197.2361       197.2361       197.2361      -199.61618    
   1175000   699.9362      -5455822.1      197.2361       197.2361       197.2361      -187.6324     
   1176000   700.01743     -5455846.1      197.2361       197.2361       197.2361      -207.41125    
   1177000   699.38178     -5455833.9      197.2361       197.2361       197.2361      -195.89072    
   1178000   701.06111     -5455663.5      197.2361       197.2361       197.2361      -151.73189    
   1179000   699.84517     -5455769        197.2361       197.2361       197.2361      -143.82924    
   1180000   701.0406      -5455741.1      197.2361       197.2361       197.2361      -204.65463    
   1181000   699.82284     -5455782.7      197.2361       197.2361       197.2361      -306.73766    
   1182000   699.46247     -5455816.5      197.2361       197.2361       197.2361      -156.48557    
   1183000   700.17457     -5455789.4      197.2361       197.2361       197.2361      -205.32679    
   1184000   698.83685     -5455786.5      197.2361       197.2361       197.2361      -289.41727    
   1185000   699.57417     -5455767.8      197.2361       197.2361       197.2361      -273.17189    
   1186000   699.76926     -5455688        197.2361       197.2361       197.2361      -208.11582    
   1187000   701.01385     -5455712.9      197.2361       197.2361       197.2361      -249.89132    
   1188000   700.96405     -5455799.2      197.2361       197.2361       197.2361      -100.76264    
   1189000   700.55109     -5455732.7      197.2361       197.2361       197.2361      -322.51497    
   1190000   700.59341     -5455711.8      197.2361       197.2361       197.2361      -252.79695    
   1191000   699.02897     -5455842.8      197.2361       197.2361       197.2361      -120.75219    
   1192000   700.44555     -5455832.5      197.2361       197.2361       197.2361      -169.38475    
   1193000   700.10919     -5455749.8      197.2361       197.2361       197.2361      -163.29014    
   1194000   700.86224     -5455736.9      197.2361       197.2361       197.2361      -82.232975    
   1195000   701.26632     -5455721.9      197.2361       197.2361       197.2361      -135.31415    
   1196000   699.58774     -5455821.3      197.2361       197.2361       197.2361      -302.98325    
   1197000   698.69619     -5455790.1      197.2361       197.2361       197.2361      -303.89909    
   1198000   699.30299     -5455828.6      197.2361       197.2361       197.2361      -325.79579    
   1199000   698.88012     -5455853        197.2361       197.2361       197.2361      -142.66106    
   1200000   698.57169     -5455800.4      197.2361       197.2361       197.2361      -201.49089    
   1201000   700.04982     -5455711.4      197.2361       197.2361       197.2361      -209.11876    
   1202000   699.51798     -5455878        197.2361       197.2361       197.2361      -69.314837    
   1203000   699.88727     -5455810.9      197.2361       197.2361       197.2361      -74.318367    
   1204000   700.5447      -5455853.1      197.2361       197.2361       197.2361      -208.81927    
   1205000   699.87441     -5455734.1      197.2361       197.2361       197.2361      -101.89916    
   1206000   700.47417     -5455755.3      197.2361       197.2361       197.2361      -272.60017    
   1207000   699.89794     -5455825.8      197.2361       197.2361       197.2361      -86.044866    
   1208000   700.47582     -5455757.9      197.2361       197.2361       197.2361      -184.85327    
   1209000   700.26835     -5455710.8      197.2361       197.2361       197.2361      -160.81919    
   1210000   700.13134     -5455733.1      197.2361       197.2361       197.2361      -59.159822    
   1211000   700.31529     -5455734.7      197.2361       197.2361       197.2361      -98.935596    
   1212000   699.1363      -5455871.6      197.2361       197.2361       197.2361      -234.62943    
   1213000   700.23074     -5455813.2      197.2361       197.2361       197.2361      -136.7765     
   1214000   700.07608     -5455785.9      197.2361       197.2361       197.2361      -107.74978    
   1215000   699.95925     -5455859.9      197.2361       197.2361       197.2361      -79.669435    
   1216000   700.6417      -5455757        197.2361       197.2361       197.2361      -283.12788    
   1217000   698.85369     -5455812.6      197.2361       197.2361       197.2361      -183.6934     
   1218000   700.51253     -5455752.1      197.2361       197.2361       197.2361      -87.361707    
   1219000   701.20781     -5455692.7      197.2361       197.2361       197.2361      -55.560474    
   1220000   700.02958     -5455715.7      197.2361       197.2361       197.2361       39.964694    
   1221000   699.17146     -5455867.9      197.2361       197.2361       197.2361      -110.18638    
   1222000   699.45161     -5455804.4      197.2361       197.2361       197.2361      -164.93785    
   1223000   700.3745      -5455787.2      197.2361       197.2361       197.2361      -137.62282    
   1224000   699.79756     -5455745.5      197.2361       197.2361       197.2361      -50.017263    
   1225000   699.948       -5455749.1      197.2361       197.2361       197.2361      -92.178906    
   1226000   698.88025     -5455852.9      197.2361       197.2361       197.2361      -59.669997    
   1227000   699.96897     -5455763.9      197.2361       197.2361       197.2361      -289.12576    
   1228000   699.53814     -5455926.6      197.2361       197.2361       197.2361      -210.53214    
   1229000   699.80578     -5455786.2      197.2361       197.2361       197.2361      -79.771984    
   1230000   701.50762     -5455749.8      197.2361       197.2361       197.2361      -131.38878    
   1231000   700.57316     -5455740.6      197.2361       197.2361       197.2361      -33.388598    
   1232000   699.64897     -5455839.7      197.2361       197.2361       197.2361      -184.49553    
   1233000   699.63035     -5455821.7      197.2361       197.2361       197.2361      -133.6551     
   1234000   699.20219     -5455780.7      197.2361       197.2361       197.2361      -225.47036    
   1235000   699.07484     -5455798.2      197.2361       197.2361       197.2361      -103.0656     
   1236000   699.28189     -5455906.5      197.2361       197.2361       197.2361      -24.10856     
   1237000   700.351       -5455799.8      197.2361       197.2361       197.2361      -105.07691    
   1238000   699.25282     -5455704.4      197.2361       197.2361       197.2361      -51.917877    
   1239000   699.93467     -5455781.8      197.2361       197.2361       197.2361      -151.40012    
   1240000   699.71291     -5455882.4      197.2361       197.2361       197.2361      -211.09686    
   1241000   700.37266     -5455731.7      197.2361       197.2361       197.2361      -64.854025    
   1242000   700.56491     -5455738.8      197.2361       197.2361       197.2361      -62.304955    
   1243000   700.66914     -5455683.5      197.2361       197.2361       197.2361      -157.21132    
   1244000   700.366       -5455793.3      197.2361       197.2361       197.2361      -218.57512    
   1245000   700.04362     -5455812.7      197.2361       197.2361       197.2361      -163.14932    
   1246000   699.99333     -5455687.3      197.2361       197.2361       197.2361      -119.84838    
   1247000   699.62348     -5455759.8      197.2361       197.2361       197.2361      -181.83901    
   1248000   699.40631     -5455837.3      197.2361       197.2361       197.2361      -42.052688    
   1249000   700.40952     -5455810        197.2361       197.2361       197.2361      -158.31618    
   1250000   699.49682     -5455848.7      197.2361       197.2361       197.2361      -158.55104    
   1251000   700.19355     -5455764.3      197.2361       197.2361       197.2361      -171.48875    
   1252000   699.90975     -5455910.9      197.2361       197.2361       197.2361      -160.59719    
   1253000   699.93515     -5455836.6      197.2361       197.2361       197.2361      -198.84403    
   1254000   700.03818     -5455822.5      197.2361       197.2361       197.2361      -232.99947    
   1255000   700.34336     -5455786.8      197.2361       197.2361       197.2361      -228.32999    
   1256000   699.53017     -5455842.8      197.2361       197.2361       197.2361      -248.77898    
   1257000   698.69303     -5455889.9      197.2361       197.2361       197.2361      -111.52791    
   1258000   700.56703     -5455731.4      197.2361       197.2361       197.2361      -95.269077    
   1259000   700.10707     -5455743.4      197.2361       197.2361       197.2361      -223.6237     
   1260000   700.8162      -5455702.9      197.2361       197.2361       197.2361      -67.220565    
   1261000   700.80738     -5455831.7      197.2361       197.2361       197.2361      -185.25972    
   1262000   699.69502     -5455802.3      197.2361       197.2361       197.2361      -109.36677    
   1263000   700.43635     -5455706.4      197.2361       197.2361       197.2361      -133.97147    
   1264000   700.05786     -5455848.4      197.2361       197.2361       197.2361      -8.7091799    
   1265000   700.50083     -5455862.4      197.2361       197.2361       197.2361      -54.828608    
   1266000   699.99826     -5455889.2      197.2361       197.2361       197.2361      -75.218284    
   1267000   699.96059     -5455777.5      197.2361       197.2361       197.2361      -41.015519    
   1268000   699.0506      -5455916        197.2361       197.2361       197.2361      -107.80349    
   1269000   700.6792      -5455706.5      197.2361       197.2361       197.2361      -16.674859    
   1270000   699.33013     -5455765.1      197.2361       197.2361       197.2361      -88.718314    
   1271000   700.03706     -5455784.7      197.2361       197.2361       197.2361      -225.69815    
   1272000   699.5331      -5455719.1      197.2361       197.2361       197.2361      -112.07557    
   1273000   700.12026     -5455770.3      197.2361       197.2361       197.2361      -155.45021    
   1274000   699.32877     -5455751.6      197.2361       197.2361       197.2361      -50.290199    
   1275000   700.25767     -5455819.4      197.2361       197.2361       197.2361      -260.47368    
   1276000   699.81672     -5455829        197.2361       197.2361       197.2361      -164.86282    
   1277000   700.70579     -5455710.6      197.2361       197.2361       197.2361      -16.263076    
   1278000   698.60491     -5455806.7      197.2361       197.2361       197.2361      -45.956643    
   1279000   699.6856      -5455829.3      197.2361       197.2361       197.2361      -187.09661    
   1280000   699.01804     -5455924        197.2361       197.2361       197.2361      -177.79469    
   1281000   699.86412     -5455815.1      197.2361       197.2361       197.2361      -75.732144    
   1282000   699.59193     -5455810        197.2361       197.2361       197.2361      -253.34276    
   1283000   699.5294      -5455893.6      197.2361       197.2361       197.2361      -196.45919    
   1284000   699.0587      -5455911.6      197.2361       197.2361       197.2361      -232.44774    
   1285000   699.63239     -5455840.8      197.2361       197.2361       197.2361      -266.92971    
   1286000   699.76219     -5455785.6      197.2361       197.2361       197.2361      -37.931135    
   1287000   699.23651     -5455869.4      197.2361       197.2361       197.2361      -72.946682    
   1288000   698.15856     -5455923.1      197.2361       197.2361       197.2361      -248.1224     
   1289000   698.91521     -5455838.9      197.2361       197.2361       197.2361      -132.03616    
   1290000   699.50361     -5455848.7      197.2361       197.2361       197.2361      -213.42685    
   1291000   699.7883      -5455807.5      197.2361       197.2361       197.2361      -172.11205    
   1292000   700.78912     -5455785.7      197.2361       197.2361       197.2361      -173.11748    
   1293000   700.61115     -5455770.5      197.2361       197.2361       197.2361      -195.60082    
   1294000   700.80084     -5455755.3      197.2361       197.2361       197.2361      -147.03867    
   1295000   699.43773     -5455855.2      197.2361       197.2361       197.2361      -81.053189    
   1296000   698.54347     -5455919.9      197.2361       197.2361       197.2361      -87.538427    
   1297000   699.88591     -5455803.5      197.2361       197.2361       197.2361      -198.47043    
   1298000   700.06419     -5455830.7      197.2361       197.2361       197.2361      -108.52999    
   1299000   700.14437     -5455874.5      197.2361       197.2361       197.2361      -112.58684    
   1300000   700.15482     -5455767.8      197.2361       197.2361       197.2361      -111.27772    
   1301000   699.91572     -5455772.8      197.2361       197.2361       197.2361      -172.61902    
   1302000   698.97484     -5455978.6      197.2361       197.2361       197.2361      -230.70502    
   1303000   701.3704      -5455718.2      197.2361       197.2361       197.2361      -182.40362    
   1304000   699.8733      -5455762.1      197.2361       197.2361       197.2361      -145.30114    
   1305000   700.27322     -5455865.2      197.2361       197.2361       197.2361      -238.18771    
   1306000   699.76614     -5455841.6      197.2361       197.2361       197.2361      -215.20117    
   1307000   699.98057     -5455825.1      197.2361       197.2361       197.2361      -91.576882    
   1308000   699.8708      -5455804.3      197.2361       197.2361       197.2361      -65.728828    
   1309000   700.65389     -5455744        197.2361       197.2361       197.2361      -55.046708    
   1310000   700.03192     -5455792.3      197.2361       197.2361       197.2361      -92.459742    
   1311000   700.0121      -5455852.3      197.2361       197.2361       197.2361      -63.054159    
   1312000   700.99565     -5455784.2      197.2361       197.2361       197.2361      -75.933743    
   1313000   700.31722     -5455792.7      197.2361       197.2361       197.2361      -109.20919    
   1314000   700.27122     -5455778.3      197.2361       197.2361       197.2361      -64.516932    
   1315000   699.90094     -5455834.5      197.2361       197.2361       197.2361      -153.69786    
   1316000   700.09431     -5455812        197.2361       197.2361       197.2361      -115.39665    
   1317000   699.86615     -5455839.6      197.2361       197.2361       197.2361      -177.30658    
   1318000   697.92221     -5455917.7      197.2361       197.2361       197.2361      -138.80002    
   1319000   700.01386     -5455869.6      197.2361       197.2361       197.2361      -12.803431    
   1320000   699.11477     -5455723.1      197.2361       197.2361       197.2361      -101.59685    
   1321000   698.84233     -5455877.7      197.2361       197.2361       197.2361      -100.39434    
   1322000   700.60507     -5455753.2      197.2361       197.2361       197.2361      -81.899597    
   1323000   698.79573     -5455767.4      197.2361       197.2361       197.2361      -107.26433    
   1324000   699.33536     -5455845.4      197.2361       197.2361       197.2361      -182.34829    
   1325000   700.30351     -5455774.2      197.2361       197.2361       197.2361      -232.5188     
   1326000   701.17175     -5455694.6      197.2361       197.2361       197.2361      -193.72704    
   1327000   698.21216     -5455828        197.2361       197.2361       197.2361      -144.16213    
   1328000   701.27983     -5455730.5      197.2361       197.2361       197.2361      -347.06937    
   1329000   701.42408     -5455716.8      197.2361       197.2361       197.2361      -182.76203    
   1330000   699.47815     -5455896.5      197.2361       197.2361       197.2361      -146.1989     
   1331000   700.08406     -5455785.3      197.2361       197.2361       197.2361      -139.76021    
   1332000   698.95952     -5455878.8      197.2361       197.2361       197.2361      -240.45063    
   1333000   699.27353     -5455736        197.2361       197.2361       197.2361      -221.73564    
   1334000   700.79371     -5455748.8      197.2361       197.2361       197.2361      -233.07588    
   1335000   700.02608     -5455803        197.2361       197.2361       197.2361      -26.326009    
   1336000   699.66111     -5455773.1      197.2361       197.2361       197.2361      -91.323525    
   1337000   700.54175     -5455761.6      197.2361       197.2361       197.2361      -70.924153    
   1338000   699.43036     -5455837.6      197.2361       197.2361       197.2361      -9.9425428    
   1339000   700.56289     -5455682.5      197.2361       197.2361       197.2361       80.835838    
   1340000   700.4703      -5455774.6      197.2361       197.2361       197.2361      -117.82512    
   1341000   698.91481     -5455790        197.2361       197.2361       197.2361      -39.010549    
   1342000   700.2728      -5455686.9      197.2361       197.2361       197.2361      -161.9434     
   1343000   700.77861     -5455652.4      197.2361       197.2361       197.2361      -121.65134    
   1344000   700.43913     -5455672.7      197.2361       197.2361       197.2361      -156.65079    
   1345000   699.90767     -5455776.2      197.2361       197.2361       197.2361      -74.609976    
   1346000   700.2846      -5455759.7      197.2361       197.2361       197.2361      -296.54954    
   1347000   700.79486     -5455767.2      197.2361       197.2361       197.2361      -45.645054    
   1348000   699.81216     -5455760.9      197.2361       197.2361       197.2361      -126.36618    
   1349000   700.33438     -5455815.4      197.2361       197.2361       197.2361      -173.1171     
   1350000   700.48311     -5455753.1      197.2361       197.2361       197.2361      -260.16812    
   1351000   700.20432     -5455800.1      197.2361       197.2361       197.2361      -123.87707    
   1352000   700.71871     -5455728.9      197.2361       197.2361       197.2361      -152.59739    
   1353000   701.10488     -5455700        197.2361       197.2361       197.2361       10.071952    
   1354000   699.87958     -5455737        197.2361       197.2361       197.2361      -203.33346    
   1355000   700.74025     -5455770.6      197.2361       197.2361       197.2361      -253.32604    
   1356000   700.34062     -5455756.4      197.2361       197.2361       197.2361      -114.86703    
   1357000   700.46688     -5455793.2      197.2361       197.2361       197.2361      -61.288909    
   1358000   700.35484     -5455812.9      197.2361       197.2361       197.2361      -146.43534    
   1359000   700.4287      -5455854.3      197.2361       197.2361       197.2361      -136.02187    
   1360000   700.72501     -5455879.1      197.2361       197.2361       197.2361      -119.36814    
   1361000   700.92223     -5455769.7      197.2361       197.2361       197.2361      -193.14282    
   1362000   699.3517      -5455771.5      197.2361       197.2361       197.2361      -46.885614    
   1363000   700.64033     -5455824.5      197.2361       197.2361       197.2361      -52.702861    
   1364000   699.79481     -5455833.7      197.2361       197.2361       197.2361      -110.25955    
   1365000   699.85505     -5455721.9      197.2361       197.2361       197.2361      -144.74147    
   1366000   698.88902     -5455881.6      197.2361       197.2361       197.2361      -53.341516    
   1367000   699.1503      -5455812.7      197.2361       197.2361       197.2361      -104.53302    
   1368000   699.67146     -5455823.8      197.2361       197.2361       197.2361       40.0067      
   1369000   699.99611     -5455801.5      197.2361       197.2361       197.2361       24.108856    
   1370000   699.13683     -5455826.7      197.2361       197.2361       197.2361      -105.47865    
   1371000   700.02586     -5455800.8      197.2361       197.2361       197.2361      -71.998039    
   1372000   700.17399     -5455896.2      197.2361       197.2361       197.2361      -88.869096    
   1373000   699.57552     -5455887.8      197.2361       197.2361       197.2361      -208.41787    
   1374000   700.52935     -5455685.3      197.2361       197.2361       197.2361      -112.3227     
   1375000   699.68693     -5455757.5      197.2361       197.2361       197.2361      -44.154043    
   1376000   700.62095     -5455685.6      197.2361       197.2361       197.2361      -74.164155    
   1377000   699.52368     -5455814.3      197.2361       197.2361       197.2361      -173.95964    
   1378000   699.66858     -5455685        197.2361       197.2361       197.2361      -71.948917    
   1379000   701.04221     -5455701.1      197.2361       197.2361       197.2361      -40.966306    
   1380000   699.54416     -5455805.1      197.2361       197.2361       197.2361      -210.00974    
   1381000   701.00736     -5455795.1      197.2361       197.2361       197.2361      -128.17618    
   1382000   700.66618     -5455674.6      197.2361       197.2361       197.2361      -46.051654    
   1383000   699.35093     -5455860.4      197.2361       197.2361       197.2361      -86.606001    
   1384000   699.55845     -5455930.8      197.2361       197.2361       197.2361      -118.72471    
   1385000   700.06052     -5455831.4      197.2361       197.2361       197.2361      -91.540214    
   1386000   700.94325     -5455711        197.2361       197.2361       197.2361      -218.24386    
   1387000   700.99658     -5455736.4      197.2361       197.2361       197.2361      -165.9065     
   1388000   700.31739     -5455785.7      197.2361       197.2361       197.2361      -175.34655    
   1389000   699.24765     -5455862        197.2361       197.2361       197.2361      -239.00045    
   1390000   701.04389     -5455796.1      197.2361       197.2361       197.2361      -98.3293      
   1391000   699.53334     -5455904.3      197.2361       197.2361       197.2361      -85.518061    
   1392000   699.08705     -5455866.3      197.2361       197.2361       197.2361      -59.421692    
   1393000   699.44283     -5455810        197.2361       197.2361       197.2361      -163.04349    
   1394000   701.50317     -5455712.2      197.2361       197.2361       197.2361      -217.4719     
   1395000   700.29056     -5455829.9      197.2361       197.2361       197.2361      -84.443118    
   1396000   699.91637     -5455810.5      197.2361       197.2361       197.2361      -74.246174    
   1397000   700.4716      -5455861.4      197.2361       197.2361       197.2361      -123.5749     
   1398000   700.51889     -5455886.6      197.2361       197.2361       197.2361      -82.964335    
   1399000   699.75194     -5455812.9      197.2361       197.2361       197.2361      -241.96077    
   1400000   700.66185     -5455788.2      197.2361       197.2361       197.2361      -191.4874     
   1401000   699.961       -5455776.1      197.2361       197.2361       197.2361       8.6044728    
   1402000   699.38259     -5455862.8      197.2361       197.2361       197.2361      -275.45418    
   1403000   700.34726     -5455847.6      197.2361       197.2361       197.2361      -117.55604    
   1404000   701.83429     -5455771        197.2361       197.2361       197.2361       37.895499    
   1405000   700.13818     -5455812        197.2361       197.2361       197.2361      -123.69936    
   1406000   700.28649     -5455807.4      197.2361       197.2361       197.2361      -123.81204    
   1407000   700.51957     -5455769.3      197.2361       197.2361       197.2361      -122.81876    
   1408000   698.12336     -5455922.4      197.2361       197.2361       197.2361       3.000024     
   1409000   699.70565     -5455872.5      197.2361       197.2361       197.2361      -128.15557    
   1410000   699.32048     -5455972        197.2361       197.2361       197.2361      -138.76355    
   1411000   699.2961      -5455811.5      197.2361       197.2361       197.2361      -105.53682    
   1412000   699.1572      -5455799.6      197.2361       197.2361       197.2361       30.751694    
   1413000   700.67844     -5455768.4      197.2361       197.2361       197.2361      -165.1313     
   1414000   698.56812     -5455791.6      197.2361       197.2361       197.2361      -104.09762    
   1415000   699.98013     -5455761.5      197.2361       197.2361       197.2361      -156.96076    
   1416000   701.6988      -5455794        197.2361       197.2361       197.2361      -118.68856    
   1417000   700.35843     -5455798.6      197.2361       197.2361       197.2361      -147.10353    
   1418000   700.32889     -5455843        197.2361       197.2361       197.2361      -122.96791    
   1419000   700.03592     -5455911.2      197.2361       197.2361       197.2361      -287.83888    
   1420000   699.35269     -5455818        197.2361       197.2361       197.2361      -179.93355    
   1421000   699.98266     -5455791.7      197.2361       197.2361       197.2361      -123.0967     
   1422000   699.55793     -5455829.1      197.2361       197.2361       197.2361      -170.07415    
   1423000   699.71225     -5455855.5      197.2361       197.2361       197.2361      -250.8047     
   1424000   701.21523     -5455722.7      197.2361       197.2361       197.2361      -136.48485    
   1425000   699.57619     -5455871.2      197.2361       197.2361       197.2361      -56.868762    
   1426000   700.08169     -5455724.1      197.2361       197.2361       197.2361      -105.13074    
   1427000   701.58296     -5455721.2      197.2361       197.2361       197.2361      -110.3571     
   1428000   700.40371     -5455744.9      197.2361       197.2361       197.2361      -16.437705    
   1429000   699.38567     -5455901        197.2361       197.2361       197.2361      -20.72109     
   1430000   699.77962     -5455781.7      197.2361       197.2361       197.2361      -39.218426    
   1431000   701.0381      -5455699.6      197.2361       197.2361       197.2361       2.9887972    
   1432000   700.30236     -5455764.3      197.2361       197.2361       197.2361       22.337943    
   1433000   700.07818     -5455850.9      197.2361       197.2361       197.2361       53.601108    
   1434000   699.27754     -5455943.4      197.2361       197.2361       197.2361      -62.300642    
   1435000   699.52735     -5455879.5      197.2361       197.2361       197.2361      -102.88725    
   1436000   701.07505     -5455725.5      197.2361       197.2361       197.2361       63.808761    
   1437000   699.82022     -5455800.5      197.2361       197.2361       197.2361      -150.54389    
   1438000   701.41575     -5455733.5      197.2361       197.2361       197.2361      -99.255462    
   1439000   698.75862     -5455894.8      197.2361       197.2361       197.2361      -298.00668    
   1440000   698.9754      -5455855.7      197.2361       197.2361       197.2361      -248.99857    
   1441000   699.63586     -5455905.1      197.2361       197.2361       197.2361      -78.926596    
   1442000   699.29017     -5455863.4      197.2361       197.2361       197.2361      -156.75206    
   1443000   700.73161     -5455727        197.2361       197.2361       197.2361      -173.47438    
   1444000   699.40999     -5455829.9      197.2361       197.2361       197.2361      -225.63307    
   1445000   698.42015     -5455910.9      197.2361       197.2361       197.2361      -219.10747    
   1446000   699.32784     -5455795.2      197.2361       197.2361       197.2361      -170.06561    
   1447000   699.77142     -5455781.5      197.2361       197.2361       197.2361      -137.3405     
   1448000   700.35223     -5455858        197.2361       197.2361       197.2361      -100.20762    
   1449000   699.14051     -5455895.7      197.2361       197.2361       197.2361       3.9135112    
   1450000   699.1954      -5455929.1      197.2361       197.2361       197.2361      -190.44867    
   1451000   700.33339     -5455822.5      197.2361       197.2361       197.2361      -236.95427    
   1452000   699.90335     -5455883        197.2361       197.2361       197.2361      -333.23905    
   1453000   699.82339     -5455816.5      197.2361       197.2361       197.2361      -37.188393    
   1454000   699.88287     -5455759.5      197.2361       197.2361       197.2361      -171.46735    
   1455000   699.3099      -5455910.7      197.2361       197.2361       197.2361      -103.85046    
   1456000   699.73755     -5455946.9      197.2361       197.2361       197.2361      -69.690338    
   1457000   700.31183     -5455871.8      197.2361       197.2361       197.2361      -100.76697    
   1458000   698.98782     -5455822.4      197.2361       197.2361       197.2361      -123.20387    
   1459000   700.13636     -5455879        197.2361       197.2361       197.2361      -155.38486    
   1460000   701.10642     -5455816.9      197.2361       197.2361       197.2361      -98.224461    
   1461000   699.82965     -5455840.2      197.2361       197.2361       197.2361      -72.68029     
   1462000   699.72243     -5455854.5      197.2361       197.2361       197.2361      -104.39349    
   1463000   699.25305     -5455822.2      197.2361       197.2361       197.2361      -73.98076     
   1464000   700.86743     -5455888.9      197.2361       197.2361       197.2361      -97.941658    
   1465000   700.50696     -5455867.7      197.2361       197.2361       197.2361      -66.980165    
   1466000   698.92934     -5455844.9      197.2361       197.2361       197.2361      -181.55061    
   1467000   701.22305     -5455768.7      197.2361       197.2361       197.2361       9.737241     
   1468000   697.73073     -5455945.2      197.2361       197.2361       197.2361      -3.4188437    
   1469000   700.14864     -5455841.5      197.2361       197.2361       197.2361      -167.18663    
   1470000   699.83615     -5455926.9      197.2361       197.2361       197.2361      -196.2587     
   1471000   700.00061     -5455906.6      197.2361       197.2361       197.2361      -229.96911    
   1472000   700.52665     -5455784.6      197.2361       197.2361       197.2361      -113.34709    
   1473000   699.48512     -5455848.3      197.2361       197.2361       197.2361      -139.10815    
   1474000   701.38009     -5455729.3      197.2361       197.2361       197.2361      -255.34245    
   1475000   699.84577     -5455847.6      197.2361       197.2361       197.2361      -60.804349    
   1476000   700.6882      -5455712.1      197.2361       197.2361       197.2361       45.407784    
   1477000   698.90845     -5455911.7      197.2361       197.2361       197.2361      -85.119999    
   1478000   699.05794     -5455895.9      197.2361       197.2361       197.2361      -292.60779    
   1479000   700.46361     -5455777.6      197.2361       197.2361       197.2361      -44.053091    
   1480000   700.12962     -5455785.5      197.2361       197.2361       197.2361      -90.93908     
   1481000   698.31299     -5455914.2      197.2361       197.2361       197.2361      -105.79697    
   1482000   699.87374     -5455802.2      197.2361       197.2361       197.2361       56.376834    
   1483000   699.75919     -5455801.3      197.2361       197.2361       197.2361      -133.79116    
   1484000   699.13028     -5455927.5      197.2361       197.2361       197.2361      -48.181537    
   1485000   700.94232     -5455772        197.2361       197.2361       197.2361      -69.781114    
   1486000   700.27649     -5455751.1      197.2361       197.2361       197.2361      -83.165662    
   1487000   700.35269     -5455826.9      197.2361       197.2361       197.2361      -120.88092    
   1488000   700.95516     -5455796.4      197.2361       197.2361       197.2361      -168.23393    
   1489000   700.73638     -5455775.4      197.2361       197.2361       197.2361      -4.9379834    
   1490000   700.39254     -5455680.4      197.2361       197.2361       197.2361      -230.95434    
   1491000   699.68489     -5455814.4      197.2361       197.2361       197.2361      -136.52223    
   1492000   700.21364     -5455862.8      197.2361       197.2361       197.2361      -136.03083    
   1493000   699.31142     -5455907.5      197.2361       197.2361       197.2361      -370.52457    
   1494000   699.8995      -5455866.1      197.2361       197.2361       197.2361       69.947178    
   1495000   699.02974     -5455993.7      197.2361       197.2361       197.2361      -114.62605    
   1496000   698.57101     -5455931.5      197.2361       197.2361       197.2361      -33.39637     
   1497000   701.84163     -5455748        197.2361       197.2361       197.2361      -34.365398    
   1498000   699.88359     -5455873.9      197.2361       197.2361       197.2361      -134.67729    
   1499000   699.70997     -5455878        197.2361       197.2361       197.2361      -38.774403    
   1500000   698.9236      -5455903.1      197.2361       197.2361       197.2361      -52.051261    
   1501000   699.49207     -5455886.3      197.2361       197.2361       197.2361       25.492383    
   1502000   702.13977     -5455728        197.2361       197.2361       197.2361      -94.799237    
   1503000   699.55097     -5455763.1      197.2361       197.2361       197.2361      -106.28699    
   1504000   698.68007     -5455889.3      197.2361       197.2361       197.2361      -108.38837    
   1505000   699.61889     -5455944.1      197.2361       197.2361       197.2361      -243.17934    
   1506000   700.67928     -5455827.8      197.2361       197.2361       197.2361      -103.18097    
   1507000   699.75712     -5455932        197.2361       197.2361       197.2361      -112.62342    
   1508000   700.69666     -5455784.7      197.2361       197.2361       197.2361      -268.12684    
   1509000   700.28078     -5455744.3      197.2361       197.2361       197.2361      -99.671377    
   1510000   701.7053      -5455779.8      197.2361       197.2361       197.2361      -121.91017    
   1511000   699.36932     -5455917.6      197.2361       197.2361       197.2361      -151.22596    
   1512000   699.55563     -5455829.3      197.2361       197.2361       197.2361      -48.154364    
   1513000   700.13107     -5455870.6      197.2361       197.2361       197.2361      -146.5958     
   1514000   699.65909     -5455773        197.2361       197.2361       197.2361      -122.18729    
   1515000   699.29264     -5455780        197.2361       197.2361       197.2361      -95.615084    
   1516000   700.06722     -5455826.3      197.2361       197.2361       197.2361      -238.84564    
   1517000   699.81577     -5455878.6      197.2361       197.2361       197.2361      -234.40911    
   1518000   699.21852     -5455922.6      197.2361       197.2361       197.2361      -69.712568    
   1519000   701.41111     -5455706.7      197.2361       197.2361       197.2361      -185.48404    
   1520000   700.53099     -5455839.1      197.2361       197.2361       197.2361      -154.25548    
   1521000   700.38339     -5455754.9      197.2361       197.2361       197.2361      -48.990877    
   1522000   699.4902      -5455909.9      197.2361       197.2361       197.2361      -25.899596    
   1523000   700.40371     -5455864.5      197.2361       197.2361       197.2361      -2.1662422    
   1524000   701.09037     -5455826.6      197.2361       197.2361       197.2361      -63.144488    
   1525000   699.93263     -5455901.4      197.2361       197.2361       197.2361      -120.87061    
   1526000   700.08411     -5455850.2      197.2361       197.2361       197.2361      -51.17951     
   1527000   698.69037     -5455908.5      197.2361       197.2361       197.2361      -171.75711    
   1528000   698.62988     -5455941.7      197.2361       197.2361       197.2361      -160.47044    
   1529000   699.35917     -5455901.4      197.2361       197.2361       197.2361      -16.814581    
   1530000   700.22274     -5455756        197.2361       197.2361       197.2361      -92.159804    
   1531000   699.33669     -5455849.3      197.2361       197.2361       197.2361      -27.838905    
   1532000   699.24656     -5455867.4      197.2361       197.2361       197.2361      -38.237677    
   1533000   699.9706      -5455749        197.2361       197.2361       197.2361      -110.02702    
   1534000   701.63465     -5455768.2      197.2361       197.2361       197.2361      -170.89885    
   1535000   699.02546     -5455892.8      197.2361       197.2361       197.2361      -18.794206    
   1536000   700.75203     -5455799.8      197.2361       197.2361       197.2361      -96.416912    
   1537000   699.5182      -5455917.9      197.2361       197.2361       197.2361      -302.45204    
   1538000   700.02092     -5455810.2      197.2361       197.2361       197.2361      -139.39241    
   1539000   699.87407     -5455882.6      197.2361       197.2361       197.2361      -182.96309    
   1540000   700.51501     -5455794        197.2361       197.2361       197.2361      -230.09088    
   1541000   700.502       -5455859.6      197.2361       197.2361       197.2361      -62.553591    
   1542000   701.05466     -5455826.8      197.2361       197.2361       197.2361      -142.71301    
   1543000   699.18398     -5455845.8      197.2361       197.2361       197.2361      -105.49334    
   1544000   697.94311     -5456021.8      197.2361       197.2361       197.2361      -98.355694    
   1545000   700.38039     -5455815.9      197.2361       197.2361       197.2361      -144.52219    
   1546000   701.58009     -5455737.6      197.2361       197.2361       197.2361      -161.29856    
   1547000   701.15566     -5455792.1      197.2361       197.2361       197.2361      -186.17813    
   1548000   699.95085     -5455819.4      197.2361       197.2361       197.2361      -67.270074    
   1549000   699.99573     -5455901.5      197.2361       197.2361       197.2361      -101.06773    
   1550000   700.55784     -5455833.6      197.2361       197.2361       197.2361      -77.869225    
   1551000   700.81713     -5455746.6      197.2361       197.2361       197.2361      -169.98765    
   1552000   700.05477     -5455754.7      197.2361       197.2361       197.2361      -155.8564     
   1553000   700.81975     -5455847.2      197.2361       197.2361       197.2361      -107.34784    
   1554000   700.00121     -5455797.3      197.2361       197.2361       197.2361      -184.70392    
   1555000   700.60849     -5455843        197.2361       197.2361       197.2361      -218.43331    
   1556000   699.0519      -5455848.9      197.2361       197.2361       197.2361      -233.40619    
   1557000   698.77572     -5455934.1      197.2361       197.2361       197.2361      -282.88385    
   1558000   700.21874     -5455836.8      197.2361       197.2361       197.2361      -209.95278    
   1559000   700.9298      -5455736.9      197.2361       197.2361       197.2361      -118.73326    
   1560000   699.74657     -5455790.1      197.2361       197.2361       197.2361      -191.84637    
   1561000   698.89444     -5455895.9      197.2361       197.2361       197.2361      -69.153511    
   1562000   698.00079     -5455939.3      197.2361       197.2361       197.2361      -165.08181    
   1563000   700.28062     -5455747.1      197.2361       197.2361       197.2361      -21.930378    
   1564000   699.76059     -5455930.8      197.2361       197.2361       197.2361      -131.86339    
   1565000   700.00378     -5455800.8      197.2361       197.2361       197.2361       68.127132    
   1566000   698.64963     -5455981.3      197.2361       197.2361       197.2361      -188.39012    
   1567000   700.12768     -5455851.3      197.2361       197.2361       197.2361      -65.495658    
   1568000   699.88686     -5455850.7      197.2361       197.2361       197.2361       92.720376    
   1569000   699.51732     -5455779.4      197.2361       197.2361       197.2361      -200.14355    
   1570000   700.68121     -5455803.4      197.2361       197.2361       197.2361      -174.21244    
   1571000   700.78661     -5455755.8      197.2361       197.2361       197.2361      -134.11068    
   1572000   700.15393     -5455789.2      197.2361       197.2361       197.2361      -78.506838    
   1573000   699.75111     -5455861.6      197.2361       197.2361       197.2361      -27.394117    
   1574000   699.88791     -5455892.7      197.2361       197.2361       197.2361      -16.379332    
   1575000   699.29445     -5455925.7      197.2361       197.2361       197.2361      -37.944607    
   1576000   699.95981     -5455799.3      197.2361       197.2361       197.2361       141.8452     
   1577000   700.32164     -5455819.4      197.2361       197.2361       197.2361      -110.16404    
   1578000   700.65744     -5455892.2      197.2361       197.2361       197.2361      -73.111674    
   1579000   699.91008     -5455903.8      197.2361       197.2361       197.2361       0.89485267   
   1580000   700.06696     -5455844.3      197.2361       197.2361       197.2361      -84.717888    
   1581000   700.14437     -5455854.9      197.2361       197.2361       197.2361      -65.593776    
   1582000   699.69426     -5455897.5      197.2361       197.2361       197.2361      -273.61133    
   1583000   699.60441     -5455892.1      197.2361       197.2361       197.2361      -89.305935    
   1584000   700.3303      -5455825.5      197.2361       197.2361       197.2361      -86.344586    
   1585000   700.66242     -5455776.6      197.2361       197.2361       197.2361      -29.395471    
   1586000   699.66496     -5455838.7      197.2361       197.2361       197.2361       27.321043    
   1587000   701.02877     -5455781.2      197.2361       197.2361       197.2361      -155.18624    
   1588000   701.55929     -5455743.5      197.2361       197.2361       197.2361      -77.847214    
   1589000   700.06422     -5455771.5      197.2361       197.2361       197.2361      -23.595402    
   1590000   701.50417     -5455884.4      197.2361       197.2361       197.2361      -120.89783    
   1591000   700.2715      -5455859.5      197.2361       197.2361       197.2361      -99.416679    
   1592000   699.43565     -5455929.9      197.2361       197.2361       197.2361      -139.11575    
   1593000   701.27461     -5455802.1      197.2361       197.2361       197.2361      -29.937005    
   1594000   699.77441     -5455864.1      197.2361       197.2361       197.2361      -44.856085    
   1595000   700.39199     -5455866.3      197.2361       197.2361       197.2361      -157.46925    
   1596000   699.73721     -5455948.4      197.2361       197.2361       197.2361      -177.38444    
   1597000   700.12914     -5455845.4      197.2361       197.2361       197.2361      -164.37342    
   1598000   700.90526     -5455743.6      197.2361       197.2361       197.2361      -180.24487    
   1599000   700.13252     -5455797.6      197.2361       197.2361       197.2361      -137.6364     
   1600000   699.21982     -5455918.9      197.2361       197.2361       197.2361      -142.63327    
   1601000   701.5886      -5455747.8      197.2361       197.2361       197.2361      -216.68145    
   1602000   700.65658     -5455758.2      197.2361       197.2361       197.2361      -197.51129    
   1603000   699.14145     -5455788.3      197.2361       197.2361       197.2361       45.426972    
   1604000   698.46153     -5455888.6      197.2361       197.2361       197.2361      -240.88523    
   1605000   700.25617     -5455866.3      197.2361       197.2361       197.2361      -279.74799    
   1606000   700.77579     -5455790.6      197.2361       197.2361       197.2361      -257.67831    
   1607000   700.38678     -5455782.3      197.2361       197.2361       197.2361      -127.44028    
   1608000   699.66035     -5455818.8      197.2361       197.2361       197.2361      -176.45342    
   1609000   700.7418      -5455847.3      197.2361       197.2361       197.2361      -158.88933    
   1610000   700.18563     -5455870.4      197.2361       197.2361       197.2361      -120.23956    
   1611000   699.89753     -5455804.1      197.2361       197.2361       197.2361      -239.60594    
   1612000   698.946       -5455802.9      197.2361       197.2361       197.2361       3.9376524    
   1613000   700.15174     -5455894.5      197.2361       197.2361       197.2361      -140.81074    
   1614000   700.14879     -5455822.1      197.2361       197.2361       197.2361      -107.58115    
   1615000   699.04578     -5455951.1      197.2361       197.2361       197.2361      -174.42546    
   1616000   699.75198     -5455931.4      197.2361       197.2361       197.2361      -157.61733    
   1617000   700.90467     -5455854.5      197.2361       197.2361       197.2361      -230.32794    
   1618000   700.96282     -5455826        197.2361       197.2361       197.2361      -182.01492    
   1619000   701.50353     -5455753.4      197.2361       197.2361       197.2361      -100.8323     
   1620000   699.79395     -5455822.4      197.2361       197.2361       197.2361      -7.6550072    
   1621000   699.99906     -5455822.3      197.2361       197.2361       197.2361      -206.84822    
   1622000   699.14151     -5455950.4      197.2361       197.2361       197.2361      -314.20144    
   1623000   699.02353     -5455933.1      197.2361       197.2361       197.2361       49.816843    
   1624000   699.83511     -5455921.9      197.2361       197.2361       197.2361      -109.52245    
   1625000   699.72679     -5455880.1      197.2361       197.2361       197.2361      -193.67036    
   1626000   700.53458     -5455786        197.2361       197.2361       197.2361      -17.157653    
   1627000   700.83857     -5455704.4      197.2361       197.2361       197.2361      -153.15863    
   1628000   700.7965      -5455785.3      197.2361       197.2361       197.2361      -288.71755    
   1629000   701.07199     -5455742.5      197.2361       197.2361       197.2361      -86.788428    
   1630000   699.77863     -5455974.4      197.2361       197.2361       197.2361      -203.04082    
   1631000   698.88742     -5455843.3      197.2361       197.2361       197.2361      -213.22769    
   1632000   699.37544     -5455819.9      197.2361       197.2361       197.2361      -121.22119    
   1633000   700.3545      -5455802.9      197.2361       197.2361       197.2361      -214.02626    
   1634000   699.28622     -5455881.2      197.2361       197.2361       197.2361      -395.46737    
   1635000   698.67112     -5455919.2      197.2361       197.2361       197.2361      -230.9661     
   1636000   700.44854     -5455792.9      197.2361       197.2361       197.2361      -270.48778    
   1637000   701.30871     -5455797.5      197.2361       197.2361       197.2361      -85.725553    
   1638000   699.89693     -5455776.1      197.2361       197.2361       197.2361      -164.6095     
   1639000   699.76187     -5455882.4      197.2361       197.2361       197.2361      -319.15896    
   1640000   700.18519     -5455872.7      197.2361       197.2361       197.2361      -170.92321    
   1641000   700.23657     -5455802.2      197.2361       197.2361       197.2361      -368.33796    
   1642000   701.1597      -5455736.3      197.2361       197.2361       197.2361      -255.30985    
   1643000   700.85955     -5455890.2      197.2361       197.2361       197.2361      -222.98281    
   1644000   700.45333     -5455779.3      197.2361       197.2361       197.2361      -61.435603    
   1645000   699.43588     -5455890.8      197.2361       197.2361       197.2361      -209.96743    
   1646000   699.86753     -5455871        197.2361       197.2361       197.2361      -110.49497    
   1647000   699.14333     -5455798.5      197.2361       197.2361       197.2361      -147.96139    
   1648000   698.82316     -5455951.3      197.2361       197.2361       197.2361      -100.03762    
   1649000   700.79087     -5455797.9      197.2361       197.2361       197.2361       34.140222    
   1650000   699.9759      -5455837.5      197.2361       197.2361       197.2361      -150.39213    
   1651000   700.05697     -5455818.6      197.2361       197.2361       197.2361      -179.73227    
   1652000   698.9457      -5455836.8      197.2361       197.2361       197.2361      -70.338893    
   1653000   699.76635     -5455949.7      197.2361       197.2361       197.2361      -99.25451     
   1654000   700.38904     -5455738.5      197.2361       197.2361       197.2361      -174.21923    
   1655000   699.5818      -5455880        197.2361       197.2361       197.2361      -112.56018    
   1656000   699.60698     -5455869.2      197.2361       197.2361       197.2361      -183.80768    
   1657000   700.23935     -5455788.4      197.2361       197.2361       197.2361      -114.04362    
   1658000   699.87215     -5455813.7      197.2361       197.2361       197.2361      -114.22481    
   1659000   699.90407     -5455873.2      197.2361       197.2361       197.2361      -282.80825    
   1660000   699.79471     -5455922.6      197.2361       197.2361       197.2361      -131.80354    
   1661000   699.90627     -5455768.6      197.2361       197.2361       197.2361      -227.36581    
   1662000   700.43566     -5455796.6      197.2361       197.2361       197.2361      -216.75617    
   1663000   701.0124      -5455786.6      197.2361       197.2361       197.2361      -64.68086     
   1664000   699.90317     -5455909.2      197.2361       197.2361       197.2361      -194.47743    
   1665000   700.09968     -5455834.3      197.2361       197.2361       197.2361      -201.72599    
   1666000   700.5818      -5455853.9      197.2361       197.2361       197.2361      -162.11319    
   1667000   700.72403     -5455778        197.2361       197.2361       197.2361      -186.64043    
   1668000   702.38795     -5455812.5      197.2361       197.2361       197.2361      -136.85126    
   1669000   700.89089     -5455840.5      197.2361       197.2361       197.2361       7.8608753    
   1670000   699.804       -5455966.7      197.2361       197.2361       197.2361      -84.651787    
   1671000   699.07291     -5455852.2      197.2361       197.2361       197.2361      -112.08383    
   1672000   700.10527     -5455845.5      197.2361       197.2361       197.2361      -167.00015    
   1673000   699.10894     -5455907.2      197.2361       197.2361       197.2361      -138.60854    
   1674000   700.73292     -5455817.8      197.2361       197.2361       197.2361      -75.273214    
   1675000   700.10117     -5455849.7      197.2361       197.2361       197.2361      -137.91099    
   1676000   699.45817     -5455935.8      197.2361       197.2361       197.2361      -14.780171    
   1677000   700.14461     -5455866        197.2361       197.2361       197.2361      -106.71398    
   1678000   699.83746     -5455803.8      197.2361       197.2361       197.2361      -138.3488     
   1679000   700.96386     -5455826.9      197.2361       197.2361       197.2361      -49.427381    
   1680000   701.17378     -5455794.5      197.2361       197.2361       197.2361      -31.259719    
   1681000   699.62229     -5455819        197.2361       197.2361       197.2361      -144.69993    
   1682000   700.02008     -5455819.7      197.2361       197.2361       197.2361      -192.68075    
   1683000   700.71611     -5455748.2      197.2361       197.2361       197.2361      -128.83826    
   1684000   699.321       -5455856.5      197.2361       197.2361       197.2361      -112.34125    
   1685000   700.97462     -5455793.3      197.2361       197.2361       197.2361      -188.99467    
   1686000   700.52314     -5455718.2      197.2361       197.2361       197.2361      -115.42257    
   1687000   699.12083     -5455932.3      197.2361       197.2361       197.2361      -61.349116    
   1688000   700.01165     -5455881.3      197.2361       197.2361       197.2361      -191.75521    
   1689000   698.98141     -5455989.5      197.2361       197.2361       197.2361      -209.48811    
   1690000   698.95158     -5455905.2      197.2361       197.2361       197.2361      -88.586013    
   1691000   700.2462      -5455825        197.2361       197.2361       197.2361      -257.30566    
   1692000   699.88176     -5455797.5      197.2361       197.2361       197.2361      -277.56665    
   1693000   701.74101     -5455838.2      197.2361       197.2361       197.2361      -195.91171    
   1694000   699.43063     -5455870.3      197.2361       197.2361       197.2361      -288.92151    
   1695000   698.49397     -5455984.1      197.2361       197.2361       197.2361      -133.6157     
   1696000   699.33323     -5455828.9      197.2361       197.2361       197.2361      -221.70003    
   1697000   700.65463     -5455837.5      197.2361       197.2361       197.2361      -85.536591    
   1698000   698.63009     -5455957.2      197.2361       197.2361       197.2361      -195.66441    
   1699000   697.50509     -5456049.1      197.2361       197.2361       197.2361      -26.08242     
   1700000   700.13992     -5455825.6      197.2361       197.2361       197.2361      -179.41636    
   1701000   699.33264     -5455921.2      197.2361       197.2361       197.2361      -157.69256    
   1702000   699.20974     -5455949.7      197.2361       197.2361       197.2361      -100.38231    
   1703000   699.81441     -5455916.7      197.2361       197.2361       197.2361      -116.14024    
   1704000   700.77857     -5455785        197.2361       197.2361       197.2361      -106.09245    
   1705000   701.22715     -5455740.3      197.2361       197.2361       197.2361      -231.42513    
   1706000   700.31137     -5455891.4      197.2361       197.2361       197.2361      -90.973845    
   1707000   699.02313     -5455916.4      197.2361       197.2361       197.2361      -101.30718    
   1708000   699.28801     -5455897.4      197.2361       197.2361       197.2361      -30.496066    
   1709000   699.828       -5455775.7      197.2361       197.2361       197.2361      -51.413347    
   1710000   701.19355     -5455842.1      197.2361       197.2361       197.2361      -98.632549    
   1711000   700.19565     -5455843.3      197.2361       197.2361       197.2361      -29.203256    
   1712000   699.90224     -5455818.2      197.2361       197.2361       197.2361      -100.43582    
   1713000   699.58779     -5455957.5      197.2361       197.2361       197.2361      -151.17363    
   1714000   699.06135     -5455949.2      197.2361       197.2361       197.2361      -59.749269    
   1715000   698.52094     -5455968.9      197.2361       197.2361       197.2361       48.660766    
   1716000   700.42916     -5455771.2      197.2361       197.2361       197.2361      -142.15173    
   1717000   700.14806     -5455873.4      197.2361       197.2361       197.2361      -99.368813    
   1718000   698.37133     -5455899.9      197.2361       197.2361       197.2361      -92.412383    
   1719000   698.71727     -5455988.6      197.2361       197.2361       197.2361      -154.49913    
   1720000   700.62399     -5455814.4      197.2361       197.2361       197.2361      -185.29513    
   1721000   701.59887     -5455713.7      197.2361       197.2361       197.2361      -118.81651    
   1722000   700.51852     -5455833.1      197.2361       197.2361       197.2361      -147.92022    
   1723000   700.20694     -5455926.5      197.2361       197.2361       197.2361      -236.68525    
   1724000   699.14686     -5455931.5      197.2361       197.2361       197.2361      -80.383173    
   1725000   700.38734     -5455839.5      197.2361       197.2361       197.2361      -101.00081    
   1726000   701.18528     -5455825.3      197.2361       197.2361       197.2361      -204.11887    
   1727000   699.80718     -5455853.7      197.2361       197.2361       197.2361      -221.4364     
   1728000   701.39251     -5455756.7      197.2361       197.2361       197.2361      -74.262787    
   1729000   700.91341     -5455887.3      197.2361       197.2361       197.2361      -86.466508    
   1730000   699.66075     -5455947.9      197.2361       197.2361       197.2361      -186.28142    
   1731000   699.52218     -5455891.3      197.2361       197.2361       197.2361      -308.47517    
   1732000   701.55244     -5455788.6      197.2361       197.2361       197.2361      -136.54789    
   1733000   699.73876     -5455871.9      197.2361       197.2361       197.2361      -63.016987    
   1734000   701.20186     -5455715.5      197.2361       197.2361       197.2361      -143.47399    
   1735000   700.50807     -5455840.9      197.2361       197.2361       197.2361      -147.07913    
   1736000   698.74187     -5455941.7      197.2361       197.2361       197.2361      -191.09333    
   1737000   700.545       -5455779.8      197.2361       197.2361       197.2361      -87.508911    
   1738000   700.65522     -5455831.9      197.2361       197.2361       197.2361      -169.41669    
   1739000   699.22026     -5455885.3      197.2361       197.2361       197.2361      -256.49856    
   1740000   700.081       -5455777        197.2361       197.2361       197.2361      -134.8149     
   1741000   699.22933     -5455899.2      197.2361       197.2361       197.2361      -272.5724     
   1742000   699.88697     -5455808.8      197.2361       197.2361       197.2361      -273.87583    
   1743000   699.99439     -5455868.7      197.2361       197.2361       197.2361      -113.35396    
   1744000   700.94107     -5455808.8      197.2361       197.2361       197.2361      -361.66171    
   1745000   698.6064      -5455941.7      197.2361       197.2361       197.2361      -158.25699    
   1746000   701.73        -5455828.4      197.2361       197.2361       197.2361      -159.54766    
   1747000   699.69479     -5455927.6      197.2361       197.2361       197.2361      -145.25661    
   1748000   699.15811     -5455924.7      197.2361       197.2361       197.2361      -106.88152    
   1749000   700.42581     -5455948.1      197.2361       197.2361       197.2361      -235.03547    
   1750000   701.17892     -5455773.4      197.2361       197.2361       197.2361      -95.397397    
   1751000   700.14288     -5455799.7      197.2361       197.2361       197.2361      -111.12774    
   1752000   698.88081     -5455934.6      197.2361       197.2361       197.2361      -81.872109    
   1753000   699.99558     -5455861.4      197.2361       197.2361       197.2361      -165.03902    
   1754000   700.11984     -5455898.7      197.2361       197.2361       197.2361      -132.77951    
   1755000   700.40795     -5455805.4      197.2361       197.2361       197.2361      -106.95829    
   1756000   700.3879      -5455869.7      197.2361       197.2361       197.2361      -178.08107    
   1757000   700.81597     -5455772.4      197.2361       197.2361       197.2361      -215.70002    
   1758000   699.70073     -5455909.9      197.2361       197.2361       197.2361      -142.22028    
   1759000   700.73176     -5455758.5      197.2361       197.2361       197.2361      -21.497369    
   1760000   700.47433     -5455861.7      197.2361       197.2361       197.2361      -56.191036    
   1761000   699.74592     -5455879.7      197.2361       197.2361       197.2361      -11.550204    
   1762000   699.67213     -5455867.1      197.2361       197.2361       197.2361      -158.83903    
   1763000   698.84055     -5455983.2      197.2361       197.2361       197.2361      -212.54735    
   1764000   698.73264     -5455904.8      197.2361       197.2361       197.2361      -170.25102    
   1765000   698.95561     -5455958.9      197.2361       197.2361       197.2361      -228.25187    
   1766000   699.60056     -5455822.8      197.2361       197.2361       197.2361      -291.69357    
   1767000   700.42861     -5455841.9      197.2361       197.2361       197.2361      -240.35144    
   1768000   700.33224     -5455803.2      197.2361       197.2361       197.2361      -191.01299    
   1769000   700.5727      -5455828.7      197.2361       197.2361       197.2361      -199.30255    
   1770000   700.72731     -5455772.9      197.2361       197.2361       197.2361      -43.850497    
   1771000   700.34007     -5455830.2      197.2361       197.2361       197.2361      -304.65577    
   1772000   700.45954     -5455845.8      197.2361       197.2361       197.2361      -229.17583    
   1773000   700.1168      -5455868.6      197.2361       197.2361       197.2361      -250.72467    
   1774000   699.88783     -5455858.2      197.2361       197.2361       197.2361      -147.19139    
   1775000   699.38951     -5455876.2      197.2361       197.2361       197.2361      -97.153516    
   1776000   700.13433     -5455765.6      197.2361       197.2361       197.2361      -141.18615    
   1777000   699.31843     -5455858.9      197.2361       197.2361       197.2361      -60.308382    
   1778000   699.27572     -5455898.2      197.2361       197.2361       197.2361      -311.82736    
   1779000   700.46798     -5455837.4      197.2361       197.2361       197.2361      -159.614      
   1780000   701.18662     -5455793.1      197.2361       197.2361       197.2361      -102.25376    
   1781000   699.95447     -5455949.1      197.2361       197.2361       197.2361      -266.02554    
   1782000   700.08557     -5455817        197.2361       197.2361       197.2361      -218.45875    
   1783000   699.97555     -5455787.2      197.2361       197.2361       197.2361      -243.69422    
   1784000   701.10703     -5455827.5      197.2361       197.2361       197.2361      -145.98479    
   1785000   701.13351     -5455795.6      197.2361       197.2361       197.2361      -179.66761    
   1786000   699.46179     -5455823.4      197.2361       197.2361       197.2361      -311.77429    
   1787000   698.88292     -5456029        197.2361       197.2361       197.2361      -356.84991    
   1788000   700.83392     -5455882.1      197.2361       197.2361       197.2361      -195.22963    
   1789000   701.08201     -5455864.6      197.2361       197.2361       197.2361      -192.43237    
   1790000   700.1741      -5455873.9      197.2361       197.2361       197.2361      -56.979077    
   1791000   699.42306     -5455921.5      197.2361       197.2361       197.2361      -273.78601    
   1792000   699.97991     -5455848.7      197.2361       197.2361       197.2361      -114.1355     
   1793000   700.03562     -5455821.2      197.2361       197.2361       197.2361      -132.78505    
   1794000   700.01118     -5455856.7      197.2361       197.2361       197.2361      -194.46498    
   1795000   702.01222     -5455790.6      197.2361       197.2361       197.2361      -271.09526    
   1796000   700.82237     -5455803.7      197.2361       197.2361       197.2361      -150.74341    
   1797000   700.15623     -5455870.2      197.2361       197.2361       197.2361      -167.03526    
   1798000   701.9643      -5455697.8      197.2361       197.2361       197.2361      -94.995347    
   1799000   699.37491     -5455831.1      197.2361       197.2361       197.2361      -125.94276    
   1800000   699.58602     -5455948.2      197.2361       197.2361       197.2361      -167.39887    
   1801000   699.03236     -5455890.8      197.2361       197.2361       197.2361      -119.37262    
   1802000   699.65754     -5455870.1      197.2361       197.2361       197.2361      -118.64258    
   1803000   700.46277     -5455794.9      197.2361       197.2361       197.2361       25.28171     
   1804000   699.47276     -5455918.1      197.2361       197.2361       197.2361      -66.598997    
   1805000   700.02237     -5455855.1      197.2361       197.2361       197.2361      -9.2238151    
   1806000   698.63311     -5455921.7      197.2361       197.2361       197.2361      -67.498761    
   1807000   700.24578     -5455972.4      197.2361       197.2361       197.2361      -116.12147    
   1808000   699.42751     -5455825.5      197.2361       197.2361       197.2361      -63.028117    
   1809000   700.62556     -5455788.6      197.2361       197.2361       197.2361       114.83529    
   1810000   700.27314     -5455860.2      197.2361       197.2361       197.2361      -114.7433     
   1811000   699.78645     -5455876        197.2361       197.2361       197.2361      -163.975      
   1812000   699.95108     -5455837.5      197.2361       197.2361       197.2361      -110.17367    
   1813000   699.17713     -5456014.3      197.2361       197.2361       197.2361      -124.11368    
   1814000   699.67083     -5455889.1      197.2361       197.2361       197.2361      -104.58827    
   1815000   699.92418     -5455906.3      197.2361       197.2361       197.2361      -164.11881    
   1816000   699.49623     -5455794.5      197.2361       197.2361       197.2361      -113.78703    
   1817000   701.49053     -5455750.2      197.2361       197.2361       197.2361      -62.9582      
   1818000   700.8438      -5455699.6      197.2361       197.2361       197.2361      -123.13594    
   1819000   700.20922     -5455822.9      197.2361       197.2361       197.2361      -182.8554     
   1820000   699.77874     -5455854.3      197.2361       197.2361       197.2361      -130.38626    
   1821000   699.76405     -5455926.4      197.2361       197.2361       197.2361      -150.48195    
   1822000   700.03454     -5455797.6      197.2361       197.2361       197.2361      -154.04936    
   1823000   701.1469      -5455787.3      197.2361       197.2361       197.2361      -145.86556    
   1824000   700.87706     -5455841        197.2361       197.2361       197.2361      -192.8973     
   1825000   699.62507     -5455959.2      197.2361       197.2361       197.2361      -132.03727    
   1826000   700.24998     -5455771.6      197.2361       197.2361       197.2361      -230.20126    
   1827000   701.33775     -5455740.4      197.2361       197.2361       197.2361      -112.35748    
   1828000   698.66571     -5455976.5      197.2361       197.2361       197.2361      -192.94241    
   1829000   700.45538     -5455812.9      197.2361       197.2361       197.2361      -109.85633    
   1830000   699.30706     -5455901.1      197.2361       197.2361       197.2361      -163.1934     
   1831000   699.85298     -5455891.1      197.2361       197.2361       197.2361      -175.55088    
   1832000   699.34889     -5455949.6      197.2361       197.2361       197.2361      -172.02665    
   1833000   700.33816     -5455897.2      197.2361       197.2361       197.2361      -187.23792    
   1834000   700.14115     -5455813        197.2361       197.2361       197.2361      -268.82782    
   1835000   699.04864     -5455898.9      197.2361       197.2361       197.2361      -152.77331    
   1836000   699.26723     -5455807.6      197.2361       197.2361       197.2361      -193.00433    
   1837000   699.86976     -5455939        197.2361       197.2361       197.2361      -227.22335    
   1838000   700.71661     -5455917.9      197.2361       197.2361       197.2361      -246.73294    
   1839000   699.00068     -5455963.5      197.2361       197.2361       197.2361      -243.87326    
   1840000   701.92537     -5455803        197.2361       197.2361       197.2361      -181.2901     
   1841000   698.64093     -5455864.1      197.2361       197.2361       197.2361      -172.60775    
   1842000   699.33281     -5455967.2      197.2361       197.2361       197.2361      -337.98366    
   1843000   700.55148     -5455794.9      197.2361       197.2361       197.2361      -219.09112    
   1844000   699.55859     -5455870.5      197.2361       197.2361       197.2361      -280.93009    
   1845000   700.24978     -5455811.4      197.2361       197.2361       197.2361      -118.45148    
   1846000   700.75458     -5455807.4      197.2361       197.2361       197.2361      -153.80188    
   1847000   699.56221     -5455916        197.2361       197.2361       197.2361      -250.6603     
   1848000   698.9396      -5455905.4      197.2361       197.2361       197.2361       0.76013793   
   1849000   700.3545      -5455918.9      197.2361       197.2361       197.2361      -65.191043    
   1850000   699.76254     -5455945.2      197.2361       197.2361       197.2361      -47.928438    
   1851000   700.10558     -5455826.4      197.2361       197.2361       197.2361      -149.22311    
   1852000   700.46708     -5455853.1      197.2361       197.2361       197.2361      -107.97743    
   1853000   701.2765      -5455842.5      197.2361       197.2361       197.2361      -267.11016    
   1854000   699.80057     -5455889.3      197.2361       197.2361       197.2361      -98.132755    
   1855000   700.14947     -5455844.5      197.2361       197.2361       197.2361      -96.857045    
   1856000   699.02295     -5455967.6      197.2361       197.2361       197.2361      -277.66478    
   1857000   701.12739     -5455835.9      197.2361       197.2361       197.2361      -245.00226    
   1858000   700.40774     -5455847.3      197.2361       197.2361       197.2361      -205.01679    
   1859000   699.68735     -5455815        197.2361       197.2361       197.2361      -231.64319    
   1860000   700.80143     -5455859.2      197.2361       197.2361       197.2361      -168.15422    
   1861000   700.06898     -5455896.1      197.2361       197.2361       197.2361      -271.4166     
   1862000   699.09984     -5456003.4      197.2361       197.2361       197.2361      -140.81132    
   1863000   699.27971     -5455952.4      197.2361       197.2361       197.2361      -214.01418    
   1864000   698.13621     -5455987.7      197.2361       197.2361       197.2361      -173.7713     
   1865000   700.58401     -5455931.8      197.2361       197.2361       197.2361      -211.82956    
   1866000   699.56391     -5455870.5      197.2361       197.2361       197.2361      -7.8008987    
   1867000   699.1921      -5455902.8      197.2361       197.2361       197.2361      -168.15321    
   1868000   699.52096     -5455904.9      197.2361       197.2361       197.2361      -231.79244    
   1869000   699.39876     -5455868.5      197.2361       197.2361       197.2361      -193.76166    
   1870000   700.47752     -5455790        197.2361       197.2361       197.2361      -136.65426    
   1871000   698.68977     -5455992.2      197.2361       197.2361       197.2361      -214.42566    
   1872000   699.89382     -5455931.2      197.2361       197.2361       197.2361      -15.418863    
   1873000   699.16012     -5455915.1      197.2361       197.2361       197.2361      -118.19082    
   1874000   700.70623     -5455804.9      197.2361       197.2361       197.2361      -261.07112    
   1875000   699.12569     -5455876.4      197.2361       197.2361       197.2361      -287.51831    
   1876000   699.30378     -5455835.8      197.2361       197.2361       197.2361      -265.89497    
   1877000   698.21608     -5455912.2      197.2361       197.2361       197.2361      -210.3616     
   1878000   701.74762     -5455759.2      197.2361       197.2361       197.2361      -249.10539    
   1879000   698.90679     -5455931.6      197.2361       197.2361       197.2361      -334.33347    
   1880000   701.02788     -5455864.3      197.2361       197.2361       197.2361      -389.90449    
   1881000   699.31843     -5455953.4      197.2361       197.2361       197.2361      -213.48906    
   1882000   699.87241     -5455827.7      197.2361       197.2361       197.2361      -428.82166    
   1883000   699.2331      -5455915.8      197.2361       197.2361       197.2361      -259.05384    
   1884000   700.07591     -5455895.4      197.2361       197.2361       197.2361      -232.16712    
   1885000   698.1407      -5455945.1      197.2361       197.2361       197.2361      -336.50713    
   1886000   699.8983      -5455912.8      197.2361       197.2361       197.2361      -287.51154    
   1887000   700.75992     -5455918.8      197.2361       197.2361       197.2361      -157.2982     
   1888000   699.85368     -5455897.7      197.2361       197.2361       197.2361      -265.42624    
   1889000   700.31997     -5455969.2      197.2361       197.2361       197.2361      -234.22181    
   1890000   698.50524     -5456022.6      197.2361       197.2361       197.2361      -210.42299    
   1891000   699.14662     -5455963.2      197.2361       197.2361       197.2361      -232.80183    
   1892000   698.85063     -5455948.4      197.2361       197.2361       197.2361      -124.28322    
   1893000   699.07443     -5455884.7      197.2361       197.2361       197.2361      -194.58873    
   1894000   700.54205     -5455850.6      197.2361       197.2361       197.2361      -153.7428     
   1895000   699.76584     -5455955.8      197.2361       197.2361       197.2361      -204.08443    
   1896000   698.33086     -5455927.5      197.2361       197.2361       197.2361      -269.78536    
   1897000   700.79889     -5455897.7      197.2361       197.2361       197.2361      -178.9136     
   1898000   700.07898     -5455943        197.2361       197.2361       197.2361      -196.68229    
   1899000   700.38975     -5455886.4      197.2361       197.2361       197.2361      -272.00478    
   1900000   699.38338     -5455858.8      197.2361       197.2361       197.2361      -196.3033     
   1901000   699.60438     -5455974.3      197.2361       197.2361       197.2361      -257.53417    
   1902000   699.65321     -5455944        197.2361       197.2361       197.2361      -263.55892    
   1903000   700.42244     -5455848.7      197.2361       197.2361       197.2361      -186.60452    
   1904000   699.0722      -5455876.2      197.2361       197.2361       197.2361      -303.09984    
   1905000   699.04686     -5455922.8      197.2361       197.2361       197.2361      -314.79547    
   1906000   700.36238     -5455809        197.2361       197.2361       197.2361      -135.22949    
   1907000   699.251       -5455939.9      197.2361       197.2361       197.2361      -242.47829    
   1908000   699.76992     -5455895.2      197.2361       197.2361       197.2361      -164.99194    
   1909000   700.11687     -5455894.1      197.2361       197.2361       197.2361      -122.11823    
   1910000   701.57398     -5455776.3      197.2361       197.2361       197.2361      -142.28714    
   1911000   699.99117     -5455937.7      197.2361       197.2361       197.2361      -308.1008     
   1912000   700.53527     -5455848.6      197.2361       197.2361       197.2361      -193.11129    
   1913000   699.86484     -5455909.4      197.2361       197.2361       197.2361      -215.68653    
   1914000   700.38831     -5455833.2      197.2361       197.2361       197.2361      -221.94141    
   1915000   699.30943     -5455838.6      197.2361       197.2361       197.2361      -51.02279     
   1916000   700.02964     -5455876.5      197.2361       197.2361       197.2361      -90.270546    
   1917000   698.82615     -5455899.8      197.2361       197.2361       197.2361      -68.258004    
   1918000   700.18422     -5455898.4      197.2361       197.2361       197.2361      -176.78735    
   1919000   699.62081     -5455919        197.2361       197.2361       197.2361      -87.920608    
   1920000   700.768       -5455787.4      197.2361       197.2361       197.2361      -154.92332    
   1921000   699.17031     -5455930.3      197.2361       197.2361       197.2361      -107.46141    
   1922000   699.61702     -5455927        197.2361       197.2361       197.2361      -255.55456    
   1923000   699.97187     -5455882.8      197.2361       197.2361       197.2361      -195.95933    
   1924000   700.25266     -5455920.5      197.2361       197.2361       197.2361      -62.660929    
   1925000   699.25208     -5455960.5      197.2361       197.2361       197.2361      -166.88638    
   1926000   701.3075      -5455819.5      197.2361       197.2361       197.2361      -131.31776    
   1927000   700.42245     -5455881.8      197.2361       197.2361       197.2361      -223.54967    
   1928000   699.65742     -5455982.8      197.2361       197.2361       197.2361      -59.679735    
   1929000   699.99846     -5455862.8      197.2361       197.2361       197.2361       7.9211099    
   1930000   699.9263      -5455874.7      197.2361       197.2361       197.2361      -151.06185    
   1931000   700.04285     -5455931.6      197.2361       197.2361       197.2361      -145.97037    
   1932000   700.56331     -5455776        197.2361       197.2361       197.2361      -79.989968    
   1933000   699.84016     -5455864.5      197.2361       197.2361       197.2361      -94.782339    
   1934000   698.81958     -5455978        197.2361       197.2361       197.2361      -73.861504    
   1935000   700.69932     -5455860.3      197.2361       197.2361       197.2361      -106.82363    
   1936000   702.17903     -5455772        197.2361       197.2361       197.2361      -105.13901    
   1937000   700.56294     -5455790.3      197.2361       197.2361       197.2361      -121.28565    
   1938000   699.18425     -5455920.8      197.2361       197.2361       197.2361      -90.052747    
   1939000   699.9756      -5455854.1      197.2361       197.2361       197.2361      -41.528692    
   1940000   699.92172     -5455905.4      197.2361       197.2361       197.2361      -142.71615    
   1941000   700.01401     -5455888.3      197.2361       197.2361       197.2361      -208.27065    
   1942000   699.95274     -5455950.9      197.2361       197.2361       197.2361      -196.81948    
   1943000   700.75804     -5455785.1      197.2361       197.2361       197.2361       34.188619    
   1944000   699.78103     -5455843.1      197.2361       197.2361       197.2361      -157.22286    
   1945000   700.80497     -5455814.2      197.2361       197.2361       197.2361      -252.50414    
   1946000   700.16065     -5455925.2      197.2361       197.2361       197.2361      -390.0086     
   1947000   700.51842     -5455905.6      197.2361       197.2361       197.2361      -152.72893    
   1948000   699.07935     -5455890        197.2361       197.2361       197.2361      -212.57753    
   1949000   699.89438     -5455851.3      197.2361       197.2361       197.2361      -268.71341    
   1950000   700.6068      -5455852.8      197.2361       197.2361       197.2361      -248.40211    
   1951000   699.45183     -5455857.9      197.2361       197.2361       197.2361      -109.59753    
   1952000   700.22542     -5455937.5      197.2361       197.2361       197.2361      -121.45226    
   1953000   700.64216     -5455823.5      197.2361       197.2361       197.2361      -298.39785    
   1954000   700.45014     -5455925        197.2361       197.2361       197.2361      -204.28883    
   1955000   699.77232     -5455972.5      197.2361       197.2361       197.2361      -203.88178    
   1956000   699.76723     -5455883.7      197.2361       197.2361       197.2361      -47.998332    
   1957000   700.29062     -5455818.4      197.2361       197.2361       197.2361      -202.73199    
   1958000   700.74545     -5455755.3      197.2361       197.2361       197.2361      -64.181348    
   1959000   700.08353     -5455841        197.2361       197.2361       197.2361      -303.44264    
   1960000   700.27219     -5455832        197.2361       197.2361       197.2361      -59.878011    
   1961000   700.61163     -5455802.5      197.2361       197.2361       197.2361      -239.95323    
   1962000   700.3017      -5455855.7      197.2361       197.2361       197.2361      -193.51035    
   1963000   698.93303     -5455958.8      197.2361       197.2361       197.2361      -196.99897    
   1964000   698.89417     -5455958.8      197.2361       197.2361       197.2361      -248.49211    
   1965000   700.9559      -5455865.5      197.2361       197.2361       197.2361      -231.12592    
   1966000   699.74077     -5455822.1      197.2361       197.2361       197.2361      -257.792      
   1967000   700.42335     -5455815.8      197.2361       197.2361       197.2361      -61.74206     
   1968000   701.34691     -5455748.8      197.2361       197.2361       197.2361      -127.95157    
   1969000   699.43981     -5455918.4      197.2361       197.2361       197.2361      -169.4262     
   1970000   700.35091     -5455868.4      197.2361       197.2361       197.2361      -217.11368    
   1971000   700.8122      -5455758.3      197.2361       197.2361       197.2361      -181.18384    
   1972000   700.80438     -5455864.5      197.2361       197.2361       197.2361      -170.63065    
   1973000   700.49203     -5455902.7      197.2361       197.2361       197.2361      -8.2980804    
   1974000   699.63175     -5455879.3      197.2361       197.2361       197.2361      -223.37668    
   1975000   700.05991     -5455878.1      197.2361       197.2361       197.2361      -86.436263    
   1976000   699.94832     -5455927.8      197.2361       197.2361       197.2361       85.144247    
   1977000   700.054       -5455867.3      197.2361       197.2361       197.2361      -112.73983    
   1978000   699.74657     -5455909.9      197.2361       197.2361       197.2361       20.314303    
   1979000   700.46265     -5455898.7      197.2361       197.2361       197.2361      -97.649502    
   1980000   699.25294     -5455915.4      197.2361       197.2361       197.2361      -102.73757    
   1981000   700.49853     -5455867.4      197.2361       197.2361       197.2361      -209.97521    
   1982000   700.13103     -5455810.9      197.2361       197.2361       197.2361      -53.264948    
   1983000   699.70818     -5455911.4      197.2361       197.2361       197.2361      -182.44366    
   1984000   699.32614     -5455817.9      197.2361       197.2361       197.2361      -70.558081    
   1985000   701.13095     -5455786.8      197.2361       197.2361       197.2361      -86.339667    
   1986000   699.97809     -5455864.9      197.2361       197.2361       197.2361      -37.871858    
   1987000   699.14449     -5455930.5      197.2361       197.2361       197.2361      -84.318151    
   1988000   700.58547     -5455844.5      197.2361       197.2361       197.2361      -238.41524    
   1989000   700.74232     -5455859.1      197.2361       197.2361       197.2361       55.89503     
   1990000   700.25918     -5455841        197.2361       197.2361       197.2361      -117.11651    
   1991000   700.12527     -5455790.3      197.2361       197.2361       197.2361      -174.79904    
   1992000   701.09789     -5455820        197.2361       197.2361       197.2361      -66.917782    
   1993000   699.46071     -5455960.6      197.2361       197.2361       197.2361      -58.542605    
   1994000   701.25164     -5455840.5      197.2361       197.2361       197.2361      -231.70426    
   1995000   699.40229     -5455880.5      197.2361       197.2361       197.2361      -172.17294    
   1996000   699.78388     -5456064.8      197.2361       197.2361       197.2361      -271.3858     
   1997000   699.61645     -5455849        197.2361       197.2361       197.2361      -191.63632    
   1998000   700.01318     -5455844.9      197.2361       197.2361       197.2361      -232.48436    
   1999000   698.91573     -5455949.4      197.2361       197.2361       197.2361      -116.6391     
   2000000   700.53922     -5455812.9      197.2361       197.2361       197.2361      -14.98276     
   2001000   699.66563     -5455903.5      197.2361       197.2361       197.2361      -319.75855    
   2002000   698.90145     -5455859        197.2361       197.2361       197.2361      -124.38095    
   2003000   701.63102     -5455765.1      197.2361       197.2361       197.2361      -195.51705    
   2004000   699.34319     -5455907.7      197.2361       197.2361       197.2361      -165.5721     
   2005000   700.78505     -5455874.3      197.2361       197.2361       197.2361      -221.41999    
   2006000   700.17386     -5455838        197.2361       197.2361       197.2361       2.6070866    
   2007000   700.29387     -5455917.9      197.2361       197.2361       197.2361      -239.05517    
   2008000   701.21127     -5455848.8      197.2361       197.2361       197.2361      -144.37273    
   2009000   699.14879     -5455864.8      197.2361       197.2361       197.2361      -44.709023    
   2010000   700.29832     -5455829.9      197.2361       197.2361       197.2361       15.719365    
   2011000   701.33039     -5455836        197.2361       197.2361       197.2361      -117.16727    
   2012000   699.66596     -5456001.9      197.2361       197.2361       197.2361      -155.26065    
   2013000   700.93034     -5455770.6      197.2361       197.2361       197.2361      -71.915115    
   2014000   698.44747     -5455972.9      197.2361       197.2361       197.2361      -182.44506    
   2015000   700.6945      -5455785.6      197.2361       197.2361       197.2361      -54.855688    
   2016000   699.79283     -5455902.2      197.2361       197.2361       197.2361      -141.43867    
   2017000   700.94171     -5455824.1      197.2361       197.2361       197.2361      -207.09783    
   2018000   698.82147     -5455977.7      197.2361       197.2361       197.2361      -134.45983    
   2019000   698.29518     -5455989.4      197.2361       197.2361       197.2361      -49.595285    
   2020000   700.70529     -5455885.4      197.2361       197.2361       197.2361      -9.2807655    
   2021000   699.70837     -5455964.2      197.2361       197.2361       197.2361      -181.78767    
   2022000   700.77588     -5455823.8      197.2361       197.2361       197.2361      -124.16573    
   2023000   699.81055     -5455922        197.2361       197.2361       197.2361      -82.597031    
   2024000   699.59424     -5455878.7      197.2361       197.2361       197.2361      -140.90213    
   2025000   700.06014     -5455926.3      197.2361       197.2361       197.2361      -142.16414    
   2026000   699.8881      -5455976.7      197.2361       197.2361       197.2361      -188.87245    
   2027000   698.91848     -5455939        197.2361       197.2361       197.2361      -2.7649087    
   2028000   698.9564      -5455950.9      197.2361       197.2361       197.2361      -191.72786    
   2029000   700.18937     -5455895.4      197.2361       197.2361       197.2361      -183.43731    
   2030000   700.19648     -5455896.3      197.2361       197.2361       197.2361      -165.90288    
   2031000   700.52449     -5455888.1      197.2361       197.2361       197.2361      -63.854173    
   2032000   699.12564     -5455906.4      197.2361       197.2361       197.2361      -216.01399    
   2033000   700.29248     -5455837.6      197.2361       197.2361       197.2361      -153.43524    
   2034000   699.78912     -5455907        197.2361       197.2361       197.2361      -303.53288    
   2035000   699.38253     -5455874.9      197.2361       197.2361       197.2361      -147.48975    
   2036000   701.02402     -5455791.9      197.2361       197.2361       197.2361      -177.52495    
   2037000   700.53122     -5455825.2      197.2361       197.2361       197.2361      -88.097435    
   2038000   701.30371     -5455859.5      197.2361       197.2361       197.2361      -217.86976    
   2039000   701.28417     -5455901.7      197.2361       197.2361       197.2361      -142.19418    
   2040000   699.37424     -5455960.4      197.2361       197.2361       197.2361      -256.99786    
   2041000   699.56509     -5455952.7      197.2361       197.2361       197.2361      -115.20487    
   2042000   700.80261     -5455873.3      197.2361       197.2361       197.2361      -271.85379    
   2043000   699.10924     -5455905.7      197.2361       197.2361       197.2361      -285.12598    
   2044000   700.63238     -5455857.8      197.2361       197.2361       197.2361      -197.26217    
   2045000   699.89894     -5455873.7      197.2361       197.2361       197.2361      -236.79622    
   2046000   702.18673     -5455777.5      197.2361       197.2361       197.2361      -116.22037    
   2047000   699.784       -5455815.3      197.2361       197.2361       197.2361      -237.62499    
   2048000   699.98465     -5455928.2      197.2361       197.2361       197.2361      -240.4424     
   2049000   699.55555     -5455902.4      197.2361       197.2361       197.2361      -187.81883    
   2050000   699.35778     -5455881.2      197.2361       197.2361       197.2361      -112.37461    
   2051000   699.94018     -5455887.8      197.2361       197.2361       197.2361      -208.34797    
   2052000   700.29603     -5455931.8      197.2361       197.2361       197.2361      -259.66098    
   2053000   700.87831     -5455880.7      197.2361       197.2361       197.2361      -89.760375    
   2054000   700.25558     -5455809        197.2361       197.2361       197.2361      -112.48541    
   2055000   699.36826     -5455856.1      197.2361       197.2361       197.2361      -28.70884     
   2056000   699.13259     -5455961.6      197.2361       197.2361       197.2361      -207.84493    
   2057000   699.13664     -5455992.2      197.2361       197.2361       197.2361      -195.42682    
   2058000   699.8627      -5455889.9      197.2361       197.2361       197.2361       16.133601    
   2059000   700.09634     -5455921.1      197.2361       197.2361       197.2361       37.734094    
   2060000   699.26046     -5455976.1      197.2361       197.2361       197.2361      -175.2165     
   2061000   700.22657     -5455886.4      197.2361       197.2361       197.2361      -107.48177    
   2062000   700.70683     -5455892.6      197.2361       197.2361       197.2361      -37.4373      
   2063000   701.1955      -5455908.3      197.2361       197.2361       197.2361      -135.00785    
   2064000   701.04037     -5455882.9      197.2361       197.2361       197.2361      -63.309564    
   2065000   699.94682     -5455851.1      197.2361       197.2361       197.2361      -124.7631     
   2066000   699.58309     -5455813.2      197.2361       197.2361       197.2361      -141.66596    
   2067000   699.67759     -5455828.2      197.2361       197.2361       197.2361      -55.086878    
   2068000   699.68248     -5455910.1      197.2361       197.2361       197.2361      -93.285117    
   2069000   699.74361     -5455915.1      197.2361       197.2361       197.2361      -58.192936    
   2070000   702.02714     -5455728.1      197.2361       197.2361       197.2361      -68.646368    
   2071000   698.21641     -5455975.8      197.2361       197.2361       197.2361      -146.60847    
   2072000   701.05083     -5455827.8      197.2361       197.2361       197.2361      -138.48216    
   2073000   698.99096     -5456003.3      197.2361       197.2361       197.2361      -258.15783    
   2074000   699.40091     -5455975.4      197.2361       197.2361       197.2361      -143.47176    
   2075000   699.53898     -5455895.6      197.2361       197.2361       197.2361      -202.68494    
   2076000   700.76103     -5455941.8      197.2361       197.2361       197.2361      -100.47631    
   2077000   699.73871     -5455786.4      197.2361       197.2361       197.2361      -60.798732    
   2078000   699.45875     -5455877.7      197.2361       197.2361       197.2361      -58.362255    
   2079000   700.57098     -5455885.6      197.2361       197.2361       197.2361       68.544846    
   2080000   700.1386      -5455871.1      197.2361       197.2361       197.2361      -27.607729    
   2081000   700.30445     -5455932.7      197.2361       197.2361       197.2361      -212.52415    
   2082000   699.19443     -5455971.7      197.2361       197.2361       197.2361      -154.23251    
   2083000   698.86479     -5455942.5      197.2361       197.2361       197.2361      -180.74923    
   2084000   701.22822     -5455840.2      197.2361       197.2361       197.2361      -297.72752    
   2085000   701.28225     -5455755.5      197.2361       197.2361       197.2361      -284.16516    
   2086000   701.10817     -5455878.2      197.2361       197.2361       197.2361      -200.3025     
   2087000   699.75032     -5455884.9      197.2361       197.2361       197.2361      -286.86677    
   2088000   700.08966     -5455920        197.2361       197.2361       197.2361      -304.72889    
   2089000   698.88868     -5455954.7      197.2361       197.2361       197.2361      -75.407796    
   2090000   700.66811     -5455963.9      197.2361       197.2361       197.2361      -322.77027    
   2091000   700.18725     -5455936.2      197.2361       197.2361       197.2361      -278.91777    
   2092000   699.56723     -5455931        197.2361       197.2361       197.2361      -84.960741    
   2093000   699.51186     -5455921.1      197.2361       197.2361       197.2361      -206.94596    
   2094000   699.89168     -5455877.6      197.2361       197.2361       197.2361      -199.26045    
   2095000   700.54719     -5455888.5      197.2361       197.2361       197.2361      -209.79997    
   2096000   699.1043      -5455937.1      197.2361       197.2361       197.2361      -237.64147    
   2097000   699.34089     -5455924.6      197.2361       197.2361       197.2361      -60.794682    
   2098000   699.47381     -5455969.3      197.2361       197.2361       197.2361      -156.21337    
   2099000   699.61926     -5455949.1      197.2361       197.2361       197.2361      -160.8632     
   2100000   699.96841     -5455862.7      197.2361       197.2361       197.2361       92.005361    
   2101000   699.33372     -5455930.1      197.2361       197.2361       197.2361      -146.10549    
   2102000   699.85748     -5455919        197.2361       197.2361       197.2361      -177.1589     
   2103000   701.19989     -5455829.2      197.2361       197.2361       197.2361       9.6516605    
   2104000   701.10962     -5455887.1      197.2361       197.2361       197.2361      -34.048329    
   2105000   698.98866     -5456033.2      197.2361       197.2361       197.2361      -45.172617    
   2106000   700.74097     -5455865.6      197.2361       197.2361       197.2361      -203.8577     
   2107000   699.56116     -5455892.8      197.2361       197.2361       197.2361       11.119436    
   2108000   699.21752     -5455936.6      197.2361       197.2361       197.2361      -240.35392    
   2109000   700.57008     -5455873.5      197.2361       197.2361       197.2361      -67.356224    
   2110000   698.13515     -5455945.6      197.2361       197.2361       197.2361      -23.116809    
   2111000   700.12699     -5455839        197.2361       197.2361       197.2361      -44.562179    
   2112000   700.90596     -5455948.9      197.2361       197.2361       197.2361      -157.46125    
   2113000   700.60701     -5455886.8      197.2361       197.2361       197.2361      -100.19401    
   2114000   700.53722     -5455845.3      197.2361       197.2361       197.2361      -30.52527     
   2115000   701.02534     -5455773.3      197.2361       197.2361       197.2361      -83.989594    
   2116000   701.73937     -5455822        197.2361       197.2361       197.2361      -116.60934    
   2117000   701.14053     -5455896.3      197.2361       197.2361       197.2361      -257.82522    
   2118000   698.28321     -5456039.6      197.2361       197.2361       197.2361      -399.08439    
   2119000   700.33582     -5455940.8      197.2361       197.2361       197.2361      -137.04642    
   2120000   700.32406     -5455932.1      197.2361       197.2361       197.2361      -185.6647     
   2121000   699.09173     -5455808.2      197.2361       197.2361       197.2361      -171.45935    
   2122000   700.75466     -5455874.6      197.2361       197.2361       197.2361      -284.60096    
   2123000   699.14242     -5455995        197.2361       197.2361       197.2361      -208.9168     
   2124000   700.49951     -5455878.7      197.2361       197.2361       197.2361      -263.76015    
   2125000   699.907       -5455787.2      197.2361       197.2361       197.2361      -146.73989    
   2126000   699.10869     -5455947        197.2361       197.2361       197.2361      -309.58794    
   2127000   699.75629     -5455921.5      197.2361       197.2361       197.2361      -217.32362    
   2128000   699.78214     -5455936.3      197.2361       197.2361       197.2361      -288.94492    
   2129000   700.68538     -5455876.1      197.2361       197.2361       197.2361      -215.70466    
   2130000   699.38271     -5455999.6      197.2361       197.2361       197.2361      -300.03773    
   2131000   700.45004     -5455835.8      197.2361       197.2361       197.2361      -179.01501    
   2132000   699.63335     -5455974.9      197.2361       197.2361       197.2361      -129.97668    
   2133000   699.76555     -5455890.9      197.2361       197.2361       197.2361      -149.84961    
   2134000   700.02137     -5455884.1      197.2361       197.2361       197.2361      -193.51676    
   2135000   701.1645      -5455941.3      197.2361       197.2361       197.2361      -251.14013    
   2136000   699.82187     -5455850.6      197.2361       197.2361       197.2361      -106.31345    
   2137000   699.40489     -5455880.4      197.2361       197.2361       197.2361      -208.76312    
   2138000   698.90426     -5455933.5      197.2361       197.2361       197.2361      -134.3409     
   2139000   701.13141     -5455786.6      197.2361       197.2361       197.2361      -167.478      
   2140000   699.82252     -5455891.9      197.2361       197.2361       197.2361      -230.28644    
   2141000   700.335       -5455892.9      197.2361       197.2361       197.2361      -93.338399    
   2142000   699.87468     -5455809        197.2361       197.2361       197.2361      -189.65179    
   2143000   699.58995     -5455876.9      197.2361       197.2361       197.2361      -110.84657    
   2144000   700.20622     -5455871.7      197.2361       197.2361       197.2361      -159.73593    
   2145000   699.3721      -5455873.3      197.2361       197.2361       197.2361      -228.06516    
   2146000   698.50075     -5456032        197.2361       197.2361       197.2361      -219.18171    
   2147000   700.05549     -5455930.9      197.2361       197.2361       197.2361      -155.87101    
   2148000   699.95945     -5455946.5      197.2361       197.2361       197.2361      -169.81173    
   2149000   699.65961     -5455860.4      197.2361       197.2361       197.2361      -165.73881    
   2150000   698.54743     -5455965        197.2361       197.2361       197.2361      -107.7498     
   2151000   699.60525     -5455838.4      197.2361       197.2361       197.2361      -237.81391    
   2152000   699.38966     -5455928.5      197.2361       197.2361       197.2361      -128.75227    
   2153000   699.58212     -5455968.6      197.2361       197.2361       197.2361      -247.79927    
   2154000   700.42634     -5455844        197.2361       197.2361       197.2361      -284.10926    
   2155000   700.43213     -5455943.9      197.2361       197.2361       197.2361      -231.6744     
   2156000   700.9299      -5455882        197.2361       197.2361       197.2361      -303.48861    
   2157000   700.10142     -5455919.5      197.2361       197.2361       197.2361      -140.76367    
   2158000   699.65987     -5455881.9      197.2361       197.2361       197.2361      -264.71966    
   2159000   699.98115     -5455882.1      197.2361       197.2361       197.2361      -83.518927    
   2160000   699.94371     -5455922        197.2361       197.2361       197.2361      -134.10472    
   2161000   699.07009     -5455923.8      197.2361       197.2361       197.2361      -103.36641    
   2162000   698.92176     -5455883.1      197.2361       197.2361       197.2361      -189.71602    
   2163000   700.15332     -5455916        197.2361       197.2361       197.2361      -192.99158    
   2164000   700.36062     -5455858.8      197.2361       197.2361       197.2361      -159.35942    
   2165000   699.05071     -5455909.8      197.2361       197.2361       197.2361      -153.25066    
   2166000   699.649       -5455949.6      197.2361       197.2361       197.2361      -203.18557    
   2167000   699.04772     -5455912.3      197.2361       197.2361       197.2361      -240.45003    
   2168000   700.8805      -5455852.7      197.2361       197.2361       197.2361      -217.50647    
   2169000   700.1536      -5455899.8      197.2361       197.2361       197.2361      -31.332458    
   2170000   701.17173     -5455948.9      197.2361       197.2361       197.2361      -131.26948    
   2171000   698.83884     -5455954.4      197.2361       197.2361       197.2361      -65.48213     
   2172000   699.41191     -5455900.8      197.2361       197.2361       197.2361      -44.831556    
   2173000   701.62713     -5455812        197.2361       197.2361       197.2361      -32.378916    
   2174000   700.00008     -5455790.2      197.2361       197.2361       197.2361      -164.64657    
   2175000   699.485       -5455902.4      197.2361       197.2361       197.2361      -98.588826    
   2176000   699.76636     -5455880.5      197.2361       197.2361       197.2361      -64.579664    
   2177000   700.74661     -5455889.5      197.2361       197.2361       197.2361       10.415606    
   2178000   699.87203     -5455887        197.2361       197.2361       197.2361      -63.036661    
   2179000   699.82312     -5455873        197.2361       197.2361       197.2361      -88.401734    
   2180000   700.31456     -5455859        197.2361       197.2361       197.2361      -110.11321    
   2181000   700.78815     -5455920.8      197.2361       197.2361       197.2361      -189.81832    
   2182000   700.00917     -5455944        197.2361       197.2361       197.2361      -78.193589    
   2183000   698.78378     -5455916.2      197.2361       197.2361       197.2361      -130.83325    
   2184000   699.93214     -5455925.6      197.2361       197.2361       197.2361      -121.7679     
   2185000   701.07717     -5455921.1      197.2361       197.2361       197.2361      -217.48142    
   2186000   699.17335     -5455850.1      197.2361       197.2361       197.2361      -139.36806    
   2187000   698.90143     -5455984.4      197.2361       197.2361       197.2361      -85.648218    
   2188000   700.21553     -5455868.4      197.2361       197.2361       197.2361      -86.925084    
   2189000   701.13808     -5455766.3      197.2361       197.2361       197.2361      -227.45205    
   2190000   699.38652     -5456010.6      197.2361       197.2361       197.2361      -151.76867    
   2191000   699.9544      -5455958.2      197.2361       197.2361       197.2361      -54.961464    
   2192000   699.69845     -5455843        197.2361       197.2361       197.2361      -64.818246    
   2193000   700.71668     -5455855.5      197.2361       197.2361       197.2361      -121.61087    
   2194000   699.44624     -5455926.4      197.2361       197.2361       197.2361      -163.74216    
   2195000   700.68567     -5455887.4      197.2361       197.2361       197.2361      -265.08612    
   2196000   700.43775     -5455852.2      197.2361       197.2361       197.2361      -298.96256    
   2197000   700.23914     -5455860.2      197.2361       197.2361       197.2361      -191.49014    
   2198000   699.23199     -5455960.1      197.2361       197.2361       197.2361      -249.41193    
   2199000   699.15844     -5455968        197.2361       197.2361       197.2361      -208.81725    
   2200000   698.76657     -5455903        197.2361       197.2361       197.2361      -169.68614    
   2201000   699.47295     -5455885.2      197.2361       197.2361       197.2361      -108.1168     
   2202000   700.62801     -5455868.2      197.2361       197.2361       197.2361      -222.03813    
   2203000   699.88948     -5455901.6      197.2361       197.2361       197.2361      -217.58208    
   2204000   700.25605     -5455911.2      197.2361       197.2361       197.2361      -192.2379     
   2205000   701.06422     -5455822.1      197.2361       197.2361       197.2361      -115.41626    
   2206000   699.21651     -5455942.4      197.2361       197.2361       197.2361      -143.90917    
   2207000   700.60132     -5455867.3      197.2361       197.2361       197.2361       32.228909    
   2208000   700.32666     -5455844.1      197.2361       197.2361       197.2361      -169.83363    
   2209000   698.60592     -5455977.7      197.2361       197.2361       197.2361      -189.12497    
   2210000   699.86732     -5455833        197.2361       197.2361       197.2361      -261.82386    
   2211000   699.85763     -5455999.9      197.2361       197.2361       197.2361      -192.13735    
   2212000   699.91586     -5455959.1      197.2361       197.2361       197.2361      -127.22999    
   2213000   702.05063     -5455797.2      197.2361       197.2361       197.2361      -132.54709    
   2214000   701.19309     -5455771.3      197.2361       197.2361       197.2361      -242.65526    
   2215000   701.00073     -5455915.9      197.2361       197.2361       197.2361      -240.29462    
   2216000   700.0275      -5455957.9      197.2361       197.2361       197.2361      -238.86469    
   2217000   699.22733     -5455984.3      197.2361       197.2361       197.2361      -332.54264    
   2218000   699.82718     -5455895.2      197.2361       197.2361       197.2361      -201.6469     
   2219000   700.64332     -5455954.5      197.2361       197.2361       197.2361      -162.74271    
   2220000   700.1026      -5455893.7      197.2361       197.2361       197.2361      -185.65554    
   2221000   700.90758     -5455893.1      197.2361       197.2361       197.2361      -121.2231     
   2222000   700.89372     -5455807.3      197.2361       197.2361       197.2361      -134.68637    
   2223000   700.96173     -5455883.6      197.2361       197.2361       197.2361      -78.604521    
   2224000   700.35761     -5455858        197.2361       197.2361       197.2361      -48.938577    
   2225000   701.19086     -5455873        197.2361       197.2361       197.2361      -107.02425    
   2226000   699.22051     -5455929.8      197.2361       197.2361       197.2361      -259.61698    
   2227000   699.75049     -5455938.6      197.2361       197.2361       197.2361      -178.83771    
   2228000   700.80866     -5455860.6      197.2361       197.2361       197.2361      -74.951864    
   2229000   700.61297     -5455788.9      197.2361       197.2361       197.2361      -281.22731    
   2230000   701.00274     -5455888.6      197.2361       197.2361       197.2361      -248.78407    
   2231000   699.36344     -5456019.3      197.2361       197.2361       197.2361      -294.21118    
   2232000   700.14545     -5455885.3      197.2361       197.2361       197.2361      -107.36583    
   2233000   700.80635     -5455817.3      197.2361       197.2361       197.2361      -161.04033    
   2234000   699.68433     -5455864.4      197.2361       197.2361       197.2361      -300.16066    
   2235000   699.69809     -5455990.9      197.2361       197.2361       197.2361      -106.37754    
   2236000   700.13272     -5455908.3      197.2361       197.2361       197.2361      -150.86986    
   2237000   701.02843     -5456005.2      197.2361       197.2361       197.2361      -212.91973    
   2238000   699.6395      -5455877.8      197.2361       197.2361       197.2361      -170.579      
   2239000   700.50599     -5455871.6      197.2361       197.2361       197.2361      -2.1733955    
   2240000   701.151       -5455860.1      197.2361       197.2361       197.2361      -209.07215    
   2241000   699.88482     -5455922.1      197.2361       197.2361       197.2361      -64.407027    
   2242000   700.6828      -5455828.8      197.2361       197.2361       197.2361       41.913499    
   2243000   700.4504      -5455902.3      197.2361       197.2361       197.2361      -204.69622    
   2244000   701.41554     -5455964.4      197.2361       197.2361       197.2361      -89.742672    
   2245000   700.87505     -5455879.1      197.2361       197.2361       197.2361      -173.84286    
   2246000   699.92798     -5455957.4      197.2361       197.2361       197.2361      -117.47491    
   2247000   698.97893     -5456010.4      197.2361       197.2361       197.2361      -110.96567    
   2248000   699.16474     -5455970.1      197.2361       197.2361       197.2361      -157.88678    
   2249000   700.24429     -5455843.3      197.2361       197.2361       197.2361      -123.90743    
   2250000   699.72332     -5455861.4      197.2361       197.2361       197.2361      -152.9158     
   2251000   699.4141      -5455972        197.2361       197.2361       197.2361      -178.07478    
   2252000   698.57951     -5455917.5      197.2361       197.2361       197.2361      -188.17396    
   2253000   700.8285      -5455928.5      197.2361       197.2361       197.2361      -174.71095    
   2254000   699.64565     -5455945.1      197.2361       197.2361       197.2361      -156.67806    
   2255000   700.29247     -5455903.4      197.2361       197.2361       197.2361      -166.94252    
   2256000   701.02155     -5455830        197.2361       197.2361       197.2361      -115.89232    
   2257000   700.52069     -5455899.8      197.2361       197.2361       197.2361      -224.94414    
   2258000   700.01898     -5455781.3      197.2361       197.2361       197.2361      -60.500192    
   2259000   699.92748     -5455883.4      197.2361       197.2361       197.2361      -244.15324    
   2260000   700.47254     -5455948.6      197.2361       197.2361       197.2361      -165.12542    
   2261000   700.19002     -5456011.5      197.2361       197.2361       197.2361      -145.29109    
   2262000   698.71176     -5455943.7      197.2361       197.2361       197.2361      -33.335314    
   2263000   700.10146     -5455952.3      197.2361       197.2361       197.2361      -153.82893    
   2264000   698.9394      -5455938.5      197.2361       197.2361       197.2361      -233.25605    
   2265000   699.67318     -5455933        197.2361       197.2361       197.2361       13.146247    
   2266000   699.12982     -5456022.6      197.2361       197.2361       197.2361      -223.52194    
   2267000   700.59378     -5455843.3      197.2361       197.2361       197.2361      -144.44214    
   2268000   700.7489      -5455998.5      197.2361       197.2361       197.2361      -110.33182    
   2269000   701.33344     -5455809        197.2361       197.2361       197.2361      -173.73585    
   2270000   699.95724     -5455968.1      197.2361       197.2361       197.2361      -61.756991    
   2271000   699.84062     -5455862.2      197.2361       197.2361       197.2361      -152.83307    
   2272000   700.19932     -5455907.4      197.2361       197.2361       197.2361      -33.87147     
   2273000   699.7152      -5455860.7      197.2361       197.2361       197.2361      -153.1425     
   2274000   699.58818     -5455911.1      197.2361       197.2361       197.2361      -192.09908    
   2275000   699.68656     -5455863.2      197.2361       197.2361       197.2361      -48.674506    
   2276000   699.47972     -5455883.8      197.2361       197.2361       197.2361      -256.05764    
   2277000   699.39925     -5455997.3      197.2361       197.2361       197.2361      -111.25627    
   2278000   700.08813     -5455870.8      197.2361       197.2361       197.2361      -131.87733    
   2279000   701.17217     -5455843.4      197.2361       197.2361       197.2361      -76.577302    
   2280000   701.23232     -5455856.6      197.2361       197.2361       197.2361      -249.66905    
   2281000   700.54578     -5455827.5      197.2361       197.2361       197.2361      -99.93165     
   2282000   700.59363     -5455892        197.2361       197.2361       197.2361      -171.77328    
   2283000   698.7069      -5455954.8      197.2361       197.2361       197.2361      -193.94339    
   2284000   699.96837     -5455812        197.2361       197.2361       197.2361      -123.13078    
   2285000   699.52101     -5455920.9      197.2361       197.2361       197.2361      -28.31018     
   2286000   699.39057     -5455939.6      197.2361       197.2361       197.2361      -237.38823    
   2287000   699.96869     -5455921.6      197.2361       197.2361       197.2361      -292.04262    
   2288000   700.01035     -5455996.3      197.2361       197.2361       197.2361      -153.08173    
   2289000   698.41621     -5455997.7      197.2361       197.2361       197.2361      -239.4741     
   2290000   700.38039     -5455964.5      197.2361       197.2361       197.2361      -170.10312    
   2291000   699.49861     -5455987.2      197.2361       197.2361       197.2361      -206.23416    
   2292000   699.62441     -5455937.2      197.2361       197.2361       197.2361      -182.58431    
   2293000   701.27608     -5455832.2      197.2361       197.2361       197.2361      -147.88072    
   2294000   699.16337     -5455826.1      197.2361       197.2361       197.2361      -210.4111     
   2295000   698.78405     -5456016.3      197.2361       197.2361       197.2361      -104.60115    
   2296000   699.75147     -5455894.5      197.2361       197.2361       197.2361      -243.0745     
   2297000   701.25722     -5455871.4      197.2361       197.2361       197.2361      -37.593807    
   2298000   699.37775     -5455828.2      197.2361       197.2361       197.2361      -33.123599    
   2299000   701.54674     -5455811.2      197.2361       197.2361       197.2361      -50.826202    
   2300000   700.40144     -5455937.3      197.2361       197.2361       197.2361      -222.27238    
   2301000   700.56879     -5455936.2      197.2361       197.2361       197.2361      -246.59022    
   2302000   699.68618     -5455912.1      197.2361       197.2361       197.2361      -135.2077     
   2303000   700.59107     -5455905        197.2361       197.2361       197.2361      -345.66668    
   2304000   699.78        -5455920        197.2361       197.2361       197.2361      -121.3543     
   2305000   700.96414     -5455871        197.2361       197.2361       197.2361      -229.39372    
   2306000   700.47024     -5455848.9      197.2361       197.2361       197.2361      -209.89547    
   2307000   700.00251     -5456008.4      197.2361       197.2361       197.2361      -238.98154    
   2308000   700.17925     -5455867.6      197.2361       197.2361       197.2361      -77.069471    
   2309000   699.99828     -5455876.4      197.2361       197.2361       197.2361      -260.547      
   2310000   699.44676     -5456000.5      197.2361       197.2361       197.2361      -250.28694    
   2311000   700.75888     -5455899.4      197.2361       197.2361       197.2361      -141.75719    
   2312000   700.51402     -5455950.1      197.2361       197.2361       197.2361      -215.84934    
   2313000   700.22929     -5455913.3      197.2361       197.2361       197.2361      -121.93652    
   2314000   700.17804     -5455906.5      197.2361       197.2361       197.2361      -49.640982    
   2315000   699.55035     -5456007.9      197.2361       197.2361       197.2361      -233.50674    
   2316000   699.48834     -5455938.9      197.2361       197.2361       197.2361      -74.697897    
   2317000   699.47184     -5455972.9      197.2361       197.2361       197.2361      -176.07846    
   2318000   700.05565     -5455931.3      197.2361       197.2361       197.2361      -202.26502    
   2319000   699.41686     -5455998.1      197.2361       197.2361       197.2361      -259.8071     
   2320000   699.86544     -5455892.3      197.2361       197.2361       197.2361      -207.89946    
   2321000   699.90922     -5455926.3      197.2361       197.2361       197.2361      -21.305419    
   2322000   698.91816     -5455987.7      197.2361       197.2361       197.2361      -96.732605    
   2323000   700.27005     -5455921.9      197.2361       197.2361       197.2361       29.22645     
   2324000   700.59021     -5455927.8      197.2361       197.2361       197.2361      -159.52533    
   2325000   698.56847     -5455913        197.2361       197.2361       197.2361      -61.596263    
   2326000   700.31426     -5455819.9      197.2361       197.2361       197.2361      -142.99385    
   2327000   700.41019     -5455903.2      197.2361       197.2361       197.2361      -167.44828    
   2328000   699.32649     -5455970.2      197.2361       197.2361       197.2361      -220.761      
   2329000   700.54633     -5455766.1      197.2361       197.2361       197.2361      -158.9163     
   2330000   699.06625     -5456042.7      197.2361       197.2361       197.2361      -225.31158    
   2331000   698.73774     -5456040.1      197.2361       197.2361       197.2361      -180.51879    
   2332000   700.67709     -5455870.8      197.2361       197.2361       197.2361      -94.2137      
   2333000   699.40752     -5455908.5      197.2361       197.2361       197.2361      -225.49249    
   2334000   700.80546     -5455785        197.2361       197.2361       197.2361      -149.51511    
   2335000   699.7054      -5455924.2      197.2361       197.2361       197.2361      -175.75627    
   2336000   699.24752     -5456022.3      197.2361       197.2361       197.2361      -33.792439    
   2337000   700.39713     -5455835.2      197.2361       197.2361       197.2361      -55.943679    
   2338000   699.68121     -5455922.4      197.2361       197.2361       197.2361      -157.92165    
   2339000   699.82472     -5455934        197.2361       197.2361       197.2361      -262.3198     
   2340000   700.21696     -5455939.5      197.2361       197.2361       197.2361      -113.42745    
   2341000   699.15581     -5455940.4      197.2361       197.2361       197.2361      -182.73435    
   2342000   699.8508      -5455893.8      197.2361       197.2361       197.2361       25.929714    
   2343000   699.4754      -5455975.1      197.2361       197.2361       197.2361       39.513594    
   2344000   698.63511     -5456051.2      197.2361       197.2361       197.2361      -103.60988    
   2345000   699.54344     -5455862.6      197.2361       197.2361       197.2361      -114.14911    
   2346000   699.30829     -5455941.8      197.2361       197.2361       197.2361      -211.08631    
   2347000   700.06451     -5455852.3      197.2361       197.2361       197.2361      -134.42682    
   2348000   699.69822     -5455961.5      197.2361       197.2361       197.2361      -200.80143    
   2349000   700.33095     -5455950.4      197.2361       197.2361       197.2361      -190.71432    
   2350000   700.59377     -5455936.7      197.2361       197.2361       197.2361      -119.19929    
   2351000   699.03917     -5456000.2      197.2361       197.2361       197.2361      -274.57434    
   2352000   698.93531     -5455951.1      197.2361       197.2361       197.2361      -159.28147    
   2353000   700.52981     -5455964.7      197.2361       197.2361       197.2361      -216.63194    
   2354000   699.76071     -5455889.4      197.2361       197.2361       197.2361       37.306849    
   2355000   700.61864     -5455984.9      197.2361       197.2361       197.2361      -123.45059    
   2356000   700.02582     -5455878.1      197.2361       197.2361       197.2361      -102.52405    
   2357000   700.1049      -5455890.6      197.2361       197.2361       197.2361       58.247183    
   2358000   699.93238     -5455919.1      197.2361       197.2361       197.2361      -51.76261     
   2359000   699.74181     -5456018        197.2361       197.2361       197.2361      -154.58891    
   2360000   700.36429     -5455968.4      197.2361       197.2361       197.2361      -150.48582    
   2361000   700.17125     -5455819        197.2361       197.2361       197.2361      -40.357957    
   2362000   700.92098     -5455935.2      197.2361       197.2361       197.2361      -110.26007    
   2363000   700.88337     -5455898.9      197.2361       197.2361       197.2361      -202.76841    
   2364000   699.78385     -5455955.4      197.2361       197.2361       197.2361      -81.136231    
   2365000   700.70485     -5455938.5      197.2361       197.2361       197.2361      -86.505746    
   2366000   699.46998     -5456027.3      197.2361       197.2361       197.2361      -202.58908    
   2367000   699.29748     -5456044.1      197.2361       197.2361       197.2361      -238.34432    
   2368000   699.85303     -5455890        197.2361       197.2361       197.2361      -81.972949    
   2369000   700.92804     -5455892.2      197.2361       197.2361       197.2361      -126.94003    
   2370000   700.20904     -5455908.9      197.2361       197.2361       197.2361      -355.34866    
   2371000   699.43226     -5456000.5      197.2361       197.2361       197.2361      -259.31972    
   2372000   699.81117     -5455890.3      197.2361       197.2361       197.2361      -343.22355    
   2373000   699.52721     -5455980.1      197.2361       197.2361       197.2361      -174.71778    
   2374000   700.52082     -5455915.9      197.2361       197.2361       197.2361      -109.5995     
   2375000   699.317       -5455911.9      197.2361       197.2361       197.2361      -150.78113    
   2376000   700.40942     -5455881.7      197.2361       197.2361       197.2361      -85.662683    
   2377000   699.85324     -5455876.2      197.2361       197.2361       197.2361      -62.178094    
   2378000   700.81867     -5455804.9      197.2361       197.2361       197.2361      -203.46226    
   2379000   699.30783     -5455892.1      197.2361       197.2361       197.2361      -89.857802    
   2380000   700.50437     -5455860.8      197.2361       197.2361       197.2361      -78.979622    
   2381000   699.23511     -5455950.7      197.2361       197.2361       197.2361      -285.36995    
   2382000   699.81073     -5455997.3      197.2361       197.2361       197.2361      -129.70502    
   2383000   700.73664     -5455896.8      197.2361       197.2361       197.2361      -99.42287     
   2384000   699.09402     -5456049.4      197.2361       197.2361       197.2361      -197.08338    
   2385000   699.75232     -5455889.1      197.2361       197.2361       197.2361      -248.50713    
   2386000   699.85067     -5455887.5      197.2361       197.2361       197.2361      -124.19058    
   2387000   700.31254     -5455849.9      197.2361       197.2361       197.2361      -132.73446    
   2388000   700.52693     -5455884.1      197.2361       197.2361       197.2361      -177.69884    
   2389000   700.22958     -5455841.2      197.2361       197.2361       197.2361      -140.29146    
   2390000   699.33423     -5455938.9      197.2361       197.2361       197.2361      -140.61585    
   2391000   700.64514     -5455881.8      197.2361       197.2361       197.2361      -120.21376    
   2392000   701.04828     -5455892.5      197.2361       197.2361       197.2361      -37.333074    
   2393000   699.44046     -5455998.4      197.2361       197.2361       197.2361      -188.09754    
   2394000   701.58879     -5455905.8      197.2361       197.2361       197.2361      -218.18487    
   2395000   700.16345     -5455909.6      197.2361       197.2361       197.2361      -143.82201    
   2396000   701.55927     -5455822.5      197.2361       197.2361       197.2361      -160.59129    
   2397000   700.60091     -5455929.5      197.2361       197.2361       197.2361      -53.408846    
   2398000   699.77451     -5455881.8      197.2361       197.2361       197.2361      -93.387904    
   2399000   699.79667     -5455990.8      197.2361       197.2361       197.2361      -139.93695    
   2400000   699.53482     -5455905.3      197.2361       197.2361       197.2361      -418.45045    
   2401000   699.35736     -5455935.5      197.2361       197.2361       197.2361      -293.49377    
   2402000   699.62191     -5455923.1      197.2361       197.2361       197.2361      -279.94244    
   2403000   701.08948     -5455890.1      197.2361       197.2361       197.2361      -344.69782    
   2404000   700.85084     -5455855.6      197.2361       197.2361       197.2361      -170.74195    
   2405000   699.3903      -5456020.2      197.2361       197.2361       197.2361      -271.40849    
   2406000   699.67709     -5455931.8      197.2361       197.2361       197.2361      -204.7738     
   2407000   699.44801     -5456005.7      197.2361       197.2361       197.2361      -257.22572    
   2408000   700.05414     -5455908.8      197.2361       197.2361       197.2361      -143.08036    
   2409000   699.44723     -5455996.8      197.2361       197.2361       197.2361      -252.9056     
   2410000   700.42898     -5455888.4      197.2361       197.2361       197.2361      -87.639317    
   2411000   700.04564     -5455949.6      197.2361       197.2361       197.2361      -278.61652    
   2412000   701.27528     -5455818.8      197.2361       197.2361       197.2361      -74.423102    
   2413000   700.09195     -5455917.7      197.2361       197.2361       197.2361      -220.15459    
   2414000   698.94114     -5455962        197.2361       197.2361       197.2361      -46.316872    
   2415000   701.47584     -5455856.6      197.2361       197.2361       197.2361       7.404431     
   2416000   700.18247     -5455890.8      197.2361       197.2361       197.2361      -290.8396     
   2417000   698.15285     -5456008        197.2361       197.2361       197.2361      -197.05563    
   2418000   700.28519     -5455867.9      197.2361       197.2361       197.2361      -249.75052    
   2419000   698.07736     -5456049.3      197.2361       197.2361       197.2361      -316.85958    
   2420000   699.92701     -5455912.9      197.2361       197.2361       197.2361      -236.33339    
   2421000   701.60893     -5455813.3      197.2361       197.2361       197.2361      -194.01775    
   2422000   699.58815     -5455871.1      197.2361       197.2361       197.2361      -196.96864    
   2423000   699.22694     -5455935.8      197.2361       197.2361       197.2361      -182.73918    
   2424000   700.01847     -5455884.3      197.2361       197.2361       197.2361      -226.00345    
   2425000   699.42654     -5455949.8      197.2361       197.2361       197.2361      -184.85777    
   2426000   699.9422      -5455981.7      197.2361       197.2361       197.2361      -95.755702    
   2427000   698.50559     -5455991.8      197.2361       197.2361       197.2361      -120.16989    
   2428000   700.56658     -5455862.4      197.2361       197.2361       197.2361      -84.390829    
   2429000   700.15456     -5455850        197.2361       197.2361       197.2361      -125.02174    
   2430000   700.29571     -5455911.3      197.2361       197.2361       197.2361      -197.84005    
   2431000   701.63988     -5455840.1      197.2361       197.2361       197.2361      -102.03001    
   2432000   698.80781     -5455956.3      197.2361       197.2361       197.2361      -189.61312    
   2433000   699.35826     -5455934.5      197.2361       197.2361       197.2361      -105.11615    
   2434000   700.8187      -5455845.4      197.2361       197.2361       197.2361      -72.05846     
   2435000   699.28362     -5455945.3      197.2361       197.2361       197.2361      -240.41673    
   2436000   698.87033     -5455955.2      197.2361       197.2361       197.2361      -110.77236    
   2437000   700.39664     -5455999.2      197.2361       197.2361       197.2361      -283.2335     
   2438000   699.89971     -5455976.3      197.2361       197.2361       197.2361      -25.082567    
   2439000   700.10849     -5455843.7      197.2361       197.2361       197.2361      -11.348731    
   2440000   700.19273     -5455899        197.2361       197.2361       197.2361      -148.478      
   2441000   700.02661     -5455893        197.2361       197.2361       197.2361      -174.33165    
   2442000   700.93764     -5455853.6      197.2361       197.2361       197.2361      -165.55825    
   2443000   700.62307     -5455840.9      197.2361       197.2361       197.2361       66.992645    
   2444000   699.5506      -5455921.3      197.2361       197.2361       197.2361      -72.433876    
   2445000   699.39465     -5455948.9      197.2361       197.2361       197.2361      -200.16209    
   2446000   700.49513     -5455958.7      197.2361       197.2361       197.2361      -105.47022    
   2447000   699.66145     -5455961.5      197.2361       197.2361       197.2361      -147.56457    
   2448000   700.67775     -5455954.8      197.2361       197.2361       197.2361      -270.8052     
   2449000   699.87336     -5455962        197.2361       197.2361       197.2361      -172.00478    
   2450000   699.62704     -5455952.9      197.2361       197.2361       197.2361      -136.32223    
   2451000   701.65629     -5455838.3      197.2361       197.2361       197.2361      -86.904163    
   2452000   698.40516     -5456110.9      197.2361       197.2361       197.2361      -233.75933    
   2453000   699.96027     -5455945.2      197.2361       197.2361       197.2361      -95.972064    
   2454000   700.10841     -5455842.7      197.2361       197.2361       197.2361      -172.54046    
   2455000   699.98879     -5455836.5      197.2361       197.2361       197.2361      -106.55583    
   2456000   699.71259     -5455956.9      197.2361       197.2361       197.2361      -144.00735    
   2457000   700.47167     -5455847.3      197.2361       197.2361       197.2361      -49.016601    
   2458000   699.69295     -5455925.6      197.2361       197.2361       197.2361      -226.98064    
   2459000   700.62538     -5455824.8      197.2361       197.2361       197.2361      -69.271738    
   2460000   699.85012     -5455850        197.2361       197.2361       197.2361      -127.77216    
   2461000   701.20568     -5455831.3      197.2361       197.2361       197.2361      -51.445256    
   2462000   701.06897     -5455835.6      197.2361       197.2361       197.2361      -211.35984    
   2463000   700.3349      -5456009.7      197.2361       197.2361       197.2361      -294.36571    
   2464000   700.03867     -5455949.9      197.2361       197.2361       197.2361      -176.15611    
   2465000   698.48602     -5456000.3      197.2361       197.2361       197.2361      -217.41039    
   2466000   699.46285     -5455996.6      197.2361       197.2361       197.2361      -275.02571    
   2467000   699.73603     -5455985.2      197.2361       197.2361       197.2361      -263.83816    
   2468000   701.65249     -5455859.6      197.2361       197.2361       197.2361      -269.333      
   2469000   700.51611     -5455902.8      197.2361       197.2361       197.2361      -215.80647    
   2470000   701.17636     -5455780.7      197.2361       197.2361       197.2361      -134.63459    
   2471000   701.03169     -5455837.2      197.2361       197.2361       197.2361      -194.98577    
   2472000   700.46637     -5455945.1      197.2361       197.2361       197.2361      -209.06355    
   2473000   699.03969     -5455924.5      197.2361       197.2361       197.2361      -366.21447    
   2474000   699.23722     -5456001        197.2361       197.2361       197.2361      -302.87024    
   2475000   699.29556     -5455965        197.2361       197.2361       197.2361      -125.35709    
   2476000   699.58986     -5455866.1      197.2361       197.2361       197.2361      -248.0538     
   2477000   701.03985     -5455796.8      197.2361       197.2361       197.2361      -132.24418    
   2478000   698.0092      -5456081        197.2361       197.2361       197.2361      -192.32204    
   2479000   700.72623     -5455896        197.2361       197.2361       197.2361      -171.38846    
   2480000   699.23007     -5455947        197.2361       197.2361       197.2361      -142.13061    
   2481000   700.72123     -5455881.2      197.2361       197.2361       197.2361      -132.65753    
   2482000   700.61655     -5455935.9      197.2361       197.2361       197.2361      -189.17951    
   2483000   700.88159     -5455847.1      197.2361       197.2361       197.2361      -114.49681    
   2484000   700.21368     -5455962.3      197.2361       197.2361       197.2361      -67.591896    
   2485000   699.33899     -5455972.2      197.2361       197.2361       197.2361      -264.79529    
   2486000   700.60677     -5455895.2      197.2361       197.2361       197.2361      -48.322321    
   2487000   700.74747     -5455975.8      197.2361       197.2361       197.2361      -189.3811     
   2488000   699.33363     -5455975.1      197.2361       197.2361       197.2361      -213.341      
   2489000   698.67691     -5456080.8      197.2361       197.2361       197.2361      -282.32285    
   2490000   698.86129     -5456016.9      197.2361       197.2361       197.2361      -328.37355    
   2491000   698.57105     -5456031        197.2361       197.2361       197.2361      -243.43627    
   2492000   700.27073     -5455898        197.2361       197.2361       197.2361      -144.17059    
   2493000   700.89353     -5455924.4      197.2361       197.2361       197.2361      -216.24114    
   2494000   698.47323     -5456037.4      197.2361       197.2361       197.2361      -182.24727    
   2495000   699.54098     -5455939.6      197.2361       197.2361       197.2361      -27.10853     
   2496000   700.75229     -5455906        197.2361       197.2361       197.2361      -93.164806    
   2497000   699.73405     -5455940.7      197.2361       197.2361       197.2361      -55.994724    
   2498000   701.14691     -5455855.8      197.2361       197.2361       197.2361      -113.6274     
   2499000   699.65093     -5455997.6      197.2361       197.2361       197.2361      -83.014205    
   2500000   701.95934     -5455847.3      197.2361       197.2361       197.2361      -141.38994    
   2501000   699.3081      -5455887.2      197.2361       197.2361       197.2361      -349.41267    
   2502000   699.6105      -5455957.8      197.2361       197.2361       197.2361      -304.97798    
   2503000   699.66214     -5456062.7      197.2361       197.2361       197.2361      -304.17495    
   2504000   699.98764     -5455845.1      197.2361       197.2361       197.2361      -168.28445    
   2505000   700.06334     -5455895.9      197.2361       197.2361       197.2361      -98.338149    
   2506000   700.13353     -5455951.9      197.2361       197.2361       197.2361      -144.76668    
   2507000   699.70138     -5455803.3      197.2361       197.2361       197.2361      -25.889861    
   2508000   699.56455     -5455995.1      197.2361       197.2361       197.2361      -144.85767    
   2509000   699.58961     -5456001        197.2361       197.2361       197.2361      -306.62005    
   2510000   700.57553     -5455891.1      197.2361       197.2361       197.2361      -229.20808    
Loop time of 122092 on 32768 procs for 2500000 steps with 482050 atoms

Performance: 3.538 ns/day, 6.783 hours/ns, 20.476 timesteps/s, 9.871 Matom-step/s
77.3% CPU use with 256 MPI tasks x 128 OpenMP threads

MPI task timing breakdown:
Section |  min time  |  avg time  |  max time  |%varavg| %total
---------------------------------------------------------------
Pair    | 17036      | 52058      | 81776      |8053.1 | 42.64
Bond    | 0.20227    | 0.34203    | 0.50432    |   9.1 |  0.00
Kspace  | 27971      | 60055      | 98438      |8203.4 | 49.19
Neigh   | 2021.6     | 6161.2     | 9101.7     |2780.9 |  5.05
Comm    | 2425.2     | 2914.8     | 3975.7     | 618.3 |  2.39
Output  | 0.36361    | 0.40529    | 0.41378    |   0.7 |  0.00
Modify  | 361.99     | 700.26     | 1101.8     | 719.6 |  0.57
Other   |            | 201.3      |            |       |  0.16

Nlocal:        1883.01 ave        2508 max         578 min
Histogram: 17 15 24 8 0 15 31 18 36 92
Nghost:        8476.53 ave       10837 max        4713 min
Histogram: 8 18 22 9 7 32 48 54 19 39
Neighs:         466514 ave      681423 max      117547 min
Histogram: 13 19 24 10 16 29 17 21 49 58

Total # of neighbors = 1.1942762e+08
Ave neighs/atom = 247.74945
Ave special neighs/atom = 0
Neighbor list builds = 424475
Dangerous builds = 0
Total wall time: 34:12:43
