LAMMPS (8 Feb 2023)
WARNING: Using I/O redirection is unreliable with parallel runs. Better to use the -in switch to read input files. (src/src/lammps.cpp:531)
  using 128 OpenMP thread(s) per MPI task
Reading data file ...
  orthogonal box = (0 0 0) to (195 195 195)
  4 by 4 by 8 MPI processor grid
  reading atoms ...
  431984 atoms
Finding 1-2 1-3 1-4 neighbors ...
  special bond factors lj:    0        0        0       
  special bond factors coul:  0        0        0       
     0 = max # of 1-2 neighbors
     0 = max # of 1-3 neighbors
     0 = max # of 1-4 neighbors
     1 = max # of special neighbors
  special bonds CPU = 0.086 seconds
  read_data CPU = 1.770 seconds
114924 atoms in group Li
220572 atoms in group O
36756 atoms in group Zr
PPPM initialization ...
  using 12-bit tables for long-range coulomb (src/src/kspace.cpp:342)
  G vector (1/distance) = 0.27362615
  grid = 128 128 128
  stencil order = 5
  estimated absolute RMS force accuracy = 0.001898023
  estimated relative force accuracy = 0.0001318104
  using double precision MKL FFT
  3d grid and FFT values/proc = 28749 16384
Generated 0 of 10 mixed pair_coeff terms from geometric mixing rule
Neighbor list info ...
  update: every = 1 steps, delay = 0 steps, check = yes
  max neighbors/atom: 5000, page size: 100000
  master list distance cutoff = 11.5
  ghost atom cutoff = 11.5
  binsize = 5.75, bins = 34 34 34
  3 neighbor lists, perpetual/occasional/extra = 3 0 0
  (1) pair buck/coul/long, perpetual
      attributes: half, newton on
      pair build: half/bin/newton
      stencil: half/bin/3d
      bin: standard
  (2) pair lennard/mdf, perpetual, skip from (3)
      attributes: half, newton on, cut 4
      pair build: skip
      stencil: none
      bin: none
  (3) neighbor class addition, perpetual, trim from (1)
      attributes: half, newton on, cut 4
      pair build: trim
      stencil: none
      bin: none
Setting up cg style minimization ...
  Unit style    : metal
  Current step  : 0
Per MPI rank memory allocation (min/avg/max) = 224.4 | 261 | 297.6 Mbytes
   Step          Temp          E_pair         E_mol          TotEng         Press     
         0   0              3.2788264e+11  0              3.2788264e+11  2.8339621e+11
      2854   0             -4958356        0             -4958356        1721.5947    
Loop time of 351.221 on 16384 procs for 2854 steps with 431984 atoms

77.9% CPU use with 128 MPI tasks x 128 OpenMP threads

Minimization stats:
  Stopping criterion = linesearch alpha is zero
  Energy initial, next-to-last, final = 
       327882638675.07  -4958356.04081306  -4958356.04081306
  Force two-norm initial, final = 2.941604e+13 0.56002924
  Force max component initial, final = 1.6413597e+13 0.18553859
  Final line search alpha, max atom move = 3.4325584e-08 6.3687206e-09
  Iterations, force evaluations = 2854 4586

MPI task timing breakdown:
Section |  min time  |  avg time  |  max time  |%varavg| %total
---------------------------------------------------------------
Pair    | 131.88     | 202.69     | 275.99     | 400.5 | 57.71
Bond    | 0.00035477 | 0.00084878 | 0.0016711  |   0.0 |  0.00
Kspace  | 50.05      | 128.22     | 203.21     | 536.6 | 36.51
Neigh   | 6.5185     | 10.405     | 14.86      | 100.5 |  2.96
Comm    | 5.2974     | 7.1162     | 8.602      |  40.2 |  2.03
Output  | 0          | 0          | 0          |   0.0 |  0.00
Modify  | 0          | 0          | 0          |   0.0 |  0.00
Other   |            | 2.787      |            |       |  0.79

Nlocal:        3374.88 ave        4340 max        2448 min
Histogram: 64 0 0 0 0 0 0 0 0 64
Nghost:        11302.3 ave       12938 max        9686 min
Histogram: 64 0 0 0 0 0 0 0 0 64
Neighs:         846347 ave 1.19106e+06 max      532169 min
Histogram: 32 32 0 0 0 0 0 20 22 22

Total # of neighbors = 1.0833244e+08
Ave neighs/atom = 250.77882
Ave special neighs/atom = 0
Neighbor list builds = 380
Dangerous builds = 0
PPPM initialization ...
  using 12-bit tables for long-range coulomb (src/src/kspace.cpp:342)
  G vector (1/distance) = 0.27362615
  grid = 128 128 128
  stencil order = 5
  estimated absolute RMS force accuracy = 0.001898023
  estimated relative force accuracy = 0.0001318104
  using double precision MKL FFT
  3d grid and FFT values/proc = 28749 16384
Generated 0 of 10 mixed pair_coeff terms from geometric mixing rule
Setting up Verlet run ...
  Unit style    : metal
  Current step  : 0
  Time step     : 0.002
Per MPI rank memory allocation (min/avg/max) = 224.7 | 260.9 | 297 Mbytes
   Step          Temp          TotEng           Lx             Ly             Lz           Press     
         0   600           -4924853.1      195            195            195            6547.7113    
      1000   598.03234     -4892124.4      197.07643      197.07643      197.07643     -4.4302891    
      2000   598.40373     -4893025        197.02309      197.02309      197.02309     -38.667966    
      3000   599.75573     -4893410.1      196.97856      196.97856      196.97856      58.922074    
      4000   599.88372     -4893578.1      196.98816      196.98816      196.98816     -29.725732    
      5000   599.83257     -4893823.3      196.9451       196.9451       196.9451       30.935761    
      6000   599.82354     -4893953.2      196.93694      196.93694      196.93694     -29.939174    
      7000   598.78977     -4894194.8      196.93736      196.93736      196.93736      96.180114    
      8000   599.53633     -4894203.2      196.94731      196.94731      196.94731     -272.93905    
      9000   599.55551     -4894250        196.89983      196.89983      196.89983     -10.917235    
     10000   599.71523     -4894427.2      196.90046      196.90046      196.90046      4.1808941    
     11000   600.1773      -4894446.1      196.88903      196.88903      196.88903      84.537202    
     12000   600.30307     -4894559.9      196.88533      196.88533      196.88533      99.191866    
     13000   599.29473     -4894541.3      196.88054      196.88054      196.88054      177.0324     
     14000   600.11591     -4894642.8      196.89813      196.89813      196.89813     -36.359555    
     15000   599.29487     -4894668.3      196.8973       196.8973       196.8973       3.6475278    
     16000   599.603       -4894691.2      196.89125      196.89125      196.89125     -74.109825    
     17000   600.76547     -4894713.5      196.87438      196.87438      196.87438      45.567999    
     18000   599.84138     -4894738.3      196.88671      196.88671      196.88671     -28.579316    
     19000   600.87662     -4894715.7      196.87565      196.87565      196.87565      115.69554    
     20000   599.87242     -4894883.3      196.84329      196.84329      196.84329      125.13873    
     21000   600.36204     -4894846.8      196.85382      196.85382      196.85382     -0.95963767   
     22000   599.30089     -4894969.5      196.86817      196.86817      196.86817      39.309381    
     23000   600.19982     -4894872.4      196.87883      196.87883      196.87883     -71.227755    
     24000   600.11086     -4894968.5      196.88         196.88         196.88        -47.531871    
     25000   598.73598     -4895059.1      196.85701      196.85701      196.85701      95.642942    
     26000   601.05707     -4894987.6      196.86339      196.86339      196.86339     -123.80564    
     27000   599.92742     -4895033.1      196.85342      196.85342      196.85342      70.642941    
     28000   598.63927     -4895159.9      196.87419      196.87419      196.87419     -117.83959    
     29000   599.14026     -4895036.1      196.87495      196.87495      196.87495     -6.4871219    
     30000   599.847       -4895098.7      196.84773      196.84773      196.84773      248.87479    
     31000   600.68828     -4895087.6      196.86786      196.86786      196.86786      4.0360852    
     32000   599.49036     -4895175.6      196.87922      196.87922      196.87922     -183.31332    
     33000   599.66784     -4895217.6      196.85739      196.85739      196.85739      44.813585    
     34000   599.9364      -4895153.3      196.84604      196.84604      196.84604      81.798618    
     35000   599.68262     -4895223.3      196.85583      196.85583      196.85583     -47.399234    
     36000   600.28187     -4895170.6      196.84821      196.84821      196.84821      152.16167    
     37000   601.21253     -4895242.1      196.86071      196.86071      196.86071     -110.65773    
     38000   600.90921     -4895179.4      196.83858      196.83858      196.83858      56.517279    
     39000   599.88327     -4895295.9      196.82741      196.82741      196.82741      137.55828    
     40000   599.75029     -4895412.7      196.84993      196.84993      196.84993      63.59653     
     41000   599.06921     -4895375.9      196.84488      196.84488      196.84488     -39.138556    
     42000   600.53616     -4895315.5      196.85762      196.85762      196.85762     -96.102171    
     43000   601.79443     -4895209.5      196.86016      196.86016      196.86016     -50.260453    
     44000   600.38277     -4895351.4      196.84684      196.84684      196.84684      95.346548    
     45000   600.35693     -4895357.2      196.85662      196.85662      196.85662     -120.56044    
     46000   599.47142     -4895399.2      196.84554      196.84554      196.84554     -76.455912    
     47000   600.40531     -4895374.4      196.84757      196.84757      196.84757     -26.18699     
     48000   600.11063     -4895359.1      196.83908      196.83908      196.83908      7.8034156    
     49000   601.24292     -4895368.7      196.85008      196.85008      196.85008     -23.29801     
     50000   600.0391      -4895391.5      196.82797      196.82797      196.82797     -59.036036    
     51000   600.76205     -4895409.2      196.84633      196.84633      196.84633     -48.726184    
     52000   600.65856     -4895348.8      196.85152      196.85152      196.85152     -202.22495    
     53000   600.08532     -4895388.9      196.8496       196.8496       196.8496      -73.508792    
     54000   599.63451     -4895505.1      196.82982      196.82982      196.82982     -79.204118    
     55000   599.93027     -4895492.8      196.83751      196.83751      196.83751     -66.689684    
     56000   600.58369     -4895449.9      196.84838      196.84838      196.84838     -90.088699    
     57000   599.91465     -4895529.9      196.83243      196.83243      196.83243     -94.303424    
     58000   599.9469      -4895476.2      196.81431      196.81431      196.81431      138.35196    
     59000   600.91632     -4895534.2      196.80992      196.80992      196.80992      169.77038    
     60000   600.35512     -4895523.1      196.81141      196.81141      196.81141      39.81365     
     61000   598.76937     -4895628.2      196.82233      196.82233      196.82233      4.6444285    
     62000   599.34113     -4895580.6      196.81273      196.81273      196.81273      44.474755    
     63000   600.45634     -4895503        196.79439      196.79439      196.79439      152.62845    
     64000   600.99081     -4895523.1      196.79813      196.79813      196.79813     -145.4112     
     65000   598.65918     -4895645.8      196.79191      196.79191      196.79191     -13.326651    
     66000   600.30489     -4895519.7      196.79526      196.79526      196.79526      50.204234    
     67000   599.79494     -4895553.9      196.80181      196.80181      196.80181      113.70099    
     68000   599.7751      -4895628        196.82846      196.82846      196.82846     -200.60317    
     69000   599.47698     -4895553        196.81517      196.81517      196.81517      91.159148    
     70000   599.25015     -4895716.1      196.80792      196.80792      196.80792      51.625442    
     71000   599.48366     -4895606.5      196.82413      196.82413      196.82413      87.383142    
     72000   599.74574     -4895576.2      196.83198      196.83198      196.83198     -164.74985    
     73000   599.87344     -4895722.2      196.79164      196.79164      196.79164      158.13316    
     74000   600.85288     -4895639.7      196.78745      196.78745      196.78745      200.49221    
     75000   600.49275     -4895688.1      196.81625      196.81625      196.81625     -161.26522    
     76000   600.81491     -4895560.9      196.82002      196.82002      196.82002     -128.56124    
     77000   599.91952     -4895740.2      196.80204      196.80204      196.80204      41.512756    
     78000   600.87927     -4895635.5      196.80159      196.80159      196.80159     -36.182151    
     79000   601.05744     -4895647        196.80381      196.80381      196.80381     -11.424762    
     80000   599.74062     -4895684.9      196.8095       196.8095       196.8095       54.804867    
     81000   600.04914     -4895805.2      196.80718      196.80718      196.80718     -60.291907    
     82000   600.76468     -4895660.5      196.79831      196.79831      196.79831     -50.573384    
     83000   600.20698     -4895635.1      196.80954      196.80954      196.80954     -17.208531    
     84000   600.04866     -4895740.4      196.79685      196.79685      196.79685      188.06826    
     85000   599.71389     -4895715.6      196.80284      196.80284      196.80284     -64.836797    
     86000   598.76181     -4895794.8      196.80744      196.80744      196.80744      97.137564    
     87000   599.58004     -4895671.4      196.82329      196.82329      196.82329     -130.50306    
     88000   599.94982     -4895750.6      196.79985      196.79985      196.79985      42.105679    
     89000   600.09602     -4895706.7      196.81018      196.81018      196.81018     -6.2634916    
     90000   599.06894     -4895744.5      196.80357      196.80357      196.80357      20.10126     
     91000   599.63239     -4895820.4      196.80849      196.80849      196.80849     -151.99538    
     92000   600.30035     -4895771.3      196.81202      196.81202      196.81202     -36.118163    
     93000   599.09082     -4895836.1      196.82184      196.82184      196.82184     -80.739999    
     94000   599.74149     -4895867.7      196.79614      196.79614      196.79614      152.98555    
     95000   598.7003      -4895924.6      196.7935       196.7935       196.7935      -8.5720629    
     96000   599.55987     -4895879.9      196.78618      196.78618      196.78618      33.347381    
     97000   598.91751     -4895906        196.78917      196.78917      196.78917      93.672663    
     98000   599.44738     -4895841        196.81047      196.81047      196.81047      17.170415    
     99000   600.412       -4895806.1      196.80931      196.80931      196.80931     -56.753868    
    100000   600.21323     -4895838.9      196.81457      196.81457      196.81457      69.143046    
    101000   599.85012     -4895826.4      196.8004       196.8004       196.8004      -71.31999     
    102000   599.9212      -4895849.9      196.79765      196.79765      196.79765     -224.17101    
    103000   601.43803     -4895708.4      196.80512      196.80512      196.80512     -122.89189    
    104000   602.37839     -4895676.9      196.79501      196.79501      196.79501      94.736866    
    105000   600.31027     -4895938.2      196.77693      196.77693      196.77693      108.00906    
    106000   600.35089     -4895800.9      196.78207      196.78207      196.78207      64.728667    
    107000   598.9699      -4895932.8      196.79537      196.79537      196.79537     -40.453009    
    108000   601.01134     -4895835.3      196.79144      196.79144      196.79144     -50.169465    
    109000   599.02989     -4895908.1      196.79505      196.79505      196.79505      3.8663868    
    110000   600.13683     -4895781.6      196.80924      196.80924      196.80924     -66.954494    
    111000   598.89171     -4895895.2      196.79783      196.79783      196.79783     -65.5679      
    112000   600.59918     -4895813.4      196.79155      196.79155      196.79155     -55.147812    
    113000   599.89707     -4895834.3      196.79815      196.79815      196.79815     -18.90356     
    114000   599.35488     -4895902        196.8092       196.8092       196.8092      -264.37765    
    115000   601.66444     -4895805.9      196.78978      196.78978      196.78978     -25.113978    
    116000   600.12773     -4895912.3      196.77297      196.77297      196.77297      87.003825    
    117000   599.51275     -4895877.5      196.78444      196.78444      196.78444     -45.483681    
    118000   600.62101     -4895879.3      196.76006      196.76006      196.76006      74.1995      
    119000   599.35965     -4895990.3      196.78167      196.78167      196.78167     -37.540391    
    120000   600.93892     -4895864.9      196.78988      196.78988      196.78988      3.7373678    
    121000   601.18629     -4895848        196.77606      196.77606      196.77606      84.861197    
    122000   601.56363     -4895894.2      196.77403      196.77403      196.77403      100.5006     
    123000   600.91269     -4895830.4      196.79404      196.79404      196.79404     -31.470047    
    124000   600.13568     -4896000.1      196.7683       196.7683       196.7683       234.58022    
    125000   599.98208     -4895948.1      196.77973      196.77973      196.77973      106.88443    
    126000   600.58463     -4896001.8      196.78203      196.78203      196.78203      136.7617     
    127000   599.31524     -4895967        196.80971      196.80971      196.80971     -68.605056    
    128000   600.33455     -4896025.3      196.76697      196.76697      196.76697      66.780877    
    129000   599.99533     -4895994.9      196.77249      196.77249      196.77249      20.595872    
    130000   600.97933     -4895931.2      196.78618      196.78618      196.78618     -76.288156    
    131000   600.62624     -4896003.3      196.77598      196.77598      196.77598      82.536726    
    132000   600.31332     -4895955.8      196.79082      196.79082      196.79082     -104.78697    
    133000   599.90425     -4895903.7      196.79588      196.79588      196.79588     -44.152569    
    134000   601.39288     -4895913.6      196.7729       196.7729       196.7729       114.04368    
    135000   601.1274      -4895934.5      196.77841      196.77841      196.77841     -33.023142    
    136000   600.03897     -4896000.1      196.77749      196.77749      196.77749     -39.141392    
    137000   598.98444     -4896008.2      196.7828       196.7828       196.7828       4.8838384    
    138000   602.02387     -4895891.5      196.78036      196.78036      196.78036     -14.565283    
    139000   599.69458     -4896023.1      196.77178      196.77178      196.77178     -27.436438    
    140000   598.99047     -4896049        196.75699      196.75699      196.75699      252.80951    
    141000   600.26102     -4895945.7      196.78264      196.78264      196.78264     -15.616032    
    142000   599.96154     -4896063.1      196.78338      196.78338      196.78338     -229.7669     
    143000   600.10725     -4896107.7      196.77068      196.77068      196.77068     -45.375546    
    144000   599.31301     -4896002.4      196.78336      196.78336      196.78336      74.865077    
    145000   599.22904     -4896094.7      196.76748      196.76748      196.76748     -15.321185    
    146000   599.95384     -4895970.5      196.78381      196.78381      196.78381     -55.96176     
    147000   599.78996     -4895972.7      196.79479      196.79479      196.79479     -65.619041    
    148000   600.60038     -4895915.2      196.77991      196.77991      196.77991     -100.82597    
    149000   600.41753     -4895966.1      196.77219      196.77219      196.77219     -6.9433273    
    150000   598.83873     -4896129.2      196.76314      196.76314      196.76314      8.1452209    
    151000   597.77319     -4896109.6      196.77659      196.77659      196.77659      58.353449    
    152000   599.46384     -4896134.7      196.77674      196.77674      196.77674     -44.679842    
    153000   601.21409     -4896000.2      196.77428      196.77428      196.77428      66.844927    
    154000   600.11169     -4895987.1      196.77519      196.77519      196.77519      79.044406    
    155000   598.72935     -4896188.4      196.74445      196.74445      196.74445      259.1153     
    156000   599.90076     -4896114.6      196.75425      196.75425      196.75425      160.72331    
    157000   600.12452     -4896061.1      196.79709      196.79709      196.79709     -91.399716    
    158000   600.10329     -4896028.2      196.78843      196.78843      196.78843     -55.914475    
    159000   597.96886     -4896111.3      196.7754       196.7754       196.7754      -1.99087      
    160000   600.75724     -4895935.5      196.7667       196.7667       196.7667       55.560416    
    161000   600.12476     -4896156.3      196.75567      196.75567      196.75567     -88.412609    
    162000   600.08842     -4896136.3      196.75493      196.75493      196.75493      47.021714    
    163000   601.49686     -4895987.7      196.7538       196.7538       196.7538       41.697649    
    164000   600.71695     -4896101        196.7387       196.7387       196.7387      -48.79944     
    165000   599.78319     -4896088.9      196.771        196.771        196.771       -67.915346    
    166000   600.27817     -4896069.4      196.78286      196.78286      196.78286     -120.8941     
    167000   598.78896     -4896166.7      196.76317      196.76317      196.76317      115.35322    
    168000   600.51627     -4896057        196.79157      196.79157      196.79157     -93.162618    
    169000   600.02312     -4896047.7      196.77389      196.77389      196.77389     -18.991389    
    170000   598.98249     -4896067.6      196.77205      196.77205      196.77205     -71.882911    
    171000   600.6775      -4896070.7      196.75303      196.75303      196.75303      43.247315    
    172000   599.2616      -4896146.8      196.78402      196.78402      196.78402     -59.63832     
    173000   599.80799     -4896120.1      196.78205      196.78205      196.78205      50.678649    
    174000   600.05221     -4896049.9      196.79886      196.79886      196.79886     -203.76188    
    175000   600.72928     -4896139.7      196.78539      196.78539      196.78539      14.474459    
    176000   597.60705     -4896194.9      196.77335      196.77335      196.77335     -73.013423    
    177000   600.48254     -4896035.2      196.79192      196.79192      196.79192     -63.460061    
    178000   600.14204     -4896119.6      196.77145      196.77145      196.77145     -104.7957     
    179000   599.33509     -4896083.7      196.75144      196.75144      196.75144      133.50156    
    180000   599.27407     -4896185.8      196.78293      196.78293      196.78293     -105.27286    
    181000   600.88886     -4896078        196.76797      196.76797      196.76797     -142.97121    
    182000   600.84359     -4896095.3      196.76842      196.76842      196.76842     -84.215639    
    183000   600.58804     -4896181.4      196.7545       196.7545       196.7545       17.517879    
    184000   600.4445      -4896087.9      196.76032      196.76032      196.76032      11.6973      
    185000   599.33809     -4896185.5      196.78391      196.78391      196.78391      47.707705    
    186000   600.19749     -4896163.9      196.76099      196.76099      196.76099      5.6554851    
    187000   599.32655     -4896098.2      196.7641       196.7641       196.7641      -65.688833    
    188000   599.89344     -4896168.7      196.77216      196.77216      196.77216     -162.14474    
    189000   599.42935     -4896162.8      196.7774       196.7774       196.7774      -144.84085    
    190000   601.06571     -4896176.5      196.76804      196.76804      196.76804     -13.954722    
    191000   599.24994     -4896260.5      196.77654      196.77654      196.77654     -126.3071     
    192000   601.24465     -4896172        196.78323      196.78323      196.78323     -119.56284    
    193000   600.13848     -4896148.8      196.76742      196.76742      196.76742     -69.377688    
    194000   601.22886     -4896125.1      196.76436      196.76436      196.76436      75.486194    
    195000   601.11483     -4896079        196.79341      196.79341      196.79341     -289.17494    
    196000   600.5726      -4896148.6      196.76304      196.76304      196.76304     -97.225915    
    197000   599.07596     -4896254.2      196.76876      196.76876      196.76876     -102.81017    
    198000   599.12206     -4896297.8      196.73804      196.73804      196.73804      51.711423    
    199000   600.34995     -4896111.6      196.77191      196.77191      196.77191      76.342612    
    200000   601.44603     -4896081.3      196.73977      196.73977      196.73977      177.61428    
    201000   600.50175     -4896203.3      196.76226      196.76226      196.76226     -18.942906    
    202000   600.4088      -4896142.7      196.76866      196.76866      196.76866      141.30225    
    203000   599.912       -4896186.1      196.76022      196.76022      196.76022      124.22387    
    204000   600.14853     -4896248.9      196.75857      196.75857      196.75857      102.16998    
    205000   600.81104     -4896093.4      196.77127      196.77127      196.77127      100.33475    
    206000   600.16661     -4896145.4      196.76962      196.76962      196.76962     -17.594783    
    207000   600.41041     -4896149.9      196.75413      196.75413      196.75413      19.424023    
    208000   601.31946     -4896127.4      196.74617      196.74617      196.74617     -31.109537    
    209000   600.187       -4896143.3      196.74221      196.74221      196.74221      96.273428    
    210000   600.19995     -4896254.9      196.74233      196.74233      196.74233      92.289994    
    211000   601.18993     -4896209.8      196.73834      196.73834      196.73834      75.370443    
    212000   600.15766     -4896280.8      196.76         196.76         196.76        -31.896513    
    213000   600.92687     -4896218.7      196.75547      196.75547      196.75547      5.6321537    
    214000   600.33497     -4896205.8      196.75717      196.75717      196.75717      68.463234    
    215000   600.31871     -4896257.5      196.76928      196.76928      196.76928     -125.33118    
    216000   598.19463     -4896260.5      196.77291      196.77291      196.77291     -101.21854    
    217000   600.0754      -4896342.2      196.74649      196.74649      196.74649     -42.70269     
    218000   599.93598     -4896230        196.74843      196.74843      196.74843     -28.048221    
    219000   600.27083     -4896217.8      196.75922      196.75922      196.75922     -51.761569    
    220000   599.68632     -4896235.3      196.76733      196.76733      196.76733      3.402297     
    221000   598.18063     -4896374.8      196.74651      196.74651      196.74651     -85.409468    
    222000   600.47401     -4896145.1      196.75584      196.75584      196.75584     -111.81472    
    223000   600.34972     -4896270.1      196.76528      196.76528      196.76528     -73.395513    
    224000   600.64193     -4896221.2      196.72889      196.72889      196.72889      76.622483    
    225000   600.40919     -4896148.5      196.75841      196.75841      196.75841      17.130378    
    226000   600.49396     -4896220.9      196.75521      196.75521      196.75521      103.99025    
    227000   599.82191     -4896243.8      196.76363      196.76363      196.76363      30.063014    
    228000   599.83488     -4896293.9      196.74037      196.74037      196.74037      43.227752    
    229000   600.37166     -4896312.9      196.76733      196.76733      196.76733     -130.09917    
    230000   600.40194     -4896153.4      196.74709      196.74709      196.74709     -8.8661548    
    231000   600.65933     -4896215.7      196.76662      196.76662      196.76662     -171.90271    
    232000   599.21475     -4896314.4      196.75415      196.75415      196.75415      0.14800558   
    233000   600.81533     -4896193.8      196.76848      196.76848      196.76848     -94.54392     
    234000   599.9501      -4896245        196.76023      196.76023      196.76023     -161.01665    
    235000   600.57612     -4896223.2      196.73324      196.73324      196.73324      314.95205    
    236000   598.59667     -4896382.2      196.75236      196.75236      196.75236     -64.084007    
    237000   599.99671     -4896378.3      196.76087      196.76087      196.76087      4.3829396    
    238000   599.88893     -4896320.9      196.74726      196.74726      196.74726      21.675197    
    239000   600.53851     -4896184.7      196.7782       196.7782       196.7782      -55.640454    
    240000   599.43591     -4896412.3      196.7561       196.7561       196.7561       32.804939    
    241000   599.04207     -4896297        196.76752      196.76752      196.76752     -77.782456    
    242000   600.23713     -4896243.9      196.75747      196.75747      196.75747      45.301113    
    243000   599.51404     -4896301.4      196.75757      196.75757      196.75757     -41.313558    
    244000   599.45761     -4896276.7      196.75985      196.75985      196.75985      53.294132    
    245000   599.74185     -4896302.9      196.75404      196.75404      196.75404     -55.60809     
    246000   598.92641     -4896313.2      196.77769      196.77769      196.77769     -86.539921    
    247000   600.6153      -4896248.7      196.7592       196.7592       196.7592       26.31887     
    248000   600.26974     -4896353.4      196.76288      196.76288      196.76288     -62.509924    
    249000   601.11462     -4896211.4      196.75327      196.75327      196.75327      88.554636    
    250000   600.76978     -4896210        196.76145      196.76145      196.76145     -78.416363    
    251000   600.52485     -4896291.3      196.74603      196.74603      196.74603      166.68255    
    252000   599.53031     -4896250.8      196.78433      196.78433      196.78433     -206.93224    
    253000   599.09189     -4896314.9      196.75859      196.75859      196.75859     -7.5928371    
    254000   600.31854     -4896345.4      196.75321      196.75321      196.75321     -103.60395    
    255000   599.91969     -4896325.4      196.75097      196.75097      196.75097     -23.17353     
    256000   600.48339     -4896291.4      196.7576       196.7576       196.7576       102.2042     
    257000   599.31532     -4896325.5      196.75157      196.75157      196.75157      107.31569    
    258000   600.66819     -4896269.6      196.74764      196.74764      196.74764      21.493017    
    259000   601.70665     -4896178.7      196.71466      196.71466      196.71466      297.02086    
    260000   598.78799     -4896332.3      196.73041      196.73041      196.73041      60.160148    
    261000   599.02933     -4896391.6      196.74309      196.74309      196.74309      16.073472    
    262000   601.38989     -4896269.2      196.75575      196.75575      196.75575     -7.7866014    
    263000   599.66822     -4896290.1      196.75356      196.75356      196.75356      42.016949    
    264000   600.22726     -4896357.7      196.75958      196.75958      196.75958      32.94707     
    265000   599.78945     -4896323.3      196.77862      196.77862      196.77862     -14.808037    
    266000   600.42498     -4896293.1      196.7427       196.7427       196.7427       23.192138    
    267000   599.96614     -4896303.9      196.77677      196.77677      196.77677     -251.80483    
    268000   600.23714     -4896332.3      196.7554       196.7554       196.7554      -5.7937476    
    269000   600.08245     -4896396.9      196.72866      196.72866      196.72866     -10.684644    
    270000   600.33665     -4896330.8      196.75526      196.75526      196.75526     -28.774142    
    271000   601.56565     -4896310.8      196.75558      196.75558      196.75558      1.4238859    
    272000   600.10478     -4896354.4      196.73443      196.73443      196.73443      2.4570407    
    273000   600.18216     -4896317.9      196.74476      196.74476      196.74476     -127.05943    
    274000   599.75104     -4896346.2      196.75245      196.75245      196.75245     -81.311339    
    275000   599.23592     -4896434.6      196.72861      196.72861      196.72861      61.392741    
    276000   599.86035     -4896373.3      196.73877      196.73877      196.73877      164.34966    
    277000   599.08722     -4896404        196.73802      196.73802      196.73802      59.129908    
    278000   597.92711     -4896562.5      196.74331      196.74331      196.74331      48.117582    
    279000   600.54464     -4896259        196.74942      196.74942      196.74942     -30.285667    
    280000   598.65693     -4896385.8      196.74886      196.74886      196.74886     -112.61797    
    281000   600.22565     -4896370.2      196.7453       196.7453       196.7453      -80.018477    
    282000   600.06787     -4896348.9      196.72317      196.72317      196.72317      174.8289     
    283000   601.45149     -4896328.1      196.73713      196.73713      196.73713      167.73198    
    284000   599.10934     -4896448.9      196.75177      196.75177      196.75177     -60.679622    
    285000   601.15969     -4896331        196.76104      196.76104      196.76104     -17.868384    
    286000   599.60774     -4896410.9      196.75316      196.75316      196.75316     -63.713139    
    287000   599.02548     -4896402.6      196.74473      196.74473      196.74473     -14.183693    
    288000   600.13427     -4896427.5      196.75139      196.75139      196.75139     -115.14336    
    289000   600.49131     -4896397.2      196.73732      196.73732      196.73732      21.790739    
    290000   600.96054     -4896436.7      196.75088      196.75088      196.75088     -42.488861    
    291000   598.74086     -4896486.7      196.75442      196.75442      196.75442     -104.10207    
    292000   598.86832     -4896422        196.74613      196.74613      196.74613     -2.0101798    
    293000   601.10888     -4896341.7      196.7269       196.7269       196.7269      -48.932119    
    294000   599.12062     -4896421.7      196.72521      196.72521      196.72521     -11.149277    
    295000   599.368       -4896480.5      196.71391      196.71391      196.71391      206.37742    
    296000   600.77506     -4896314.5      196.73451      196.73451      196.73451      67.762136    
    297000   599.92284     -4896378.8      196.74966      196.74966      196.74966     -173.05746    
    298000   600.1966      -4896378.6      196.74237      196.74237      196.74237     -129.45283    
    299000   599.02925     -4896404        196.73846      196.73846      196.73846      62.490692    
    300000   599.46197     -4896463.5      196.72816      196.72816      196.72816      139.09358    
    301000   600.18392     -4896345.4      196.73264      196.73264      196.73264      47.392868    
    302000   599.57865     -4896355.5      196.73553      196.73553      196.73553     -48.087283    
    303000   601.15776     -4896362.6      196.72013      196.72013      196.72013      116.77826    
    304000   599.83617     -4896491.1      196.73675      196.73675      196.73675      20.618793    
    305000   600.78224     -4896336.3      196.71805      196.71805      196.71805      202.42037    
    306000   599.82679     -4896508.7      196.7488       196.7488       196.7488      -189.12708    
    307000   599.31181     -4896454.8      196.73493      196.73493      196.73493     -55.739252    
    308000   599.80703     -4896404.9      196.72517      196.72517      196.72517      110.01033    
    309000   599.14689     -4896502.5      196.71728      196.71728      196.71728      79.7955      
    310000   599.5605      -4896399.4      196.73         196.73         196.73         9.2257146    
    311000   599.1333      -4896532.9      196.73314      196.73314      196.73314     -140.44589    
    312000   598.92536     -4896471.8      196.73485      196.73485      196.73485     -11.563771    
    313000   601.32943     -4896342.3      196.72977      196.72977      196.72977      100.3326     
    314000   600.54596     -4896418.1      196.71306      196.71306      196.71306      146.85683    
    315000   599.42174     -4896437.8      196.72522      196.72522      196.72522      40.789355    
    316000   599.35998     -4896477.5      196.7248       196.7248       196.7248       143.95651    
    317000   600.90348     -4896387.5      196.72583      196.72583      196.72583     -69.196778    
    318000   598.628       -4896546.1      196.71097      196.71097      196.71097      96.395428    
    319000   600.93691     -4896414.4      196.71755      196.71755      196.71755     -10.697278    
    320000   600.56463     -4896417.1      196.72172      196.72172      196.72172     -57.157388    
    321000   600.68095     -4896432.2      196.73388      196.73388      196.73388      3.2669909    
    322000   598.56755     -4896526.2      196.71236      196.71236      196.71236     -36.017281    
    323000   600.417       -4896443.1      196.71895      196.71895      196.71895      35.169601    
    324000   598.99712     -4896513.7      196.72605      196.72605      196.72605     -61.508628    
    325000   599.41424     -4896530        196.73805      196.73805      196.73805     -105.2687     
    326000   598.40113     -4896554.4      196.74569      196.74569      196.74569     -198.65245    
    327000   599.70259     -4896525        196.71903      196.71903      196.71903     -43.793484    
    328000   601.16053     -4896353.8      196.71398      196.71398      196.71398      167.5466     
    329000   600.85937     -4896362.3      196.72605      196.72605      196.72605      87.673347    
    330000   600.23433     -4896461        196.72544      196.72544      196.72544      62.56871     
    331000   600.24685     -4896451.7      196.72144      196.72144      196.72144      56.184074    
    332000   600.59491     -4896477.4      196.73338      196.73338      196.73338      94.560805    
    333000   600.04118     -4896530.3      196.7277       196.7277       196.7277       57.634387    
    334000   600.50134     -4896378.6      196.73097      196.73097      196.73097      153.73988    
    335000   600.83333     -4896407.6      196.73945      196.73945      196.73945      49.599129    
    336000   599.55727     -4896499.5      196.73082      196.73082      196.73082     -50.905689    
    337000   601.18583     -4896410.9      196.73564      196.73564      196.73564     -130.72018    
    338000   601.31562     -4896472.6      196.72227      196.72227      196.72227      118.13727    
    339000   601.08198     -4896441.8      196.71477      196.71477      196.71477      55.679597    
    340000   599.65183     -4896425.4      196.71676      196.71676      196.71676      29.800478    
    341000   599.78993     -4896487.1      196.70341      196.70341      196.70341      158.50847    
    342000   598.95563     -4896546.6      196.72818      196.72818      196.72818     -19.25312     
    343000   600.08062     -4896456.1      196.72092      196.72092      196.72092     -115.43707    
    344000   599.89936     -4896479.7      196.72409      196.72409      196.72409      118.42946    
    345000   600.11653     -4896450.7      196.71613      196.71613      196.71613      110.34476    
    346000   599.28029     -4896495        196.72564      196.72564      196.72564     -0.46403501   
    347000   599.65586     -4896493.9      196.72621      196.72621      196.72621      54.804805    
    348000   599.46359     -4896509.3      196.7163       196.7163       196.7163       12.703168    
    349000   599.7874      -4896498.5      196.71033      196.71033      196.71033     -28.879319    
    350000   600.06963     -4896500.2      196.71112      196.71112      196.71112      224.5996     
    351000   599.34467     -4896432.6      196.74347      196.74347      196.74347     -164.38002    
    352000   600.10576     -4896463.8      196.736        196.736        196.736        1.5239622    
    353000   599.12615     -4896553.3      196.70717      196.70717      196.70717      191.07165    
    354000   600.38534     -4896473        196.73031      196.73031      196.73031     -4.7235684    
    355000   599.84028     -4896588.6      196.71298      196.71298      196.71298      169.23161    
    356000   599.66864     -4896421.4      196.74056      196.74056      196.74056     -161.52843    
    357000   601.27261     -4896421        196.72521      196.72521      196.72521     -11.637498    
    358000   599.12712     -4896475.5      196.74043      196.74043      196.74043     -57.362786    
    359000   599.30076     -4896489        196.73339      196.73339      196.73339     -59.329645    
    360000   599.50552     -4896544.9      196.70934      196.70934      196.70934      25.007807    
    361000   600.52921     -4896465.1      196.7098       196.7098       196.7098       20.849283    
    362000   599.74385     -4896559.9      196.71541      196.71541      196.71541      16.195317    
    363000   599.08147     -4896536.1      196.71254      196.71254      196.71254      64.121472    
    364000   600.1511      -4896491.3      196.73419      196.73419      196.73419     -143.18835    
    365000   599.93916     -4896524.4      196.73475      196.73475      196.73475     -163.10067    
    366000   601.38086     -4896420.1      196.70061      196.70061      196.70061      193.78418    
    367000   600.01095     -4896514.8      196.73571      196.73571      196.73571     -177.54673    
    368000   598.95723     -4896519.2      196.71698      196.71698      196.71698     -44.087217    
    369000   600.48815     -4896524.5      196.71476      196.71476      196.71476      67.626601    
    370000   600.44844     -4896451.7      196.71978      196.71978      196.71978      67.472974    
    371000   599.5129      -4896526.4      196.73088      196.73088      196.73088      46.947026    
    372000   599.67686     -4896530.6      196.73501      196.73501      196.73501     -74.799411    
    373000   599.91591     -4896468.6      196.7203       196.7203       196.7203       62.117104    
    374000   599.97396     -4896461.1      196.72592      196.72592      196.72592     -44.070177    
    375000   599.47651     -4896601.3      196.73519      196.73519      196.73519     -135.45356    
    376000   600.85132     -4896546.6      196.72592      196.72592      196.72592     -90.757532    
    377000   598.35855     -4896536.6      196.75297      196.75297      196.75297     -193.85094    
    378000   599.89293     -4896504.2      196.72939      196.72939      196.72939     -34.319746    
    379000   599.62215     -4896505        196.70996      196.70996      196.70996     -50.225701    
    380000   600.44055     -4896473.2      196.70592      196.70592      196.70592      35.47619     
    381000   598.59652     -4896637.8      196.70878      196.70878      196.70878      40.46625     
    382000   599.49799     -4896582.6      196.70753      196.70753      196.70753      12.258028    
    383000   599.46416     -4896491.5      196.71638      196.71638      196.71638     -48.46786     
    384000   601.09086     -4896434.3      196.71934      196.71934      196.71934     -3.8835146    
    385000   601.19801     -4896421.8      196.72005      196.72005      196.72005      16.852683    
    386000   599.75255     -4896623.9      196.71143      196.71143      196.71143      56.080214    
    387000   600.32764     -4896550.6      196.71987      196.71987      196.71987      151.05961    
    388000   600.89969     -4896480.3      196.74201      196.74201      196.74201     -47.800047    
    389000   600.00306     -4896465.3      196.7283       196.7283       196.7283      -18.649267    
    390000   599.57281     -4896533.9      196.7314       196.7314       196.7314      -27.88535     
    391000   601.08454     -4896459.3      196.70751      196.70751      196.70751      131.03679    
    392000   600.31412     -4896512        196.73308      196.73308      196.73308     -112.83743    
    393000   599.48106     -4896533.5      196.71463      196.71463      196.71463     -87.77916     
    394000   601.36815     -4896511.8      196.70081      196.70081      196.70081      78.58783     
    395000   601.26165     -4896469        196.69732      196.69732      196.69732      220.68481    
    396000   600.52081     -4896493.8      196.71521      196.71521      196.71521     -90.479674    
    397000   599.808       -4896545.6      196.71705      196.71705      196.71705     -95.317889    
    398000   599.62655     -4896599.4      196.71529      196.71529      196.71529     -64.881548    
    399000   600.5388      -4896552        196.71         196.71         196.71         110.27414    
    400000   600.19122     -4896518.2      196.71667      196.71667      196.71667     -91.297129    
    401000   599.03429     -4896662.9      196.72907      196.72907      196.72907     -72.187232    
    402000   599.96967     -4896618.3      196.7272       196.7272       196.7272      -80.245416    
    403000   598.93758     -4896590.7      196.72648      196.72648      196.72648     -96.10082     
    404000   600.24178     -4896642        196.69563      196.69563      196.69563      43.922212    
    405000   599.64539     -4896602.6      196.69593      196.69593      196.69593     -113.3128     
    406000   599.51393     -4896506.4      196.73853      196.73853      196.73853     -191.68239    
    407000   599.982       -4896499.6      196.71882      196.71882      196.71882     -15.199612    
    408000   599.8267      -4896546.6      196.71759      196.71759      196.71759     -8.6405076    
    409000   600.44194     -4896529.4      196.71587      196.71587      196.71587      23.409338    
    410000   600.67997     -4896497.6      196.71296      196.71296      196.71296      17.252688    
    411000   600.42056     -4896571.5      196.72424      196.72424      196.72424     -29.377007    
    412000   599.9923      -4896570.6      196.72115      196.72115      196.72115     -19.464562    
    413000   600.52283     -4896523        196.72953      196.72953      196.72953      21.057555    
    414000   600.38647     -4896550.7      196.72588      196.72588      196.72588      27.117556    
    415000   598.57059     -4896699.2      196.69634      196.69634      196.69634      224.47168    
    416000   601.40506     -4896505.2      196.71092      196.71092      196.71092      102.60762    
    417000   598.76383     -4896622.3      196.71013      196.71013      196.71013      133.4977     
    418000   600.06965     -4896606.1      196.72068      196.72068      196.72068     -55.587991    
    419000   600.17192     -4896468.7      196.71005      196.71005      196.71005      50.247433    
    420000   599.84599     -4896539.1      196.72487      196.72487      196.72487     -122.74995    
    421000   599.07478     -4896589.8      196.71346      196.71346      196.71346      102.97775    
    422000   600.5064      -4896595.9      196.73288      196.73288      196.73288     -20.587565    
    423000   599.99917     -4896543        196.72088      196.72088      196.72088     -19.759439    
    424000   599.33562     -4896638.6      196.71801      196.71801      196.71801     -29.916446    
    425000   598.59615     -4896644        196.71444      196.71444      196.71444      48.134076    
    426000   600.03873     -4896557.9      196.71566      196.71566      196.71566     -42.202855    
    427000   599.75249     -4896649.4      196.69714      196.69714      196.69714      138.72202    
    428000   599.25183     -4896626.5      196.71241      196.71241      196.71241     -183.272      
    429000   600.66663     -4896559.1      196.70793      196.70793      196.70793      167.10262    
    430000   600.3254      -4896545.8      196.7126       196.7126       196.7126       167.59954    
    431000   599.68392     -4896571.1      196.72235      196.72235      196.72235      33.702177    
    432000   600.00899     -4896655.1      196.71071      196.71071      196.71071      84.632167    
    433000   600.3381      -4896569.6      196.7305       196.7305       196.7305      -38.679438    
    434000   601.23929     -4896610.9      196.71165      196.71165      196.71165     -13.780072    
    435000   598.72752     -4896684.7      196.7431       196.7431       196.7431      -265.50251    
    436000   599.18468     -4896582.7      196.72077      196.72077      196.72077      107.41433    
    437000   600.19757     -4896604.6      196.72157      196.72157      196.72157      116.87414    
    438000   600.19513     -4896652        196.72193      196.72193      196.72193      83.206073    
    439000   599.289       -4896595.3      196.72749      196.72749      196.72749      27.79707     
    440000   600.60514     -4896653.3      196.72312      196.72312      196.72312     -65.92724     
    441000   600.15773     -4896536.3      196.71225      196.71225      196.71225      1.5425104    
    442000   599.2296      -4896576.1      196.7209       196.7209       196.7209      -59.353373    
    443000   601.10653     -4896502.9      196.71076      196.71076      196.71076     -90.949472    
    444000   599.13957     -4896603.2      196.73134      196.73134      196.73134     -122.8774     
    445000   598.92578     -4896663.9      196.73877      196.73877      196.73877     -111.68949    
    446000   599.03211     -4896604.2      196.72744      196.72744      196.72744      25.027736    
    447000   600.30656     -4896559.8      196.70697      196.70697      196.70697      188.12778    
    448000   599.035       -4896801.5      196.69625      196.69625      196.69625      96.759308    
    449000   599.66004     -4896576.3      196.7102       196.7102       196.7102      -57.760983    
    450000   600.24776     -4896586.4      196.70036      196.70036      196.70036      146.20596    
    451000   599.92346     -4896553.7      196.7025       196.7025       196.7025       100.47822    
    452000   600.23184     -4896534.8      196.71767      196.71767      196.71767      108.8016     
    453000   599.95672     -4896666.7      196.70073      196.70073      196.70073      226.50821    
    454000   600.32533     -4896547.3      196.71694      196.71694      196.71694      52.916501    
    455000   598.65143     -4896615.1      196.70885      196.70885      196.70885      78.194285    
    456000   599.48144     -4896673.5      196.71565      196.71565      196.71565     -56.041966    
    457000   598.89202     -4896657.6      196.72434      196.72434      196.72434     -152.02025    
    458000   599.3898      -4896697.4      196.72233      196.72233      196.72233     -204.7678     
    459000   599.58466     -4896604.7      196.70933      196.70933      196.70933     -4.5782011    
    460000   600.13856     -4896644.9      196.72823      196.72823      196.72823     -61.115412    
    461000   600.09335     -4896550.1      196.74121      196.74121      196.74121     -172.40903    
    462000   600.0124      -4896623.3      196.70647      196.70647      196.70647      19.179991    
    463000   600.51615     -4896606        196.70958      196.70958      196.70958     -53.637543    
    464000   600.31482     -4896626.1      196.70024      196.70024      196.70024      25.994497    
    465000   600.21771     -4896559        196.72552      196.72552      196.72552     -155.74863    
    466000   599.14474     -4896667.7      196.74153      196.74153      196.74153     -249.7019     
    467000   599.6138      -4896736.5      196.71603      196.71603      196.71603      11.435237    
    468000   599.3098      -4896611.5      196.71339      196.71339      196.71339      90.549261    
    469000   600.01512     -4896616.1      196.73465      196.73465      196.73465     -69.378663    
    470000   599.97542     -4896614.7      196.71518      196.71518      196.71518      122.93096    
    471000   599.15531     -4896583.8      196.74466      196.74466      196.74466     -107.97631    
    472000   600.45232     -4896645.7      196.74496      196.74496      196.74496     -33.017001    
    473000   600.19837     -4896608.8      196.70889      196.70889      196.70889      150.04562    
    474000   601.37908     -4896487.9      196.73256      196.73256      196.73256      37.265423    
    475000   600.04287     -4896622.2      196.71085      196.71085      196.71085      62.232783    
    476000   601.07547     -4896578.5      196.72089      196.72089      196.72089     -75.796837    
    477000   599.91221     -4896612.8      196.70284      196.70284      196.70284     -21.877632    
    478000   600.51677     -4896617.4      196.71086      196.71086      196.71086     -40.242524    
    479000   599.33352     -4896645.5      196.70592      196.70592      196.70592      77.871819    
    480000   599.79672     -4896646.5      196.721        196.721        196.721       -72.794454    
    481000   600.23326     -4896609.5      196.72159      196.72159      196.72159      44.210711    
    482000   599.76413     -4896632.1      196.72062      196.72062      196.72062     -61.888555    
    483000   600.58618     -4896555        196.74089      196.74089      196.74089     -94.364288    
    484000   600.40659     -4896595.4      196.73548      196.73548      196.73548     -151.06979    
    485000   599.82174     -4896644.3      196.71099      196.71099      196.71099      89.891902    
    486000   600.75191     -4896613.9      196.70704      196.70704      196.70704      38.074588    
    487000   598.8495      -4896715.4      196.72309      196.72309      196.72309      19.82301     
    488000   600.03458     -4896589.5      196.7419       196.7419       196.7419      -185.0118     
    489000   599.76651     -4896622.8      196.72368      196.72368      196.72368      105.89012    
    490000   600.54173     -4896599.1      196.74145      196.74145      196.74145     -14.356177    
    491000   600.89587     -4896520.8      196.75208      196.75208      196.75208     -131.39346    
    492000   600.79802     -4896593.2      196.74277      196.74277      196.74277     -70.263291    
    493000   600.70764     -4896505.9      196.74763      196.74763      196.74763     -12.975505    
    494000   598.80038     -4896703.3      196.73145      196.73145      196.73145      47.956133    
    495000   600.60405     -4896624.4      196.71614      196.71614      196.71614      14.897779    
    496000   599.27259     -4896723        196.70344      196.70344      196.70344     -9.9222259    
    497000   599.32321     -4896651.4      196.71315      196.71315      196.71315     -51.736019    
    498000   600.49041     -4896586.1      196.71042      196.71042      196.71042      169.34862    
    499000   599.13001     -4896695.8      196.70515      196.70515      196.70515      82.852625    
    500000   599.47036     -4896645.4      196.71957      196.71957      196.71957     -6.9245115    
    501000   600.23721     -4896638.4      196.73643      196.73643      196.73643     -68.285564    
    502000   598.80939     -4896760.1      196.7293       196.7293       196.7293      -136.71662    
    503000   600.75392     -4896656.9      196.71341      196.71341      196.71341      69.867619    
    504000   600.65513     -4896668.1      196.70654      196.70654      196.70654      111.43394    
    505000   600.94209     -4896501.2      196.70034      196.70034      196.70034      76.179106    
    506000   601.26298     -4896573        196.70505      196.70505      196.70505      127.35802    
    507000   599.14241     -4896727.9      196.71208      196.71208      196.71208     -36.87291     
    508000   599.35255     -4896708.4      196.73686      196.73686      196.73686     -183.29669    
    509000   600.2063      -4896675.5      196.71098      196.71098      196.71098      73.677707    
    510000   598.82434     -4896754.4      196.74743      196.74743      196.74743     -185.60706    
    511000   600.34144     -4896649.2      196.72835      196.72835      196.72835     -92.027527    
    512000   599.35529     -4896703.2      196.7228       196.7228       196.7228      -62.75228     
    513000   600.18197     -4896685.4      196.7238       196.7238       196.7238       7.2434397    
    514000   599.46959     -4896715.1      196.73004      196.73004      196.73004      50.336651    
    515000   598.88693     -4896645.2      196.73413      196.73413      196.73413     -38.114842    
    516000   600.99415     -4896550.6      196.72992      196.72992      196.72992      18.989903    
    517000   600.07191     -4896586        196.73655      196.73655      196.73655     -105.0415     
    518000   598.13678     -4896767.4      196.72936      196.72936      196.72936     -115.11564    
    519000   599.74504     -4896593.4      196.74592      196.74592      196.74592     -184.8456     
    520000   599.04792     -4896681.2      196.74327      196.74327      196.74327     -104.6104     
    521000   600.1181      -4896591.7      196.72741      196.72741      196.72741     -28.480819    
    522000   600.32347     -4896687.8      196.73272      196.73272      196.73272     -91.229099    
    523000   600.38909     -4896659.6      196.69902      196.69902      196.69902      170.17678    
    524000   599.73599     -4896690.6      196.71078      196.71078      196.71078      14.977681    
    525000   600.78523     -4896657.8      196.70945      196.70945      196.70945      80.348566    
    526000   600.33506     -4896599.7      196.70773      196.70773      196.70773      143.21461    
    527000   600.4654      -4896623.8      196.70755      196.70755      196.70755      11.879876    
    528000   599.88675     -4896634.6      196.73594      196.73594      196.73594     -40.338331    
    529000   600.27504     -4896605.4      196.7206       196.7206       196.7206      -129.85379    
    530000   601.00822     -4896676.4      196.72353      196.72353      196.72353     -71.277937    
    531000   600.11321     -4896642.8      196.71256      196.71256      196.71256     -57.946077    
    532000   601.04836     -4896588.5      196.71827      196.71827      196.71827     -140.24228    
    533000   599.75031     -4896613.4      196.71856      196.71856      196.71856     -101.77813    
    534000   600.66194     -4896466.3      196.7394       196.7394       196.7394      -137.81421    
    535000   600.23844     -4896627.7      196.72042      196.72042      196.72042     -24.427425    
    536000   600.0657      -4896679.9      196.71933      196.71933      196.71933      102.83104    
    537000   599.86072     -4896645.4      196.73377      196.73377      196.73377     -81.870107    
    538000   600.01189     -4896593.3      196.75327      196.75327      196.75327     -155.95701    
    539000   600.50989     -4896618.5      196.73198      196.73198      196.73198     -72.314815    
    540000   600.75386     -4896668.9      196.71026      196.71026      196.71026     -83.034183    
    541000   600.76594     -4896643.4      196.69261      196.69261      196.69261      164.15992    
    542000   599.55259     -4896744.3      196.69162      196.69162      196.69162      197.46889    
    543000   600.90303     -4896685.4      196.73497      196.73497      196.73497     -181.58437    
    544000   599.68791     -4896774.7      196.7295       196.7295       196.7295      -75.218016    
    545000   600.33731     -4896658.4      196.71269      196.71269      196.71269      78.644486    
    546000   599.95058     -4896768.6      196.71894      196.71894      196.71894      103.42773    
    547000   600.63552     -4896651.4      196.72986      196.72986      196.72986     -55.615021    
    548000   600.2482      -4896670.9      196.73565      196.73565      196.73565     -182.97538    
    549000   598.98396     -4896804        196.72863      196.72863      196.72863     -112.72017    
    550000   599.54383     -4896738.2      196.71609      196.71609      196.71609      175.64352    
    551000   600.0801      -4896692.3      196.71024      196.71024      196.71024      0.19371369   
    552000   600.77888     -4896681.1      196.7325       196.7325       196.7325      -275.45484    
    553000   599.01834     -4896704.5      196.72716      196.72716      196.72716     -102.36844    
    554000   600.21126     -4896684.2      196.72156      196.72156      196.72156     -41.743241    
    555000   599.17511     -4896679.4      196.71909      196.71909      196.71909     -70.597927    
    556000   598.9426      -4896753.1      196.70364      196.70364      196.70364      63.421593    
    557000   600.46913     -4896624.1      196.71112      196.71112      196.71112     -1.1890943    
    558000   599.05135     -4896803.2      196.72094      196.72094      196.72094     -58.101358    
    559000   600.70261     -4896614.1      196.71427      196.71427      196.71427      128.69941    
    560000   600.58411     -4896754.4      196.70443      196.70443      196.70443     -81.641729    
    561000   599.06907     -4896734.9      196.72322      196.72322      196.72322     -123.95068    
    562000   599.68906     -4896685.5      196.71065      196.71065      196.71065      78.658985    
    563000   599.5771      -4896777.6      196.70479      196.70479      196.70479     -4.027451     
    564000   599.64294     -4896771.2      196.7123       196.7123       196.7123       116.39677    
    565000   598.6875      -4896722.9      196.71713      196.71713      196.71713     -138.17653    
    566000   600.09611     -4896729.7      196.70369      196.70369      196.70369      108.15707    
    567000   600.20921     -4896732.5      196.71732      196.71732      196.71732      44.01562     
    568000   599.88341     -4896673        196.72337      196.72337      196.72337     -21.660739    
    569000   600.5279      -4896715.1      196.71682      196.71682      196.71682      45.159906    
    570000   601.4749      -4896657.5      196.72346      196.72346      196.72346      64.046215    
    571000   599.1729      -4896749.7      196.71353      196.71353      196.71353     -5.5635238    
    572000   599.71575     -4896766.5      196.698        196.698        196.698        34.961541    
    573000   600.01807     -4896684.5      196.7289       196.7289       196.7289      -124.1775     
    574000   600.34752     -4896703.2      196.70732      196.70732      196.70732      55.379843    
    575000   600.53254     -4896720.8      196.69427      196.69427      196.69427      94.923552    
    576000   600.68233     -4896671.8      196.71305      196.71305      196.71305      33.694702    
    577000   599.36479     -4896762.3      196.72511      196.72511      196.72511     -150.14884    
    578000   600.12837     -4896717        196.70838      196.70838      196.70838      1.1945959    
    579000   600.15396     -4896740        196.70501      196.70501      196.70501     -47.331673    
    580000   599.44408     -4896712.8      196.70558      196.70558      196.70558     -29.169377    
    581000   600.06185     -4896615        196.71183      196.71183      196.71183     -65.678397    
    582000   601.14128     -4896685.9      196.70375      196.70375      196.70375     -117.7465     
    583000   600.2807      -4896690.6      196.70442      196.70442      196.70442      72.334589    
    584000   600.33859     -4896696.9      196.69947      196.69947      196.69947      126.64613    
    585000   599.36452     -4896696.1      196.70264      196.70264      196.70264      204.41492    
    586000   600.37296     -4896720.4      196.70919      196.70919      196.70919      28.907964    
    587000   600.71172     -4896611.8      196.71786      196.71786      196.71786     -30.539796    
    588000   600.70453     -4896679        196.71424      196.71424      196.71424     -54.029676    
    589000   600.84346     -4896728.6      196.71049      196.71049      196.71049      77.700056    
    590000   598.76261     -4896876.5      196.73916      196.73916      196.73916     -177.68803    
    591000   600.56213     -4896695        196.71406      196.71406      196.71406      64.37661     
    592000   600.44779     -4896668.7      196.70386      196.70386      196.70386      65.532084    
    593000   598.71484     -4896785.6      196.71244      196.71244      196.71244      77.443116    
    594000   599.99208     -4896734.2      196.71045      196.71045      196.71045      139.46549    
    595000   598.78178     -4896837.6      196.69716      196.69716      196.69716      40.570663    
    596000   599.42591     -4896747.4      196.71287      196.71287      196.71287      26.422475    
    597000   599.73546     -4896789.5      196.69775      196.69775      196.69775      18.313235    
    598000   600.16418     -4896727.9      196.70659      196.70659      196.70659      89.407523    
    599000   600.8531      -4896679.6      196.71231      196.71231      196.71231     -63.575491    
    600000   599.9032      -4896746        196.71067      196.71067      196.71067     -52.326852    
    601000   599.28887     -4896749.1      196.72485      196.72485      196.72485     -105.79318    
    602000   600.3323      -4896772.3      196.70922      196.70922      196.70922      94.472717    
    603000   600.2975      -4896692.5      196.71474      196.71474      196.71474      141.20546    
    604000   599.81964     -4896683.2      196.72544      196.72544      196.72544     -59.342347    
    605000   599.60395     -4896825.4      196.7004       196.7004       196.7004       65.079118    
    606000   600.46971     -4896797        196.70346      196.70346      196.70346     -20.261613    
    607000   599.51418     -4896746        196.71064      196.71064      196.71064      13.321768    
    608000   600.46708     -4896728.5      196.70725      196.70725      196.70725     -122.03156    
    609000   599.75146     -4896728.3      196.71974      196.71974      196.71974     -15.080987    
    610000   600.66768     -4896678        196.72707      196.72707      196.72707     -244.98031    
    611000   599.88483     -4896795.9      196.69695      196.69695      196.69695      87.473351    
    612000   599.5294      -4896778.3      196.73849      196.73849      196.73849     -170.24995    
    613000   599.41196     -4896882        196.71465      196.71465      196.71465      30.385548    
    614000   599.6168      -4896853.2      196.69598      196.69598      196.69598      74.200848    
    615000   600.09261     -4896701.2      196.71721      196.71721      196.71721     -99.273995    
    616000   600.2438      -4896668.2      196.70862      196.70862      196.70862     -44.193414    
    617000   599.65674     -4896754.8      196.71082      196.71082      196.71082      63.56238     
    618000   600.54462     -4896657.4      196.6946       196.6946       196.6946       87.35205     
    619000   600.33565     -4896797.5      196.71459      196.71459      196.71459     -82.163964    
    620000   600.98801     -4896714.3      196.6976       196.6976       196.6976       62.003464    
    621000   600.10307     -4896745.8      196.70739      196.70739      196.70739     -26.226648    
    622000   600.20926     -4896691.9      196.7076       196.7076       196.7076      -33.883929    
    623000   600.16182     -4896827.6      196.70435      196.70435      196.70435      133.4362     
    624000   600.70349     -4896632.9      196.73283      196.73283      196.73283     -75.840111    
    625000   600.91604     -4896706.3      196.7124       196.7124       196.7124      -8.1678424    
    626000   600.21352     -4896806.1      196.71302      196.71302      196.71302     -120.10988    
    627000   598.45927     -4896831.5      196.70574      196.70574      196.70574      112.29407    
    628000   601.40038     -4896676.9      196.71769      196.71769      196.71769      124.64       
    629000   600.46287     -4896751.8      196.70778      196.70778      196.70778     -12.371294    
    630000   601.1017      -4896689.7      196.71072      196.71072      196.71072      60.116288    
    631000   600.81194     -4896786.2      196.71609      196.71609      196.71609      23.912533    
    632000   600.04628     -4896739.4      196.69817      196.69817      196.69817     -16.090645    
    633000   600.27064     -4896682.8      196.69991      196.69991      196.69991     -31.25581     
    634000   599.5758      -4896799.5      196.72589      196.72589      196.72589     -151.49753    
    635000   599.54439     -4896809.3      196.73311      196.73311      196.73311     -199.39662    
    636000   601.54677     -4896735.7      196.71455      196.71455      196.71455     -5.3599009    
    637000   599.05296     -4896912.3      196.70899      196.70899      196.70899     -7.3742021    
    638000   598.97645     -4896872.4      196.69843      196.69843      196.69843     -42.002101    
    639000   599.70953     -4896751.7      196.70885      196.70885      196.70885     -109.06556    
    640000   599.64886     -4896826.8      196.70688      196.70688      196.70688     -34.019571    
    641000   601.38304     -4896670.8      196.70906      196.70906      196.70906      46.368249    
    642000   600.50687     -4896759.1      196.72959      196.72959      196.72959     -185.14328    
    643000   600.16105     -4896765.6      196.71381      196.71381      196.71381      43.075778    
    644000   599.1915      -4896795.9      196.73304      196.73304      196.73304      13.438941    
    645000   598.90844     -4896836.3      196.7198       196.7198       196.7198       44.246853    
    646000   599.21742     -4896879.7      196.72179      196.72179      196.72179      32.482945    
    647000   600.27514     -4896720        196.72389      196.72389      196.72389     -205.4036     
    648000   599.86461     -4896829.2      196.70314      196.70314      196.70314      69.133967    
    649000   599.10963     -4896926.2      196.70487      196.70487      196.70487     -35.439873    
    650000   600.25327     -4896795.4      196.69181      196.69181      196.69181      126.90984    
    651000   598.98072     -4896841.8      196.70619      196.70619      196.70619     -4.6471281    
    652000   600.76822     -4896744.6      196.71464      196.71464      196.71464     -10.233776    
    653000   600.5776      -4896768.9      196.7188       196.7188       196.7188      -5.9515448    
    654000   600.02187     -4896796.8      196.72413      196.72413      196.72413     -54.394503    
    655000   600.64037     -4896736.3      196.71276      196.71276      196.71276     -4.3197066    
    656000   598.83028     -4896828.9      196.70768      196.70768      196.70768      107.7339     
    657000   599.46127     -4896775.7      196.68793      196.68793      196.68793      101.30291    
    658000   598.04104     -4896936.3      196.69829      196.69829      196.69829      81.566567    
    659000   600.21441     -4896757.4      196.70563      196.70563      196.70563     -41.873463    
    660000   601.24837     -4896609.3      196.71851      196.71851      196.71851     -36.046828    
    661000   599.53037     -4896771.3      196.71116      196.71116      196.71116      73.211016    
    662000   601.12595     -4896682.6      196.70374      196.70374      196.70374      91.390452    
    663000   599.67226     -4896805.2      196.72067      196.72067      196.72067     -122.54457    
    664000   600.40296     -4896829.3      196.72573      196.72573      196.72573     -65.421991    
    665000   600.7991      -4896687.9      196.71023      196.71023      196.71023      26.022739    
    666000   599.16951     -4896825.5      196.70896      196.70896      196.70896     -39.095137    
    667000   600.14208     -4896769        196.71689      196.71689      196.71689     -102.33037    
    668000   600.08401     -4896758.9      196.70694      196.70694      196.70694      6.6107001    
    669000   599.36816     -4896773.7      196.7175       196.7175       196.7175      -52.704272    
    670000   599.20628     -4896848.2      196.71513      196.71513      196.71513      13.127808    
    671000   598.64385     -4896980.7      196.70764      196.70764      196.70764      2.3864204    
    672000   600.36977     -4896771.9      196.73403      196.73403      196.73403     -135.39775    
    673000   600.13631     -4896787.5      196.72359      196.72359      196.72359     -131.55352    
    674000   600.2833      -4896820.1      196.72298      196.72298      196.72298     -103.38403    
    675000   600.89481     -4896779.3      196.71049      196.71049      196.71049      57.294382    
    676000   600.26315     -4896817.9      196.71942      196.71942      196.71942     -74.750955    
    677000   600.42501     -4896750        196.70651      196.70651      196.70651     -110.49713    
    678000   600.5728      -4896675.2      196.72489      196.72489      196.72489      21.237575    
    679000   599.07433     -4896835.8      196.69991      196.69991      196.69991      250.33015    
    680000   600.58507     -4896812.3      196.7056       196.7056       196.7056       89.884455    
    681000   599.88352     -4896728.1      196.7274       196.7274       196.7274      -33.159935    
    682000   599.64792     -4896820.2      196.72263      196.72263      196.72263     -30.640527    
    683000   600.8831      -4896897.1      196.70882      196.70882      196.70882      62.775358    
    684000   600.32588     -4896735.4      196.70967      196.70967      196.70967      26.217512    
    685000   599.30738     -4896817.9      196.72391      196.72391      196.72391      3.2792611    
    686000   599.59177     -4896885.5      196.70167      196.70167      196.70167      14.534641    
    687000   598.96647     -4896845        196.68971      196.68971      196.68971      64.352954    
    688000   599.26196     -4896858.9      196.69693      196.69693      196.69693     -16.128225    
    689000   600.9367      -4896801.2      196.72646      196.72646      196.72646     -40.596506    
    690000   599.82944     -4896834.5      196.71176      196.71176      196.71176      27.417551    
    691000   600.75281     -4896745.7      196.72484      196.72484      196.72484     -70.522046    
    692000   600.41976     -4896730.4      196.70919      196.70919      196.70919      95.660369    
    693000   598.87943     -4896883.7      196.72948      196.72948      196.72948     -127.02427    
    694000   599.9875      -4896825.1      196.71627      196.71627      196.71627      39.656051    
    695000   600.66939     -4896746.2      196.71962      196.71962      196.71962     -82.12956     
    696000   600.6701      -4896867        196.70131      196.70131      196.70131     -49.883939    
    697000   600.86478     -4896778.1      196.7131       196.7131       196.7131      -48.730021    
    698000   599.41131     -4896830.1      196.70984      196.70984      196.70984     -7.8254836    
    699000   601.57668     -4896750.2      196.68857      196.68857      196.68857      22.185869    
    700000   600.2547      -4896813.8      196.70679      196.70679      196.70679      104.09672    
    701000   599.66609     -4896875.2      196.71229      196.71229      196.71229      24.290222    
    702000   598.8224      -4896890.9      196.71547      196.71547      196.71547      96.398202    
    703000   600.84754     -4896744.2      196.72071      196.72071      196.72071     -31.090376    
    704000   599.28019     -4896861.8      196.70104      196.70104      196.70104      76.606261    
    705000   600.15368     -4896792.5      196.70835      196.70835      196.70835      153.79983    
    706000   600.61077     -4896798.9      196.69212      196.69212      196.69212      238.42232    
    707000   600.3933      -4896832.5      196.69997      196.69997      196.69997      102.57178    
    708000   599.79453     -4896812.5      196.71468      196.71468      196.71468     -97.806674    
    709000   600.37178     -4896883.1      196.70097      196.70097      196.70097      107.10554    
    710000   600.87776     -4896736.2      196.7029       196.7029       196.7029       103.3242     
    711000   601.09678     -4896770.4      196.69397      196.69397      196.69397      197.39629    
    712000   601.26755     -4896744.8      196.716        196.716        196.716       -17.380212    
    713000   600.13781     -4896858.5      196.72196      196.72196      196.72196     -29.65566     
    714000   600.72295     -4896807.5      196.71877      196.71877      196.71877      62.718852    
    715000   600.22219     -4896843.6      196.72924      196.72924      196.72924      1.8375424    
    716000   600.17004     -4896886.4      196.70936      196.70936      196.70936     -58.065121    
    717000   600.13088     -4896831.4      196.71369      196.71369      196.71369     -48.513441    
    718000   600.68011     -4896766.3      196.70432      196.70432      196.70432      156.79663    
    719000   600.48523     -4896813.1      196.7149       196.7149       196.7149      -174.62682    
    720000   600.30729     -4896843.8      196.71093      196.71093      196.71093     -71.932102    
    721000   600.11696     -4896870.3      196.70186      196.70186      196.70186      36.928019    
    722000   599.78418     -4896873.9      196.72193      196.72193      196.72193     -2.2694244    
    723000   600.34022     -4896833.4      196.71216      196.71216      196.71216     -57.382769    
    724000   599.67857     -4896842.2      196.72589      196.72589      196.72589      18.155186    
    725000   600.75397     -4896808.6      196.71058      196.71058      196.71058     -28.972439    
    726000   599.8309      -4896865        196.71633      196.71633      196.71633      58.127604    
    727000   600.38499     -4896941.6      196.69067      196.69067      196.69067      246.394      
    728000   599.56716     -4896842.7      196.72555      196.72555      196.72555     -8.8413361    
    729000   599.07337     -4896864.2      196.7351       196.7351       196.7351      -125.98253    
    730000   599.99274     -4896816.1      196.70775      196.70775      196.70775     -30.456013    
    731000   599.46372     -4896903.4      196.69078      196.69078      196.69078      62.152966    
    732000   599.04895     -4896859.9      196.71951      196.71951      196.71951     -88.646889    
    733000   600.11627     -4896767.6      196.7078       196.7078       196.7078       30.799231    
    734000   599.4071      -4896950.6      196.71394      196.71394      196.71394     -86.958437    
    735000   599.0355      -4896955.9      196.73673      196.73673      196.73673     -241.15604    
    736000   600.64406     -4896807.5      196.71325      196.71325      196.71325      40.762251    
    737000   600.08467     -4896795.9      196.69899      196.69899      196.69899      238.95558    
    738000   598.79779     -4896888.1      196.73823      196.73823      196.73823     -106.95075    
    739000   599.14491     -4896888        196.72059      196.72059      196.72059     -47.42193     
    740000   600.47657     -4896878.9      196.71506      196.71506      196.71506     -154.57505    
    741000   599.34786     -4896838.9      196.71683      196.71683      196.71683      95.50228     
    742000   601.07605     -4896776.4      196.71584      196.71584      196.71584      210.71693    
    743000   599.35743     -4896976.2      196.70333      196.70333      196.70333     -50.2452      
    744000   599.27613     -4896901.5      196.71019      196.71019      196.71019     -0.36079053   
    745000   600.32262     -4896774.1      196.7004       196.7004       196.7004       242.2447     
    746000   600.01656     -4896877.8      196.69404      196.69404      196.69404      160.0985     
    747000   600.60864     -4896807.7      196.71751      196.71751      196.71751     -13.200444    
    748000   599.87514     -4896840.5      196.70292      196.70292      196.70292      189.13372    
    749000   600.4561      -4896888.2      196.72027      196.72027      196.72027     -172.14846    
    750000   599.65512     -4896852.5      196.71385      196.71385      196.71385      89.85662     
    751000   601.06528     -4896712.9      196.72523      196.72523      196.72523      62.218278    
    752000   599.14887     -4896866.9      196.72324      196.72324      196.72324     -23.899642    
    753000   600.8823      -4896822.4      196.72366      196.72366      196.72366     -104.52084    
    754000   600.53008     -4896863.8      196.69945      196.69945      196.69945      107.81098    
    755000   598.99292     -4896967.9      196.71307      196.71307      196.71307      130.8519     
    756000   601.47635     -4896796.2      196.7071       196.7071       196.7071       104.75794    
    757000   600.24999     -4896793.3      196.69774      196.69774      196.69774      158.48445    
    758000   600.95119     -4896842.1      196.71094      196.71094      196.71094     -12.470277    
    759000   601.40791     -4896840        196.69991      196.69991      196.69991      23.680109    
    760000   601.49648     -4896731.9      196.72165      196.72165      196.72165     -55.639277    
    761000   599.07706     -4896863.2      196.69945      196.69945      196.69945      35.630088    
    762000   599.75596     -4896841.4      196.70737      196.70737      196.70737     -7.1555788    
    763000   602.15454     -4896817.3      196.70815      196.70815      196.70815      142.14285    
    764000   601.28028     -4896829.5      196.71199      196.71199      196.71199      10.641762    
    765000   599.81882     -4896926.2      196.70238      196.70238      196.70238     -84.840384    
    766000   599.81016     -4896859.3      196.70578      196.70578      196.70578      22.845562    
    767000   600.6439      -4896839.1      196.68175      196.68175      196.68175      183.32188    
    768000   600.44773     -4896935.3      196.69487      196.69487      196.69487      8.1812304    
    769000   600.75504     -4896751.6      196.70725      196.70725      196.70725     -79.640683    
    770000   600.78572     -4896761.5      196.69724      196.69724      196.69724     -31.851805    
    771000   599.3182      -4896894        196.70942      196.70942      196.70942     -2.8179214    
    772000   599.37278     -4896958        196.7137       196.7137       196.7137      -16.492821    
    773000   598.72248     -4896960.9      196.72268      196.72268      196.72268     -164.94936    
    774000   600.20946     -4896889.5      196.7099       196.7099       196.7099       69.898899    
    775000   598.85779     -4896907.3      196.702        196.702        196.702        22.682294    
    776000   599.72918     -4896790.6      196.71258      196.71258      196.71258     -74.437479    
    777000   597.75866     -4897093        196.69149      196.69149      196.69149      145.03578    
    778000   600.45195     -4896882.9      196.72128      196.72128      196.72128     -202.61442    
    779000   599.18597     -4896874.5      196.70945      196.70945      196.70945      21.344908    
    780000   599.97283     -4896868.2      196.70209      196.70209      196.70209     -13.461176    
    781000   599.19675     -4896874.4      196.71391      196.71391      196.71391      61.665206    
    782000   599.35629     -4896839.7      196.72909      196.72909      196.72909     -254.16137    
    783000   599.72634     -4896889.8      196.71933      196.71933      196.71933     -30.065146    
    784000   600.11541     -4896809.5      196.72261      196.72261      196.72261     -126.69577    
    785000   599.92445     -4896891.1      196.71011      196.71011      196.71011     -72.029765    
    786000   599.10175     -4896888.6      196.6921       196.6921       196.6921       27.337709    
    787000   600.71767     -4896883.8      196.68606      196.68606      196.68606      87.131834    
    788000   602.10283     -4896733.4      196.69121      196.69121      196.69121      96.23159     
    789000   600.6601      -4896838.5      196.6963       196.6963       196.6963       118.80061    
    790000   600.37918     -4896832.1      196.71522      196.71522      196.71522      28.087879    
    791000   601.42864     -4896789.1      196.71852      196.71852      196.71852     -38.039075    
    792000   600.79017     -4896849.7      196.71388      196.71388      196.71388     -51.972741    
    793000   598.41361     -4896987.3      196.69569      196.69569      196.69569      158.02877    
    794000   600.76588     -4896847.6      196.70592      196.70592      196.70592      49.641627    
    795000   599.01418     -4896888.5      196.71111      196.71111      196.71111     -44.197638    
    796000   599.49211     -4896859        196.70081      196.70081      196.70081      159.44211    
    797000   599.28345     -4896902.4      196.72488      196.72488      196.72488     -161.46078    
    798000   600.11675     -4896885.5      196.722        196.722        196.722       -157.19474    
    799000   600.01278     -4896851.1      196.71324      196.71324      196.71324     -5.4047887    
    800000   599.70228     -4896858.5      196.71222      196.71222      196.71222      82.266227    
    801000   600.38823     -4896862.8      196.71183      196.71183      196.71183      83.946809    
    802000   600.24321     -4896859.1      196.69759      196.69759      196.69759      24.458635    
    803000   600.59841     -4896750.1      196.7039       196.7039       196.7039       72.222353    
    804000   600.04975     -4896850.4      196.70853      196.70853      196.70853     -79.990426    
    805000   600.24628     -4896824.6      196.71741      196.71741      196.71741     -113.52562    
    806000   599.20341     -4896892.1      196.70387      196.70387      196.70387     -122.78338    
    807000   601.37221     -4896864.2      196.70076      196.70076      196.70076     -93.855016    
    808000   599.28021     -4896950.1      196.70011      196.70011      196.70011      51.499057    
    809000   602.31916     -4896743.4      196.68969      196.68969      196.68969      160.26596    
    810000   600.1352      -4896843.5      196.72133      196.72133      196.72133     -268.02281    
    811000   600.8981      -4896897.9      196.70358      196.70358      196.70358      100.02512    
    812000   598.85132     -4896952.6      196.71103      196.71103      196.71103      103.9089     
    813000   598.83826     -4896866.9      196.68667      196.68667      196.68667      67.867846    
    814000   598.8972      -4896893        196.70885      196.70885      196.70885      74.16873     
    815000   599.99061     -4896868        196.6914       196.6914       196.6914       103.40664    
    816000   600.00221     -4896858.7      196.68832      196.68832      196.68832      190.68778    
    817000   600.01938     -4896916.3      196.70202      196.70202      196.70202     -5.2315271    
    818000   599.31732     -4896890.9      196.70414      196.70414      196.70414      214.32147    
    819000   600.33456     -4896771.4      196.72736      196.72736      196.72736     -22.707767    
    820000   599.7215      -4896878.4      196.73548      196.73548      196.73548     -177.90613    
    821000   599.35996     -4896902.2      196.72666      196.72666      196.72666     -84.86426     
    822000   599.30298     -4896915.1      196.71014      196.71014      196.71014      69.328238    
    823000   600.55571     -4896844.4      196.70916      196.70916      196.70916     -41.643483    
    824000   601.43973     -4896739.5      196.70182      196.70182      196.70182      142.14332    
    825000   600.84243     -4896866.2      196.71225      196.71225      196.71225     -46.712053    
    826000   599.73908     -4896940.4      196.72016      196.72016      196.72016     -57.216047    
    827000   599.33746     -4896935.3      196.71808      196.71808      196.71808     -33.905415    
    828000   599.66555     -4896879.3      196.72295      196.72295      196.72295     -26.391494    
    829000   599.13525     -4896896.8      196.69898      196.69898      196.69898      149.78254    
    830000   600.1874      -4896917.7      196.71661      196.71661      196.71661     -139.38972    
    831000   599.75898     -4896876.6      196.70537      196.70537      196.70537     -74.42746     
    832000   598.64869     -4897034.3      196.69509      196.69509      196.69509      80.385533    
    833000   599.5042      -4896851.5      196.70686      196.70686      196.70686     -46.287796    
    834000   601.13374     -4896816.5      196.68402      196.68402      196.68402      57.141372    
    835000   601.67822     -4896831.7      196.6969       196.6969       196.6969      -73.014004    
    836000   600.31971     -4896835.7      196.69384      196.69384      196.69384      65.301031    
    837000   598.45974     -4896960.9      196.70924      196.70924      196.70924     -109.81497    
    838000   600.21016     -4896822.2      196.72314      196.72314      196.72314     -89.654824    
    839000   599.15665     -4896956.7      196.72055      196.72055      196.72055      99.970582    
    840000   599.89389     -4896896.3      196.71089      196.71089      196.71089      36.966055    
    841000   600.99314     -4896795        196.72538      196.72538      196.72538     -61.966659    
    842000   600.38899     -4896845.6      196.69379      196.69379      196.69379      76.653047    
    843000   599.60186     -4896964.8      196.70375      196.70375      196.70375      34.378351    
    844000   600.43397     -4896867.6      196.68768      196.68768      196.68768      143.75431    
    845000   598.44475     -4897024.3      196.69298      196.69298      196.69298     -18.296201    
    846000   599.11578     -4896920        196.70686      196.70686      196.70686     -24.458859    
    847000   600.67182     -4896938.4      196.70755      196.70755      196.70755     -86.559423    
    848000   599.41199     -4896936.6      196.70174      196.70174      196.70174      49.125709    
    849000   601.48251     -4896783.8      196.70765      196.70765      196.70765      43.801318    
    850000   600.37244     -4896930.1      196.68683      196.68683      196.68683     -27.339067    
    851000   599.25247     -4896943.9      196.70722      196.70722      196.70722     -69.784627    
    852000   599.54152     -4896996.3      196.7081       196.7081       196.7081      -69.899634    
    853000   600.17184     -4896894.9      196.72298      196.72298      196.72298     -165.97954    
    854000   599.37872     -4896893.4      196.71051      196.71051      196.71051     -187.05165    
    855000   599.93929     -4896963.5      196.69497      196.69497      196.69497     -5.0469544    
    856000   599.90596     -4896975.6      196.69614      196.69614      196.69614      53.724146    
    857000   600.75988     -4896917.2      196.67598      196.67598      196.67598      116.3717     
    858000   600.53846     -4896900.1      196.68136      196.68136      196.68136      85.185585    
    859000   599.63735     -4896910.8      196.70254      196.70254      196.70254     -27.128206    
    860000   599.36821     -4897004.5      196.6972       196.6972       196.6972       47.685462    
    861000   598.8247      -4896951.4      196.70129      196.70129      196.70129      12.688369    
    862000   599.2893      -4896895.5      196.69673      196.69673      196.69673      119.71299    
    863000   599.98462     -4896862.6      196.70347      196.70347      196.70347     -31.786867    
    864000   599.66449     -4896916.4      196.69748      196.69748      196.69748      72.728063    
    865000   599.69354     -4896999.8      196.69542      196.69542      196.69542      47.419049    
    866000   599.4667      -4896891        196.71952      196.71952      196.71952     -65.755404    
    867000   599.37803     -4896972.2      196.70753      196.70753      196.70753      38.500006    
    868000   599.82713     -4896946.8      196.70384      196.70384      196.70384     -154.74471    
    869000   598.6795      -4896975.7      196.69425      196.69425      196.69425     -95.80468     
    870000   599.94126     -4896984.3      196.69973      196.69973      196.69973      93.088696    
    871000   600.63369     -4896867.8      196.69778      196.69778      196.69778      136.53426    
    872000   598.87686     -4897030.5      196.69965      196.69965      196.69965      17.418199    
    873000   599.23029     -4897016.8      196.69425      196.69425      196.69425      9.5606141    
    874000   600.27644     -4896944.9      196.69029      196.69029      196.69029      138.63066    
    875000   598.85728     -4896999.4      196.69864      196.69864      196.69864     -138.04061    
    876000   599.83193     -4896862.1      196.69941      196.69941      196.69941     -24.502976    
    877000   599.2536      -4896954.4      196.68877      196.68877      196.68877      55.295242    
    878000   600.50608     -4896881.7      196.70071      196.70071      196.70071     -62.826777    
    879000   600.26775     -4896895.3      196.69425      196.69425      196.69425      72.967062    
    880000   599.36157     -4896949.3      196.73012      196.73012      196.73012     -213.75276    
    881000   600.33869     -4896915.4      196.70552      196.70552      196.70552     -11.296228    
    882000   600.64809     -4896930.1      196.70868      196.70868      196.70868      19.255034    
    883000   600.36417     -4896919.9      196.7156       196.7156       196.7156      -16.641489    
    884000   599.02832     -4896972.3      196.70918      196.70918      196.70918      2.3537952    
    885000   599.42828     -4896897.6      196.71458      196.71458      196.71458     -86.780019    
    886000   600.34218     -4896921.1      196.70499      196.70499      196.70499      14.417596    
    887000   599.73037     -4896898.9      196.70559      196.70559      196.70559      55.116991    
    888000   598.86393     -4896959.6      196.69515      196.69515      196.69515      27.193401    
    889000   600.18557     -4896922.8      196.70527      196.70527      196.70527     -75.35858     
    890000   599.45964     -4896924.5      196.69822      196.69822      196.69822      21.389205    
    891000   600.47506     -4896954.3      196.70507      196.70507      196.70507     -87.207508    
    892000   600.9722      -4896869.5      196.70357      196.70357      196.70357      89.663253    
    893000   600.6306      -4896883.5      196.69533      196.69533      196.69533      29.635437    
    894000   598.16903     -4897043.5      196.70146      196.70146      196.70146      74.736789    
    895000   599.64882     -4896910.1      196.70833      196.70833      196.70833     -76.958397    
    896000   600.46655     -4896879.5      196.69217      196.69217      196.69217      161.12268    
    897000   600.61993     -4896871.1      196.71239      196.71239      196.71239     -51.144462    
    898000   598.79728     -4896983        196.70061      196.70061      196.70061      6.3641613    
    899000   600.8991      -4896924.9      196.70407      196.70407      196.70407     -15.004862    
    900000   600.79053     -4896906.9      196.7108       196.7108       196.7108       91.744414    
    901000   600.41157     -4896950.2      196.69391      196.69391      196.69391      132.58162    
    902000   598.84874     -4896973.8      196.7058       196.7058       196.7058       115.03069    
    903000   599.49145     -4897033.8      196.70392      196.70392      196.70392     -201.07944    
    904000   598.71005     -4897047.6      196.68776      196.68776      196.68776      10.750788    
    905000   599.76199     -4896929.2      196.68051      196.68051      196.68051      65.728983    
    906000   601.33014     -4896805.3      196.68608      196.68608      196.68608      188.29066    
    907000   599.83374     -4896888.6      196.71929      196.71929      196.71929     -45.505454    
    908000   599.59719     -4896878.5      196.71925      196.71925      196.71925      3.0603866    
    909000   598.98194     -4896900.7      196.71098      196.71098      196.71098     -22.381053    
    910000   599.82625     -4896954.7      196.69473      196.69473      196.69473      37.02261     
    911000   599.25054     -4897020.8      196.70308      196.70308      196.70308      63.708823    
    912000   599.48148     -4896977.2      196.6925       196.6925       196.6925       56.109803    
    913000   600.27464     -4896957.4      196.69178      196.69178      196.69178      78.987841    
    914000   599.55381     -4896990.1      196.69145      196.69145      196.69145      86.606876    
    915000   599.08714     -4896946.1      196.71597      196.71597      196.71597     -53.407736    
    916000   600.58238     -4896891.3      196.71016      196.71016      196.71016     -41.259212    
    917000   600.8967      -4896851        196.72255      196.72255      196.72255     -142.59468    
    918000   600.61002     -4896839.4      196.70768      196.70768      196.70768     -50.020919    
    919000   600.44216     -4896910.3      196.71236      196.71236      196.71236     -39.175       
    920000   600.23535     -4896967.8      196.6897       196.6897       196.6897      -41.269427    
    921000   599.7302      -4896985.6      196.71852      196.71852      196.71852     -129.45363    
    922000   600.4103      -4896958.6      196.70755      196.70755      196.70755     -58.335693    
    923000   599.99891     -4896981.9      196.71676      196.71676      196.71676     -57.476358    
    924000   599.59079     -4896986.6      196.70216      196.70216      196.70216     -64.364373    
    925000   600.31115     -4896915.2      196.71115      196.71115      196.71115      86.300051    
    926000   600.30396     -4896920        196.69125      196.69125      196.69125      166.6322     
    927000   599.57674     -4896977        196.71398      196.71398      196.71398     -29.688142    
    928000   598.67559     -4897011.3      196.70058      196.70058      196.70058      97.446544    
    929000   599.85818     -4897028.5      196.70144      196.70144      196.70144     -47.256589    
    930000   600.11977     -4896974.9      196.70224      196.70224      196.70224     -110.30347    
    931000   600.50581     -4896921.8      196.70517      196.70517      196.70517     -78.024288    
    932000   600.59966     -4896921.2      196.70863      196.70863      196.70863     -126.51397    
    933000   600.0528      -4896888.7      196.7026       196.7026       196.7026       71.57035     
    934000   599.27328     -4896964.2      196.70131      196.70131      196.70131     -65.492373    
    935000   600.02169     -4896961.9      196.68032      196.68032      196.68032      274.45177    
    936000   598.98113     -4896966.5      196.70874      196.70874      196.70874     -170.89701    
    937000   600.87993     -4896970.8      196.69243      196.69243      196.69243      0.37717436   
    938000   599.63605     -4896961.2      196.70441      196.70441      196.70441     -9.9562734    
    939000   600.71684     -4896938.7      196.72427      196.72427      196.72427     -32.828058    
    940000   599.15233     -4896963.4      196.71539      196.71539      196.71539      16.139329    
    941000   600.64202     -4896888.1      196.72459      196.72459      196.72459     -31.338468    
    942000   599.32542     -4897001.9      196.69956      196.69956      196.69956      66.952295    
    943000   601.24948     -4896860.7      196.70275      196.70275      196.70275      5.2227638    
    944000   600.79805     -4896927.5      196.69066      196.69066      196.69066     -80.687443    
    945000   598.70423     -4897072.7      196.68286      196.68286      196.68286      134.02036    
    946000   599.83388     -4897017.2      196.67085      196.67085      196.67085      279.38947    
    947000   598.94266     -4897073.1      196.71155      196.71155      196.71155     -65.843962    
    948000   600.43159     -4896915.7      196.72306      196.72306      196.72306     -32.422028    
    949000   599.45298     -4897041        196.69053      196.69053      196.69053      95.174726    
    950000   600.75043     -4896951.3      196.70805      196.70805      196.70805      20.616085    
    951000   600.81757     -4896898.1      196.72501      196.72501      196.72501     -114.08678    
    952000   599.90518     -4896999.2      196.70959      196.70959      196.70959     -185.01615    
    953000   600.31054     -4896972.8      196.68568      196.68568      196.68568      196.65711    
    954000   600.09005     -4896992.5      196.68834      196.68834      196.68834      135.69657    
    955000   600.34842     -4896923.3      196.70875      196.70875      196.70875     -80.580805    
    956000   598.89695     -4897017.6      196.70096      196.70096      196.70096      10.33796     
    957000   601.10878     -4896893.9      196.71722      196.71722      196.71722      0.64842041   
    958000   599.49541     -4896919.4      196.7109       196.7109       196.7109      -53.315222    
    959000   599.04251     -4896973.5      196.69706      196.69706      196.69706      54.648204    
    960000   599.83931     -4896889        196.6926       196.6926       196.6926       79.695673    
    961000   601.17552     -4896913.3      196.71377      196.71377      196.71377     -117.84852    
    962000   600.69337     -4896855.4      196.68717      196.68717      196.68717      60.580299    
    963000   599.5036      -4897016.3      196.69379      196.69379      196.69379     -111.48145    
    964000   600.16279     -4897018.5      196.6905       196.6905       196.6905      -3.2851911    
    965000   599.66775     -4896936.9      196.71867      196.71867      196.71867      31.126325    
    966000   598.93747     -4897083.8      196.69786      196.69786      196.69786      92.149732    
    967000   600.2773      -4896880.3      196.71034      196.71034      196.71034      92.636       
    968000   600.99555     -4896937.4      196.71313      196.71313      196.71313      68.932291    
    969000   599.33832     -4897047.2      196.69911      196.69911      196.69911      109.85754    
    970000   601.24249     -4896957.5      196.71349      196.71349      196.71349      46.619253    
    971000   599.89986     -4896977.2      196.71578      196.71578      196.71578     -6.4973097    
    972000   599.88707     -4896907.9      196.69732      196.69732      196.69732      76.89856     
    973000   601.51149     -4896830.4      196.71559      196.71559      196.71559     -72.785595    
    974000   599.9663      -4896891.3      196.7121       196.7121       196.7121       38.168717    
    975000   600.13342     -4896923.1      196.71372      196.71372      196.71372     -28.203061    
    976000   599.53506     -4897048        196.70683      196.70683      196.70683     -144.25714    
    977000   598.95382     -4897079.1      196.71031      196.71031      196.71031     -132.37845    
    978000   599.25423     -4897062.6      196.69239      196.69239      196.69239     -30.070861    
    979000   600.50014     -4896906.8      196.68851      196.68851      196.68851      128.46759    
    980000   600.11533     -4896959.1      196.68646      196.68646      196.68646      137.2786     
    981000   600.97942     -4896996.6      196.70007      196.70007      196.70007     -91.376281    
    982000   600.50482     -4896957.2      196.7282       196.7282       196.7282      -176.75387    
    983000   599.36573     -4897044.5      196.70988      196.70988      196.70988     -57.153283    
    984000   600.32945     -4896945        196.69514      196.69514      196.69514      95.439057    
    985000   599.46046     -4896979.5      196.70399      196.70399      196.70399      19.818051    
    986000   600.39155     -4896898.9      196.68255      196.68255      196.68255      133.05842    
    987000   598.73806     -4897083.3      196.71222      196.71222      196.71222     -202.36454    
    988000   600.68816     -4896947.2      196.68423      196.68423      196.68423      162.65272    
    989000   600.07175     -4896956.9      196.70709      196.70709      196.70709     -81.768605    
    990000   598.50196     -4897080.5      196.69463      196.69463      196.69463     -77.631883    
    991000   597.98213     -4897056.5      196.69437      196.69437      196.69437     -74.080547    
    992000   600.24032     -4896942.8      196.70501      196.70501      196.70501     -30.67192     
    993000   600.87742     -4896902.1      196.71039      196.71039      196.71039      97.405259    
    994000   599.91544     -4897040.1      196.69961      196.69961      196.69961     -11.508789    
    995000   599.84427     -4896990.9      196.70641      196.70641      196.70641     -52.513507    
    996000   599.56047     -4897006.7      196.70323      196.70323      196.70323     -104.58513    
    997000   599.44858     -4896953.1      196.70704      196.70704      196.70704      60.906017    
    998000   599.00898     -4896995.1      196.70377      196.70377      196.70377     -0.47698819   
    999000   599.50338     -4896984.3      196.71372      196.71372      196.71372     -1.8603624    
   1000000   600.1846      -4896994.5      196.69995      196.69995      196.69995      56.673328    
Loop time of 70581.3 on 16384 procs for 1000000 steps with 431984 atoms

Performance: 2.448 ns/day, 9.803 hours/ns, 14.168 timesteps/s, 6.120 Matom-step/s
78.3% CPU use with 128 MPI tasks x 128 OpenMP threads

MPI task timing breakdown:
Section |  min time  |  avg time  |  max time  |%varavg| %total
---------------------------------------------------------------
Pair    | 22551      | 34543      | 47531      |5220.0 | 48.94
Bond    | 0.10059    | 0.20127    | 0.3876     |  13.0 |  0.00
Kspace  | 11483      | 26377      | 40006      |6864.5 | 37.37
Neigh   | 2705.4     | 4324.3     | 6206.9     |2048.1 |  6.13
Comm    | 1304.7     | 1678.2     | 2014.3     | 552.3 |  2.38
Output  | 0.16322    | 0.17249    | 0.19226    |   1.4 |  0.00
Modify  | 2971.2     | 3395.6     | 3542.4     | 167.3 |  4.81
Other   |            | 263.4      |            |       |  0.37

Nlocal:        3374.88 ave        4345 max        2425 min
Histogram: 64 0 0 0 0 0 0 0 0 64
Nghost:        11153.8 ave       12769 max        9543 min
Histogram: 63 1 0 0 0 0 0 0 0 64
Neighs:         823088 ave 1.16247e+06 max      519576 min
Histogram: 36 28 0 0 0 0 1 24 11 28

Total # of neighbors = 1.0535522e+08
Ave neighs/atom = 243.88686
Ave special neighs/atom = 0
Neighbor list builds = 162431
Dangerous builds = 0
PPPM initialization ...
  using 12-bit tables for long-range coulomb (src/src/kspace.cpp:342)
  G vector (1/distance) = 0.27298992
  grid = 128 128 128
  stencil order = 5
  estimated absolute RMS force accuracy = 0.0019478739
  estimated relative force accuracy = 0.00013527235
  using double precision MKL FFT
  3d grid and FFT values/proc = 28749 16384
Generated 0 of 10 mixed pair_coeff terms from geometric mixing rule
Setting up Verlet run ...
  Unit style    : metal
  Current step  : 1000000
  Time step     : 0.002
Per MPI rank memory allocation (min/avg/max) = 224.7 | 260.9 | 297 Mbytes
   Step          Temp          TotEng           Lx             Ly             Lz           Press     
   1000000   600.1846      -4896995.7      196.69995      196.69995      196.69995      54.947429    
   1001000   599.45247     -4897084.4      196.69995      196.69995      196.69995      56.399022    
   1002000   600.0168      -4896900.3      196.69995      196.69995      196.69995     -81.623583    
   1003000   599.54486     -4897068        196.69995      196.69995      196.69995     -16.237893    
   1004000   598.12728     -4897052.6      196.69995      196.69995      196.69995     -17.788284    
   1005000   600.0008      -4897004        196.69995      196.69995      196.69995     -95.098306    
   1006000   600.13044     -4897015.4      196.69995      196.69995      196.69995     -27.311958    
   1007000   600.87831     -4896871.8      196.69995      196.69995      196.69995     -8.3261455    
   1008000   599.24864     -4897013.1      196.69995      196.69995      196.69995     -46.927604    
   1009000   600.31167     -4896952.7      196.69995      196.69995      196.69995     -51.376833    
   1010000   600.59168     -4896990.2      196.69995      196.69995      196.69995     -47.057811    
   1011000   600.97155     -4896924.2      196.69995      196.69995      196.69995      84.827499    
   1012000   599.41273     -4896957        196.69995      196.69995      196.69995      50.387233    
   1013000   600.12967     -4896931.1      196.69995      196.69995      196.69995     -12.414733    
   1014000   600.28108     -4896888.9      196.69995      196.69995      196.69995     -32.892197    
   1015000   600.149       -4897097.6      196.69995      196.69995      196.69995     -182.35107    
   1016000   600.34105     -4897020.9      196.69995      196.69995      196.69995      44.342553    
   1017000   600.28836     -4897006.7      196.69995      196.69995      196.69995     -5.9007261    
   1018000   599.85561     -4896937.1      196.69995      196.69995      196.69995      110.58572    
   1019000   600.62315     -4896931.8      196.69995      196.69995      196.69995      35.206169    
   1020000   600.63576     -4896894.6      196.69995      196.69995      196.69995      122.5202     
   1021000   600.55554     -4896957.1      196.69995      196.69995      196.69995      29.999945    
   1022000   598.62399     -4897051.8      196.69995      196.69995      196.69995     -67.383361    
   1023000   599.83878     -4897017.7      196.69995      196.69995      196.69995      0.8751754    
   1024000   600.57879     -4896952.2      196.69995      196.69995      196.69995     -17.500764    
   1025000   600.74414     -4896942.4      196.69995      196.69995      196.69995      110.90225    
   1026000   599.52191     -4897053.7      196.69995      196.69995      196.69995     -14.852001    
   1027000   599.76019     -4897037.3      196.69995      196.69995      196.69995     -101.76839    
   1028000   599.25249     -4897068.6      196.69995      196.69995      196.69995      120.45975    
   1029000   599.42156     -4896994.8      196.69995      196.69995      196.69995      18.791345    
   1030000   600.35122     -4896999.5      196.69995      196.69995      196.69995     -22.636297    
   1031000   599.26456     -4897041.8      196.69995      196.69995      196.69995     -52.198418    
   1032000   600.99773     -4896917.3      196.69995      196.69995      196.69995      47.673701    
   1033000   600.71124     -4896919        196.69995      196.69995      196.69995      4.646496     
   1034000   598.41902     -4897009        196.69995      196.69995      196.69995     -8.5274053    
   1035000   599.47475     -4897017.1      196.69995      196.69995      196.69995     -58.50003     
   1036000   599.96708     -4896965.6      196.69995      196.69995      196.69995     -53.708352    
   1037000   599.23942     -4897033.9      196.69995      196.69995      196.69995     -38.716147    
   1038000   600.10067     -4897057.8      196.69995      196.69995      196.69995     -32.33166     
   1039000   600.64848     -4896924.8      196.69995      196.69995      196.69995     -41.132155    
   1040000   599.52873     -4897098.7      196.69995      196.69995      196.69995     -87.171924    
   1041000   600.29078     -4896922.7      196.69995      196.69995      196.69995      62.749614    
   1042000   599.20048     -4897053.9      196.69995      196.69995      196.69995      16.821782    
   1043000   600.06563     -4897072.7      196.69995      196.69995      196.69995     -73.65503     
   1044000   599.75539     -4897078.2      196.69995      196.69995      196.69995     -6.6128692    
   1045000   599.80265     -4897013        196.69995      196.69995      196.69995      2.5386668    
   1046000   600.34234     -4896969.7      196.69995      196.69995      196.69995     -67.12978     
   1047000   598.76657     -4897139.7      196.69995      196.69995      196.69995     -81.976448    
   1048000   600.82704     -4896951.5      196.69995      196.69995      196.69995      70.019678    
   1049000   600.35291     -4896962.4      196.69995      196.69995      196.69995     -98.378169    
   1050000   600.00423     -4897010.7      196.69995      196.69995      196.69995     -41.901646    
   1051000   600.23081     -4897019.6      196.69995      196.69995      196.69995     -45.461272    
   1052000   599.14045     -4897053        196.69995      196.69995      196.69995     -44.988139    
   1053000   599.37714     -4897022.1      196.69995      196.69995      196.69995      10.380041    
   1054000   600.28933     -4896989.1      196.69995      196.69995      196.69995     -139.67121    
   1055000   598.89776     -4897105.2      196.69995      196.69995      196.69995     -104.78295    
   1056000   599.53472     -4896967.1      196.69995      196.69995      196.69995     -78.582121    
   1057000   599.77952     -4896989.6      196.69995      196.69995      196.69995      55.872902    
   1058000   600.12338     -4897052.5      196.69995      196.69995      196.69995      39.802464    
   1059000   599.93999     -4896983.3      196.69995      196.69995      196.69995      70.7614      
   1060000   599.35329     -4897077.1      196.69995      196.69995      196.69995     -102.82685    
   1061000   601.95968     -4896842.5      196.69995      196.69995      196.69995      14.526334    
   1062000   599.82066     -4896933        196.69995      196.69995      196.69995     -46.520947    
   1063000   600.58998     -4896873.9      196.69995      196.69995      196.69995      42.223688    
   1064000   600.16871     -4896961.7      196.69995      196.69995      196.69995      11.531168    
   1065000   598.83428     -4897045.1      196.69995      196.69995      196.69995     -115.25984    
   1066000   599.8383      -4897032.9      196.69995      196.69995      196.69995      120.61506    
   1067000   600.3965      -4896994.1      196.69995      196.69995      196.69995      56.355866    
   1068000   600.34671     -4897054        196.69995      196.69995      196.69995     -123.32858    
   1069000   600.20351     -4896961.9      196.69995      196.69995      196.69995     -132.71355    
   1070000   600.52799     -4896924.9      196.69995      196.69995      196.69995      47.931634    
   1071000   599.57055     -4897008.1      196.69995      196.69995      196.69995      33.50236     
   1072000   599.73233     -4897024.4      196.69995      196.69995      196.69995      36.702056    
   1073000   599.72814     -4897000.4      196.69995      196.69995      196.69995      40.291812    
   1074000   599.71846     -4897064.3      196.69995      196.69995      196.69995      95.794476    
   1075000   598.66487     -4897053.3      196.69995      196.69995      196.69995     -37.88247     
   1076000   600.35614     -4896942.6      196.69995      196.69995      196.69995      143.21335    
   1077000   599.04949     -4897024.7      196.69995      196.69995      196.69995     -83.329596    
   1078000   600.41453     -4897009.3      196.69995      196.69995      196.69995     -122.10458    
   1079000   598.81186     -4897012.4      196.69995      196.69995      196.69995      71.507309    
   1080000   598.39538     -4897120.5      196.69995      196.69995      196.69995     -70.632632    
   1081000   598.89445     -4897093.3      196.69995      196.69995      196.69995     -109.7616     
   1082000   599.92481     -4897009.8      196.69995      196.69995      196.69995     -22.880885    
   1083000   599.63929     -4897090.2      196.69995      196.69995      196.69995     -32.324345    
   1084000   599.61654     -4897026.3      196.69995      196.69995      196.69995     -103.27953    
   1085000   599.97841     -4897017.7      196.69995      196.69995      196.69995     -99.399007    
   1086000   599.51268     -4897040.2      196.69995      196.69995      196.69995      84.375186    
   1087000   601.21465     -4896931.9      196.69995      196.69995      196.69995     -99.64528     
   1088000   600.26089     -4896920.7      196.69995      196.69995      196.69995     -53.898417    
   1089000   599.7237      -4897009.4      196.69995      196.69995      196.69995      44.818255    
   1090000   600.11928     -4897019.3      196.69995      196.69995      196.69995     -3.1406371    
   1091000   599.6029      -4897136.3      196.69995      196.69995      196.69995      54.221607    
   1092000   599.81018     -4896976.3      196.69995      196.69995      196.69995     -49.307061    
   1093000   600.3859      -4896957        196.69995      196.69995      196.69995     -13.212868    
   1094000   598.65397     -4897180.6      196.69995      196.69995      196.69995     -106.57621    
   1095000   600.16503     -4896995.3      196.69995      196.69995      196.69995     -46.308773    
   1096000   600.41602     -4897021.1      196.69995      196.69995      196.69995     -40.506092    
   1097000   600.8045      -4896944.3      196.69995      196.69995      196.69995     -12.765476    
   1098000   601.62077     -4896942.4      196.69995      196.69995      196.69995     -101.2904     
   1099000   598.30644     -4897102.5      196.69995      196.69995      196.69995      7.1411527    
   1100000   600.23919     -4896997.1      196.69995      196.69995      196.69995      59.672516    
   1101000   600.70434     -4896943.8      196.69995      196.69995      196.69995      66.150429    
   1102000   599.7723      -4897092.2      196.69995      196.69995      196.69995     -189.82621    
   1103000   600.10125     -4897010.8      196.69995      196.69995      196.69995     -27.810453    
   1104000   599.14888     -4897109.7      196.69995      196.69995      196.69995     -206.82343    
   1105000   600.39271     -4897032.6      196.69995      196.69995      196.69995     -69.12179     
   1106000   599.4059      -4897058.8      196.69995      196.69995      196.69995     -99.202207    
   1107000   598.49172     -4897153        196.69995      196.69995      196.69995     -28.503662    
   1108000   600.95007     -4897046.6      196.69995      196.69995      196.69995     -8.8241707    
   1109000   601.36372     -4896938.4      196.69995      196.69995      196.69995     -95.600584    
   1110000   599.07185     -4897080.3      196.69995      196.69995      196.69995     -136.53808    
   1111000   601.41696     -4896915.4      196.69995      196.69995      196.69995      48.965024    
   1112000   599.72319     -4896954.9      196.69995      196.69995      196.69995     -21.349046    
   1113000   598.56148     -4897052.1      196.69995      196.69995      196.69995      23.42198     
   1114000   600.2328      -4897028.5      196.69995      196.69995      196.69995     -51.653075    
   1115000   599.19995     -4897096.8      196.69995      196.69995      196.69995     -46.564153    
   1116000   600.37904     -4897000.9      196.69995      196.69995      196.69995     -33.100196    
   1117000   599.8233      -4897071.7      196.69995      196.69995      196.69995     -64.304067    
   1118000   599.56889     -4897089.2      196.69995      196.69995      196.69995     -135.6498     
   1119000   600.55208     -4896998.4      196.69995      196.69995      196.69995     -59.19681     
   1120000   600.47276     -4896996.4      196.69995      196.69995      196.69995     -8.2251577    
   1121000   599.79293     -4896994.8      196.69995      196.69995      196.69995      71.174004    
   1122000   599.98725     -4897018.3      196.69995      196.69995      196.69995      115.17676    
   1123000   600.25486     -4897008.7      196.69995      196.69995      196.69995     -19.346361    
   1124000   600.65101     -4896968.8      196.69995      196.69995      196.69995     -61.734217    
   1125000   600.23807     -4897020.1      196.69995      196.69995      196.69995      11.053254    
   1126000   600.19129     -4897038.3      196.69995      196.69995      196.69995     -54.951741    
   1127000   599.09229     -4897038.5      196.69995      196.69995      196.69995     -74.641792    
   1128000   599.30515     -4897071.2      196.69995      196.69995      196.69995     -38.534332    
   1129000   598.99061     -4897056        196.69995      196.69995      196.69995      39.868874    
   1130000   599.7363      -4897103.4      196.69995      196.69995      196.69995     -102.12703    
   1131000   599.56419     -4897031.2      196.69995      196.69995      196.69995      68.746077    
   1132000   599.87637     -4897062.7      196.69995      196.69995      196.69995      136.78173    
   1133000   600.06376     -4897033.2      196.69995      196.69995      196.69995      14.282001    
   1134000   600.5366      -4897022.9      196.69995      196.69995      196.69995      37.421159    
   1135000   601.81099     -4896951.4      196.69995      196.69995      196.69995     -32.686347    
   1136000   599.11587     -4896980.6      196.69995      196.69995      196.69995     -131.15214    
   1137000   600.85313     -4897027.1      196.69995      196.69995      196.69995     -60.256177    
   1138000   601.00913     -4897069        196.69995      196.69995      196.69995     -13.16984     
   1139000   599.81628     -4897074        196.69995      196.69995      196.69995      115.37572    
   1140000   599.13559     -4897109.9      196.69995      196.69995      196.69995     -69.670568    
   1141000   599.82422     -4897111        196.69995      196.69995      196.69995      26.574216    
   1142000   601.25542     -4896994.4      196.69995      196.69995      196.69995      9.2562134    
   1143000   600.00452     -4897069.7      196.69995      196.69995      196.69995     -5.7992091    
   1144000   600.46413     -4897054.5      196.69995      196.69995      196.69995      6.6096721    
   1145000   599.28148     -4897036        196.69995      196.69995      196.69995      20.754429    
   1146000   600.02413     -4896979.5      196.69995      196.69995      196.69995     -50.992673    
   1147000   599.48652     -4897048.2      196.69995      196.69995      196.69995      19.139344    
   1148000   599.27709     -4897114.3      196.69995      196.69995      196.69995     -129.47598    
   1149000   599.2459      -4897101.5      196.69995      196.69995      196.69995     -113.52907    
   1150000   600.80912     -4897013.6      196.69995      196.69995      196.69995     -57.021501    
   1151000   600.84526     -4896952.6      196.69995      196.69995      196.69995      32.477106    
   1152000   600.52846     -4897064.4      196.69995      196.69995      196.69995      96.58793     
   1153000   600.25996     -4897079.2      196.69995      196.69995      196.69995      29.381627    
   1154000   599.73582     -4897021.5      196.69995      196.69995      196.69995     -15.740405    
   1155000   599.00966     -4897011.9      196.69995      196.69995      196.69995     -38.16563     
   1156000   601.33916     -4896981.9      196.69995      196.69995      196.69995      89.953926    
   1157000   599.4763      -4897063.8      196.69995      196.69995      196.69995      11.042125    
   1158000   599.72256     -4897028.1      196.69995      196.69995      196.69995      2.5356204    
   1159000   600.4093      -4897028.2      196.69995      196.69995      196.69995      50.492549    
   1160000   601.40068     -4896928.8      196.69995      196.69995      196.69995     -3.9493096    
   1161000   599.87128     -4897064.2      196.69995      196.69995      196.69995      27.00307     
   1162000   600.43425     -4896955.4      196.69995      196.69995      196.69995     -95.906417    
   1163000   599.66696     -4896912.3      196.69995      196.69995      196.69995     -63.909903    
   1164000   600.59921     -4897018.5      196.69995      196.69995      196.69995     -155.16181    
   1165000   598.57406     -4897122        196.69995      196.69995      196.69995     -82.653821    
   1166000   600.93749     -4897036.7      196.69995      196.69995      196.69995     -13.847521    
   1167000   600.42097     -4897063.1      196.69995      196.69995      196.69995     -150.76468    
   1168000   600.67568     -4896968.6      196.69995      196.69995      196.69995     -22.552036    
   1169000   600.37487     -4896999        196.69995      196.69995      196.69995      3.4049301    
   1170000   600.37432     -4896935.2      196.69995      196.69995      196.69995     -42.194547    
   1171000   599.13793     -4897125.7      196.69995      196.69995      196.69995     -82.119685    
   1172000   599.66646     -4897068.1      196.69995      196.69995      196.69995     -15.377072    
   1173000   599.52348     -4897086.9      196.69995      196.69995      196.69995     -30.273346    
   1174000   600.57992     -4896979.2      196.69995      196.69995      196.69995     -43.417543    
   1175000   600.37366     -4897079.4      196.69995      196.69995      196.69995     -101.45192    
   1176000   600.96945     -4897062        196.69995      196.69995      196.69995     -48.806518    
   1177000   598.94782     -4897155.8      196.69995      196.69995      196.69995      15.666692    
   1178000   600.91337     -4896956.9      196.69995      196.69995      196.69995     -179.61496    
   1179000   600.94986     -4897038.6      196.69995      196.69995      196.69995      26.032049    
   1180000   599.72946     -4897002.3      196.69995      196.69995      196.69995     -124.13176    
   1181000   599.22373     -4897064        196.69995      196.69995      196.69995     -68.751325    
   1182000   599.6405      -4897041.1      196.69995      196.69995      196.69995      57.877033    
   1183000   600.80319     -4896984.4      196.69995      196.69995      196.69995     -22.088157    
   1184000   599.47478     -4896996.7      196.69995      196.69995      196.69995     -137.47301    
   1185000   599.60003     -4897007        196.69995      196.69995      196.69995     -101.50168    
   1186000   600.92074     -4897003.6      196.69995      196.69995      196.69995      94.26215     
   1187000   599.60053     -4897074.4      196.69995      196.69995      196.69995      3.8245862    
   1188000   598.61123     -4897042.9      196.69995      196.69995      196.69995     -4.75195      
   1189000   599.34649     -4897050.6      196.69995      196.69995      196.69995     -6.9965191    
   1190000   600.10905     -4897020.8      196.69995      196.69995      196.69995     -71.827076    
   1191000   599.4841      -4897088.5      196.69995      196.69995      196.69995     -32.641482    
   1192000   600.40784     -4897012        196.69995      196.69995      196.69995     -85.829785    
   1193000   599.67816     -4897023.8      196.69995      196.69995      196.69995      24.358729    
   1194000   600.63272     -4897007.7      196.69995      196.69995      196.69995      0.049014156  
   1195000   600.42535     -4896956        196.69995      196.69995      196.69995      25.833787    
   1196000   600.40707     -4897046.9      196.69995      196.69995      196.69995     -79.385036    
   1197000   601.15037     -4896952.4      196.69995      196.69995      196.69995      65.970052    
   1198000   600.29242     -4897057.7      196.69995      196.69995      196.69995     -31.219279    
   1199000   600.10918     -4897056.8      196.69995      196.69995      196.69995     -110.21777    
   1200000   599.97939     -4897036.8      196.69995      196.69995      196.69995      26.221231    
   1201000   600.40137     -4897070.7      196.69995      196.69995      196.69995      10.006162    
   1202000   599.81455     -4897052        196.69995      196.69995      196.69995      50.582218    
   1203000   600.20958     -4896976        196.69995      196.69995      196.69995     -53.164943    
   1204000   599.28152     -4897049.4      196.69995      196.69995      196.69995     -36.50882     
   1205000   600.40393     -4897063.5      196.69995      196.69995      196.69995     -31.235745    
   1206000   600.00347     -4897012.4      196.69995      196.69995      196.69995     -157.00011    
   1207000   600.51847     -4896968.7      196.69995      196.69995      196.69995      60.690505    
   1208000   599.76877     -4897015.5      196.69995      196.69995      196.69995      57.399791    
   1209000   599.97855     -4897090.3      196.69995      196.69995      196.69995     -98.272029    
   1210000   600.16422     -4897095.2      196.69995      196.69995      196.69995     -11.05456     
   1211000   599.31441     -4897116.3      196.69995      196.69995      196.69995      66.718483    
   1212000   600.67417     -4897056.7      196.69995      196.69995      196.69995     -21.310774    
   1213000   600.98983     -4897025.8      196.69995      196.69995      196.69995     -38.962863    
   1214000   600.74893     -4896945.8      196.69995      196.69995      196.69995     -57.858828    
   1215000   600.63406     -4897004.6      196.69995      196.69995      196.69995     -17.296974    
   1216000   599.97679     -4897016.3      196.69995      196.69995      196.69995     -46.835947    
   1217000   601.3948      -4896934.1      196.69995      196.69995      196.69995     -127.6957     
   1218000   600.58519     -4897041.4      196.69995      196.69995      196.69995     -62.040777    
   1219000   599.43696     -4897175.1      196.69995      196.69995      196.69995     -228.86137    
   1220000   600.862       -4897019.7      196.69995      196.69995      196.69995     -47.405074    
   1221000   600.92738     -4896984.9      196.69995      196.69995      196.69995     -43.291259    
   1222000   600.2299      -4897021.4      196.69995      196.69995      196.69995     -135.58784    
   1223000   600.76831     -4896980.8      196.69995      196.69995      196.69995     -5.6408887    
   1224000   600.60076     -4897039.6      196.69995      196.69995      196.69995     -78.679022    
   1225000   600.25204     -4897037.6      196.69995      196.69995      196.69995      33.110337    
   1226000   601.27388     -4896958.5      196.69995      196.69995      196.69995     -62.85563     
   1227000   599.61693     -4897075.5      196.69995      196.69995      196.69995      78.185942    
   1228000   600.56981     -4897031.7      196.69995      196.69995      196.69995     -22.818198    
   1229000   599.22305     -4897090.8      196.69995      196.69995      196.69995      30.803955    
   1230000   599.56121     -4897071.8      196.69995      196.69995      196.69995      106.33735    
   1231000   600.13487     -4897036.8      196.69995      196.69995      196.69995     -25.694427    
   1232000   600.16207     -4897035.6      196.69995      196.69995      196.69995      23.326969    
   1233000   599.85887     -4897038.2      196.69995      196.69995      196.69995     -79.832417    
   1234000   599.4089      -4897105.5      196.69995      196.69995      196.69995     -207.29019    
   1235000   599.69942     -4897032.4      196.69995      196.69995      196.69995     -28.233385    
   1236000   598.5789      -4897209.6      196.69995      196.69995      196.69995     -121.8072     
   1237000   599.93185     -4897067        196.69995      196.69995      196.69995     -225.93945    
   1238000   600.08202     -4897070.9      196.69995      196.69995      196.69995     -52.480454    
   1239000   600.25765     -4896991        196.69995      196.69995      196.69995      8.0073288    
   1240000   599.48001     -4897065.4      196.69995      196.69995      196.69995     -56.203709    
   1241000   598.90903     -4897108.3      196.69995      196.69995      196.69995     -166.35791    
   1242000   598.60551     -4897197.5      196.69995      196.69995      196.69995     -135.11633    
   1243000   600.20973     -4897000.3      196.69995      196.69995      196.69995     -204.88255    
   1244000   600.21117     -4897103.6      196.69995      196.69995      196.69995     -184.67467    
   1245000   599.40306     -4897073.1      196.69995      196.69995      196.69995     -81.305422    
   1246000   600.15709     -4897011        196.69995      196.69995      196.69995     -182.97173    
   1247000   600.17793     -4897063        196.69995      196.69995      196.69995     -41.612083    
   1248000   600.30976     -4897040.6      196.69995      196.69995      196.69995      89.464612    
   1249000   600.39097     -4897169.2      196.69995      196.69995      196.69995     -82.475965    
   1250000   599.4117      -4897157.6      196.69995      196.69995      196.69995     -55.991475    
   1251000   601.32872     -4896951.7      196.69995      196.69995      196.69995      18.710992    
   1252000   598.9868      -4897207.3      196.69995      196.69995      196.69995     -42.401382    
   1253000   598.53609     -4897175.4      196.69995      196.69995      196.69995     -218.50271    
   1254000   599.64296     -4897110.7      196.69995      196.69995      196.69995     -172.84046    
   1255000   599.40545     -4897095.6      196.69995      196.69995      196.69995     -124.57919    
   1256000   598.38461     -4897257.8      196.69995      196.69995      196.69995     -179.80213    
   1257000   601.53712     -4897046        196.69995      196.69995      196.69995     -176.60054    
   1258000   599.82756     -4897050.8      196.69995      196.69995      196.69995     -169.92234    
   1259000   599.94801     -4897137        196.69995      196.69995      196.69995     -133.7433     
   1260000   599.9502      -4897071.9      196.69995      196.69995      196.69995     -68.795628    
   1261000   599.85622     -4897073.6      196.69995      196.69995      196.69995     -73.893745    
   1262000   600.24257     -4897015        196.69995      196.69995      196.69995     -91.925696    
   1263000   600.512       -4897034.4      196.69995      196.69995      196.69995     -14.49781     
   1264000   600.03008     -4897055.5      196.69995      196.69995      196.69995     -56.709805    
   1265000   600.00337     -4897059.3      196.69995      196.69995      196.69995     -75.135987    
   1266000   600.44562     -4897110.6      196.69995      196.69995      196.69995     -57.990151    
   1267000   599.06614     -4897121.5      196.69995      196.69995      196.69995     -48.508889    
   1268000   600.11595     -4896994.3      196.69995      196.69995      196.69995      3.0441755    
   1269000   601.28406     -4897067.5      196.69995      196.69995      196.69995     -182.52992    
   1270000   600.44806     -4897051.4      196.69995      196.69995      196.69995     -89.05472     
   1271000   600.45434     -4897090.9      196.69995      196.69995      196.69995     -44.288576    
   1272000   599.92814     -4897082.5      196.69995      196.69995      196.69995      21.643513    
   1273000   601.92544     -4896970.8      196.69995      196.69995      196.69995     -78.394059    
   1274000   598.27221     -4897134.6      196.69995      196.69995      196.69995      29.084121    
   1275000   600.81851     -4897087        196.69995      196.69995      196.69995      36.579951    
   1276000   600.00697     -4897130.3      196.69995      196.69995      196.69995      18.367022    
   1277000   599.64928     -4897136        196.69995      196.69995      196.69995     -127.17423    
   1278000   599.26068     -4897246.1      196.69995      196.69995      196.69995     -133.41599    
   1279000   599.07424     -4897124.8      196.69995      196.69995      196.69995     -164.23664    
   1280000   601.13506     -4897035.4      196.69995      196.69995      196.69995     -75.056787    
   1281000   600.55279     -4897111        196.69995      196.69995      196.69995     -30.899452    
   1282000   598.70125     -4897211        196.69995      196.69995      196.69995     -60.494469    
   1283000   599.48761     -4897154.6      196.69995      196.69995      196.69995     -90.656623    
   1284000   598.90827     -4897094.4      196.69995      196.69995      196.69995      55.43729     
   1285000   600.20814     -4897086.3      196.69995      196.69995      196.69995     -170.55246    
   1286000   601.60802     -4896961.6      196.69995      196.69995      196.69995      17.365482    
   1287000   598.60557     -4897129.5      196.69995      196.69995      196.69995     -12.540861    
   1288000   598.80616     -4897171.5      196.69995      196.69995      196.69995     -50.708238    
   1289000   601.63447     -4897036.3      196.69995      196.69995      196.69995     -115.1193     
   1290000   600.58622     -4897150.2      196.69995      196.69995      196.69995     -24.610289    
   1291000   600.10705     -4897010.1      196.69995      196.69995      196.69995     -2.2694351    
   1292000   600.2983      -4897117.1      196.69995      196.69995      196.69995     -28.003787    
   1293000   599.14078     -4897122.7      196.69995      196.69995      196.69995      28.918369    
   1294000   597.94724     -4897220.7      196.69995      196.69995      196.69995     -52.207369    
   1295000   599.16394     -4897114        196.69995      196.69995      196.69995     -132.31433    
   1296000   599.51564     -4897107.4      196.69995      196.69995      196.69995      83.878121    
   1297000   600.25759     -4897119        196.69995      196.69995      196.69995      5.1325391    
   1298000   600.25951     -4897173.9      196.69995      196.69995      196.69995     -125.79181    
   1299000   599.46096     -4897089.1      196.69995      196.69995      196.69995      43.766095    
   1300000   599.66984     -4897040.5      196.69995      196.69995      196.69995     -150.23125    
   1301000   600.72742     -4897080.6      196.69995      196.69995      196.69995     -171.46136    
   1302000   599.1651      -4897106.7      196.69995      196.69995      196.69995     -151.91611    
   1303000   600.32543     -4897059        196.69995      196.69995      196.69995     -49.061793    
   1304000   600.09309     -4897075        196.69995      196.69995      196.69995     -180.45469    
   1305000   600.62831     -4897085.1      196.69995      196.69995      196.69995     -131.93734    
   1306000   600.5987      -4897002.1      196.69995      196.69995      196.69995     -17.970729    
   1307000   599.04        -4897185.8      196.69995      196.69995      196.69995     -124.16378    
   1308000   600.43625     -4897074.9      196.69995      196.69995      196.69995     -230.14672    
   1309000   599.40304     -4897155.4      196.69995      196.69995      196.69995     -169.25716    
   1310000   599.52199     -4897098.3      196.69995      196.69995      196.69995     -72.551921    
   1311000   599.64948     -4897161.3      196.69995      196.69995      196.69995     -31.012518    
   1312000   600.55337     -4897098.4      196.69995      196.69995      196.69995      42.96186     
   1313000   599.54258     -4897151.1      196.69995      196.69995      196.69995      22.670507    
   1314000   599.98995     -4897117.2      196.69995      196.69995      196.69995     -31.651709    
   1315000   600.15155     -4897071.6      196.69995      196.69995      196.69995      41.623       
   1316000   599.7185      -4897055.4      196.69995      196.69995      196.69995     -79.340786    
   1317000   600.24679     -4897083.5      196.69995      196.69995      196.69995     -27.01271     
   1318000   599.48595     -4897182.6      196.69995      196.69995      196.69995     -82.710524    
   1319000   599.21818     -4897094.4      196.69995      196.69995      196.69995     -39.49458     
   1320000   599.48429     -4897086.3      196.69995      196.69995      196.69995     -251.16395    
   1321000   598.76368     -4897175.8      196.69995      196.69995      196.69995     -181.24242    
   1322000   599.02296     -4897157.2      196.69995      196.69995      196.69995     -127.50722    
   1323000   599.99297     -4897124.5      196.69995      196.69995      196.69995      4.5465567    
   1324000   599.18025     -4897158.6      196.69995      196.69995      196.69995      13.137031    
   1325000   599.30145     -4897115.1      196.69995      196.69995      196.69995     -32.611087    
   1326000   598.24978     -4897203.2      196.69995      196.69995      196.69995     -63.089742    
   1327000   599.03059     -4897146.9      196.69995      196.69995      196.69995     -25.516889    
   1328000   599.46297     -4897180        196.69995      196.69995      196.69995      102.38107    
   1329000   600.22334     -4897109.2      196.69995      196.69995      196.69995      66.321074    
   1330000   599.24036     -4897171.5      196.69995      196.69995      196.69995      24.564865    
   1331000   599.46347     -4897204.2      196.69995      196.69995      196.69995     -127.69819    
   1332000   600.52882     -4897113.9      196.69995      196.69995      196.69995     -16.204383    
   1333000   600.26873     -4897033.1      196.69995      196.69995      196.69995     -84.762044    
   1334000   600.04525     -4897147.9      196.69995      196.69995      196.69995     -234.32229    
   1335000   599.85006     -4897191.4      196.69995      196.69995      196.69995     -112.49646    
   1336000   600.73006     -4897083.3      196.69995      196.69995      196.69995     -164.7136     
   1337000   600.40703     -4897075.5      196.69995      196.69995      196.69995     -76.377443    
   1338000   599.94404     -4897014.7      196.69995      196.69995      196.69995      60.560136    
   1339000   600.29402     -4897044.2      196.69995      196.69995      196.69995      18.04835     
   1340000   600.26619     -4897076.2      196.69995      196.69995      196.69995      36.071167    
   1341000   599.90634     -4897097.6      196.69995      196.69995      196.69995     -37.819077    
   1342000   599.76429     -4897152.7      196.69995      196.69995      196.69995     -45.831741    
   1343000   600.04459     -4897133        196.69995      196.69995      196.69995      47.648262    
   1344000   601.05847     -4897078.8      196.69995      196.69995      196.69995     -88.218079    
   1345000   601.59945     -4897025.2      196.69995      196.69995      196.69995     -35.399354    
   1346000   599.9452      -4897032.5      196.69995      196.69995      196.69995     -139.5905     
   1347000   598.48821     -4897257.6      196.69995      196.69995      196.69995     -126.8385     
   1348000   599.85722     -4897073.6      196.69995      196.69995      196.69995     -22.8928      
   1349000   599.3052      -4897109.3      196.69995      196.69995      196.69995     -118.45885    
   1350000   599.7955      -4897028.5      196.69995      196.69995      196.69995      52.535899    
   1351000   600.27947     -4897028.9      196.69995      196.69995      196.69995     -96.551622    
   1352000   600.22083     -4897098.6      196.69995      196.69995      196.69995     -124.56251    
   1353000   599.67235     -4897149        196.69995      196.69995      196.69995     -150.65707    
   1354000   598.98115     -4897112.5      196.69995      196.69995      196.69995     -120.34174    
   1355000   599.85178     -4897187.5      196.69995      196.69995      196.69995     -193.28236    
   1356000   600.72085     -4897081.4      196.69995      196.69995      196.69995     -63.488944    
   1357000   600.04996     -4897122.2      196.69995      196.69995      196.69995     -100.70867    
   1358000   599.81346     -4897112.1      196.69995      196.69995      196.69995     -113.48108    
   1359000   599.71315     -4897118.8      196.69995      196.69995      196.69995     -88.545114    
   1360000   599.52246     -4897162.4      196.69995      196.69995      196.69995     -161.88511    
   1361000   599.97489     -4897158.7      196.69995      196.69995      196.69995     -82.132555    
   1362000   599.81985     -4897075.4      196.69995      196.69995      196.69995     -3.9357569    
   1363000   599.37535     -4897164.6      196.69995      196.69995      196.69995     -30.567796    
   1364000   600.34577     -4897072.4      196.69995      196.69995      196.69995     -25.940535    
   1365000   600.72947     -4897093.7      196.69995      196.69995      196.69995     -43.924003    
   1366000   600.54668     -4897042.9      196.69995      196.69995      196.69995      6.6666296    
   1367000   601.99048     -4896955.1      196.69995      196.69995      196.69995      46.749874    
   1368000   598.90038     -4897230.1      196.69995      196.69995      196.69995     -10.83759     
   1369000   599.03077     -4897210.2      196.69995      196.69995      196.69995     -87.477217    
   1370000   598.95884     -4897164        196.69995      196.69995      196.69995     -103.47659    
   1371000   599.68449     -4897105        196.69995      196.69995      196.69995     -35.314604    
   1372000   600.59447     -4897117.8      196.69995      196.69995      196.69995     -52.069815    
   1373000   600.71277     -4897080.6      196.69995      196.69995      196.69995      12.247252    
   1374000   599.77791     -4897124.6      196.69995      196.69995      196.69995      99.935991    
   1375000   599.08484     -4897144.7      196.69995      196.69995      196.69995     -200.3501     
   1376000   600.26498     -4897079.5      196.69995      196.69995      196.69995      25.720826    
   1377000   599.19139     -4897174.5      196.69995      196.69995      196.69995     -176.00458    
   1378000   599.67515     -4897182.3      196.69995      196.69995      196.69995     -69.499936    
   1379000   600.63122     -4897100.7      196.69995      196.69995      196.69995     -212.2095     
   1380000   600.88181     -4897063.3      196.69995      196.69995      196.69995     -22.572104    
   1381000   600.06281     -4897092.9      196.69995      196.69995      196.69995     -22.512611    
   1382000   601.27622     -4896939.3      196.69995      196.69995      196.69995     -13.836208    
   1383000   598.79007     -4897178.1      196.69995      196.69995      196.69995      33.162815    
   1384000   598.51321     -4897193        196.69995      196.69995      196.69995     -33.95768     
   1385000   600.08742     -4897075        196.69995      196.69995      196.69995      49.478492    
   1386000   599.64104     -4897184.9      196.69995      196.69995      196.69995     -154.73782    
   1387000   601.51568     -4897028.5      196.69995      196.69995      196.69995     -26.256731    
   1388000   600.47983     -4897070.6      196.69995      196.69995      196.69995     -43.834677    
   1389000   599.39767     -4897167.7      196.69995      196.69995      196.69995     -55.775511    
   1390000   600.78354     -4897052.2      196.69995      196.69995      196.69995     -43.463194    
   1391000   600.95605     -4897097        196.69995      196.69995      196.69995     -90.484201    
   1392000   600.39619     -4897115.5      196.69995      196.69995      196.69995     -134.34191    
   1393000   599.95391     -4897124.2      196.69995      196.69995      196.69995     -116.63318    
   1394000   601.15068     -4897069.3      196.69995      196.69995      196.69995     -149.83021    
   1395000   598.49154     -4897232.5      196.69995      196.69995      196.69995     -53.165131    
   1396000   600.75282     -4897162.4      196.69995      196.69995      196.69995      13.394931    
   1397000   599.66963     -4897099.6      196.69995      196.69995      196.69995     -20.620762    
   1398000   599.38468     -4897110.2      196.69995      196.69995      196.69995      6.4733203    
   1399000   598.62292     -4897263.2      196.69995      196.69995      196.69995     -87.545464    
   1400000   599.64528     -4897203.8      196.69995      196.69995      196.69995     -18.349128    
   1401000   598.28639     -4897166.8      196.69995      196.69995      196.69995     -104.12193    
   1402000   600.35746     -4897007.3      196.69995      196.69995      196.69995      30.892255    
   1403000   600.61961     -4897136.1      196.69995      196.69995      196.69995     -122.77777    
   1404000   600.51653     -4897168.2      196.69995      196.69995      196.69995     -114.55458    
   1405000   600.14166     -4897154.9      196.69995      196.69995      196.69995     -104.00698    
   1406000   599.88598     -4897117.9      196.69995      196.69995      196.69995     -31.393178    
   1407000   601.64908     -4896970.1      196.69995      196.69995      196.69995     -4.9920749    
   1408000   598.54459     -4897266.7      196.69995      196.69995      196.69995     -136.14598    
   1409000   600.61584     -4897120.2      196.69995      196.69995      196.69995     -116.70312    
   1410000   600.33925     -4897132.7      196.69995      196.69995      196.69995     -121.62342    
   1411000   599.29853     -4897197.4      196.69995      196.69995      196.69995     -232.21533    
   1412000   599.31784     -4897243.6      196.69995      196.69995      196.69995      37.869062    
   1413000   601.27139     -4896993.8      196.69995      196.69995      196.69995     -14.121494    
   1414000   600.90644     -4896992.5      196.69995      196.69995      196.69995     -187.72455    
   1415000   599.21711     -4897240.7      196.69995      196.69995      196.69995     -179.03835    
   1416000   601.11049     -4897155.3      196.69995      196.69995      196.69995     -223.36173    
   1417000   600.85306     -4897028.2      196.69995      196.69995      196.69995      119.01025    
   1418000   599.72035     -4897170.8      196.69995      196.69995      196.69995     -90.666458    
   1419000   600.80121     -4897071.7      196.69995      196.69995      196.69995     -64.383678    
   1420000   599.56742     -4897137.2      196.69995      196.69995      196.69995     -201.4659     
   1421000   599.49564     -4897098.7      196.69995      196.69995      196.69995      47.699731    
   1422000   599.80591     -4897135.6      196.69995      196.69995      196.69995     -150.70011    
   1423000   598.54798     -4897326.5      196.69995      196.69995      196.69995     -47.670926    
   1424000   600.85167     -4897019.5      196.69995      196.69995      196.69995     -80.462511    
   1425000   600.04847     -4897132.4      196.69995      196.69995      196.69995     -61.249277    
   1426000   600.02246     -4897135.3      196.69995      196.69995      196.69995     -44.596673    
   1427000   600.02896     -4897167.2      196.69995      196.69995      196.69995     -49.27823     
   1428000   600.10228     -4897095.7      196.69995      196.69995      196.69995      22.420253    
   1429000   599.96104     -4897042.4      196.69995      196.69995      196.69995      2.2607848    
   1430000   599.55863     -4897172.3      196.69995      196.69995      196.69995     -165.42559    
   1431000   599.326       -4897249        196.69995      196.69995      196.69995     -15.343619    
   1432000   599.91        -4897163.2      196.69995      196.69995      196.69995     -115.59882    
   1433000   599.73664     -4897116.5      196.69995      196.69995      196.69995      10.130604    
   1434000   599.65701     -4897155.4      196.69995      196.69995      196.69995      27.175182    
   1435000   599.02742     -4897195.6      196.69995      196.69995      196.69995     -5.5152734    
   1436000   599.72127     -4897128        196.69995      196.69995      196.69995     -12.084584    
   1437000   599.34296     -4897172.4      196.69995      196.69995      196.69995     -24.541522    
   1438000   599.98473     -4897177.9      196.69995      196.69995      196.69995      7.8469279    
   1439000   599.66722     -4897139.2      196.69995      196.69995      196.69995     -50.483101    
   1440000   599.32484     -4897245.1      196.69995      196.69995      196.69995     -55.308859    
   1441000   599.22963     -4897179.1      196.69995      196.69995      196.69995      82.653744    
   1442000   599.36369     -4897217        196.69995      196.69995      196.69995     -118.57595    
   1443000   600.88708     -4897113.1      196.69995      196.69995      196.69995     -56.410615    
   1444000   598.86496     -4897222.3      196.69995      196.69995      196.69995     -218.09365    
   1445000   600.79557     -4897054.9      196.69995      196.69995      196.69995     -45.373964    
   1446000   600.57964     -4897204.6      196.69995      196.69995      196.69995     -26.708928    
   1447000   600.35979     -4897156.5      196.69995      196.69995      196.69995     -138.97944    
   1448000   599.67947     -4897165.9      196.69995      196.69995      196.69995      30.184845    
   1449000   598.74411     -4897168.5      196.69995      196.69995      196.69995      81.697431    
   1450000   599.09268     -4897196.4      196.69995      196.69995      196.69995     -111.04133    
   1451000   600.64226     -4897088.2      196.69995      196.69995      196.69995     -26.54892     
   1452000   600.80272     -4897140.8      196.69995      196.69995      196.69995      21.691388    
   1453000   600.64342     -4897070.4      196.69995      196.69995      196.69995     -58.482163    
   1454000   598.62179     -4897143.7      196.69995      196.69995      196.69995     -142.10709    
   1455000   600.49449     -4897101.1      196.69995      196.69995      196.69995     -85.491542    
   1456000   600.67556     -4897111.6      196.69995      196.69995      196.69995     -43.470185    
   1457000   599.19887     -4897171.2      196.69995      196.69995      196.69995     -80.252247    
   1458000   599.94088     -4897177.4      196.69995      196.69995      196.69995     -73.963792    
   1459000   599.49302     -4897213.6      196.69995      196.69995      196.69995     -182.43525    
   1460000   600.0275      -4897191.4      196.69995      196.69995      196.69995     -94.095118    
   1461000   599.77077     -4897201.3      196.69995      196.69995      196.69995     -30.995126    
   1462000   599.35702     -4897223.1      196.69995      196.69995      196.69995     -185.97491    
   1463000   599.92399     -4897167.3      196.69995      196.69995      196.69995     -37.734673    
   1464000   600.83202     -4897031.3      196.69995      196.69995      196.69995     -201.45478    
   1465000   600.1888      -4897180.3      196.69995      196.69995      196.69995     -192.05132    
   1466000   600.57603     -4897160        196.69995      196.69995      196.69995     -44.645932    
   1467000   600.94065     -4897134        196.69995      196.69995      196.69995     -71.712953    
   1468000   599.92416     -4897157.1      196.69995      196.69995      196.69995     -12.881228    
   1469000   601.21191     -4897091        196.69995      196.69995      196.69995     -46.117156    
   1470000   601.17226     -4897075.9      196.69995      196.69995      196.69995     -181.53       
   1471000   600.62229     -4897080        196.69995      196.69995      196.69995     -83.025501    
   1472000   598.06862     -4897211.7      196.69995      196.69995      196.69995     -106.10041    
   1473000   600.46598     -4897105.8      196.69995      196.69995      196.69995     -67.228356    
   1474000   600.32952     -4897149.4      196.69995      196.69995      196.69995     -73.553434    
   1475000   601.15959     -4897048.4      196.69995      196.69995      196.69995     -30.844995    
   1476000   600.86211     -4897158.7      196.69995      196.69995      196.69995     -64.512753    
   1477000   599.34987     -4897206        196.69995      196.69995      196.69995     -153.21604    
   1478000   602.06171     -4896963.8      196.69995      196.69995      196.69995     -156.26018    
   1479000   600.60907     -4897150.8      196.69995      196.69995      196.69995     -183.00484    
   1480000   599.86692     -4897144.9      196.69995      196.69995      196.69995     -130.8021     
   1481000   600.23964     -4897094        196.69995      196.69995      196.69995     -114.20666    
   1482000   600.00682     -4897094.7      196.69995      196.69995      196.69995     -1.7448686    
   1483000   599.47137     -4897143.3      196.69995      196.69995      196.69995     -19.658471    
   1484000   598.39565     -4897237.1      196.69995      196.69995      196.69995      32.346051    
   1485000   600.05516     -4897115.8      196.69995      196.69995      196.69995     -39.375977    
   1486000   600.34599     -4897164.6      196.69995      196.69995      196.69995     -78.041554    
   1487000   599.98065     -4897097.1      196.69995      196.69995      196.69995     -55.315698    
   1488000   599.55593     -4897236.5      196.69995      196.69995      196.69995     -63.34567     
   1489000   600.30027     -4897125.2      196.69995      196.69995      196.69995     -40.101912    
   1490000   599.94218     -4897219.1      196.69995      196.69995      196.69995     -35.449286    
   1491000   600.81335     -4897107.1      196.69995      196.69995      196.69995     -33.564061    
   1492000   598.94709     -4897237        196.69995      196.69995      196.69995     -47.706541    
   1493000   600.23633     -4897185        196.69995      196.69995      196.69995     -172.4527     
   1494000   600.37571     -4897211.8      196.69995      196.69995      196.69995     -44.076082    
   1495000   600.04997     -4897141.8      196.69995      196.69995      196.69995     -46.078349    
   1496000   600.19377     -4897124.4      196.69995      196.69995      196.69995     -107.53195    
   1497000   599.91929     -4897184.6      196.69995      196.69995      196.69995     -57.100872    
   1498000   598.68632     -4897248.8      196.69995      196.69995      196.69995     -32.255206    
   1499000   600.08783     -4897140.1      196.69995      196.69995      196.69995     -132.01044    
   1500000   598.89569     -4897197.3      196.69995      196.69995      196.69995     -152.93021    
   1501000   600.97218     -4897032.1      196.69995      196.69995      196.69995     -224.51756    
   1502000   598.26402     -4897260.3      196.69995      196.69995      196.69995     -6.2700254    
   1503000   599.57861     -4897176        196.69995      196.69995      196.69995     -246.74235    
   1504000   599.76487     -4897232.1      196.69995      196.69995      196.69995     -46.091993    
   1505000   600.43452     -4897181.3      196.69995      196.69995      196.69995     -33.538198    
   1506000   600.0551      -4897111        196.69995      196.69995      196.69995      1.2705925    
   1507000   599.71322     -4897226.3      196.69995      196.69995      196.69995     -330.80185    
   1508000   599.95432     -4897033.2      196.69995      196.69995      196.69995     -129.67951    
   1509000   599.01776     -4897158.4      196.69995      196.69995      196.69995     -119.92189    
   1510000   599.02903     -4897166.9      196.69995      196.69995      196.69995     -119.21467    
   1511000   599.79663     -4897166.6      196.69995      196.69995      196.69995     -77.738564    
   1512000   599.46038     -4897162.7      196.69995      196.69995      196.69995     -103.69236    
   1513000   600.06156     -4897204        196.69995      196.69995      196.69995     -96.000846    
   1514000   599.61452     -4897108.4      196.69995      196.69995      196.69995     -71.7288      
   1515000   600.06431     -4897155.2      196.69995      196.69995      196.69995     -113.54764    
   1516000   599.02557     -4897201.4      196.69995      196.69995      196.69995     -16.468883    
   1517000   600.33917     -4897209.3      196.69995      196.69995      196.69995     -230.29889    
   1518000   598.76428     -4897250.8      196.69995      196.69995      196.69995     -51.754901    
   1519000   600.24045     -4897156.8      196.69995      196.69995      196.69995     -90.572817    
   1520000   600.31697     -4897126.7      196.69995      196.69995      196.69995     -46.93843     
   1521000   599.94338     -4897143.9      196.69995      196.69995      196.69995     -50.74334     
   1522000   600.99783     -4897086.6      196.69995      196.69995      196.69995     -53.40499     
   1523000   599.01217     -4897187.8      196.69995      196.69995      196.69995      53.456262    
   1524000   600.95695     -4897126.4      196.69995      196.69995      196.69995     -30.912622    
   1525000   600.04828     -4897118        196.69995      196.69995      196.69995      21.185852    
   1526000   597.96291     -4897249.3      196.69995      196.69995      196.69995     -91.091847    
   1527000   600.6986      -4897116.8      196.69995      196.69995      196.69995     -18.771742    
   1528000   599.06614     -4897224.9      196.69995      196.69995      196.69995     -69.722018    
   1529000   600.13028     -4897203.4      196.69995      196.69995      196.69995     -162.52435    
   1530000   600.72207     -4897129.7      196.69995      196.69995      196.69995     -39.751126    
   1531000   598.65772     -4897235.6      196.69995      196.69995      196.69995     -129.01396    
   1532000   599.20121     -4897191.3      196.69995      196.69995      196.69995     -119.81677    
   1533000   599.77939     -4897120.9      196.69995      196.69995      196.69995     -113.95926    
   1534000   600.59579     -4897122.8      196.69995      196.69995      196.69995     -71.058392    
   1535000   599.48987     -4897160.2      196.69995      196.69995      196.69995     -61.037209    
   1536000   600.326       -4897212.1      196.69995      196.69995      196.69995     -76.238176    
   1537000   599.16798     -4897288.7      196.69995      196.69995      196.69995     -104.4234     
   1538000   600.36983     -4897227.9      196.69995      196.69995      196.69995     -75.424756    
   1539000   599.26874     -4897232.6      196.69995      196.69995      196.69995     -203.02621    
   1540000   599.46836     -4897235.5      196.69995      196.69995      196.69995     -203.60921    
   1541000   598.99497     -4897201.3      196.69995      196.69995      196.69995     -129.21526    
   1542000   601.20075     -4897121        196.69995      196.69995      196.69995     -104.78235    
   1543000   600.21255     -4897097.6      196.69995      196.69995      196.69995     -145.67089    
   1544000   599.0608      -4897221.5      196.69995      196.69995      196.69995     -95.692473    
   1545000   601.04028     -4897148.8      196.69995      196.69995      196.69995     -67.227709    
   1546000   601.53752     -4897042.1      196.69995      196.69995      196.69995     -103.98707    
   1547000   598.73779     -4897281.8      196.69995      196.69995      196.69995     -128.14869    
   1548000   600.46503     -4897067.4      196.69995      196.69995      196.69995     -11.441586    
   1549000   599.09858     -4897216.4      196.69995      196.69995      196.69995     -87.054976    
   1550000   600.00633     -4897271.1      196.69995      196.69995      196.69995     -129.39103    
   1551000   599.71289     -4897241.2      196.69995      196.69995      196.69995     -159.04313    
   1552000   599.48428     -4897196.5      196.69995      196.69995      196.69995     -89.410384    
   1553000   600.48871     -4897137.9      196.69995      196.69995      196.69995     -23.741556    
   1554000   599.04382     -4897199        196.69995      196.69995      196.69995     -29.949132    
   1555000   600.89145     -4897132.9      196.69995      196.69995      196.69995     -146.38824    
   1556000   599.71299     -4897203.1      196.69995      196.69995      196.69995     -3.0288325    
   1557000   600.79647     -4897171.1      196.69995      196.69995      196.69995     -20.506006    
   1558000   600.79658     -4897097.4      196.69995      196.69995      196.69995     -156.96618    
   1559000   599.279       -4897096.8      196.69995      196.69995      196.69995     -33.459086    
   1560000   600.0665      -4897122.9      196.69995      196.69995      196.69995      32.654528    
   1561000   600.4804      -4897152.1      196.69995      196.69995      196.69995      2.8011137    
   1562000   599.69619     -4897224.7      196.69995      196.69995      196.69995      12.201979    
   1563000   601.351       -4897049.3      196.69995      196.69995      196.69995     -66.684893    
   1564000   601.21041     -4897113.6      196.69995      196.69995      196.69995      16.867143    
   1565000   599.51564     -4897181.7      196.69995      196.69995      196.69995      16.631086    
   1566000   599.33162     -4897214.8      196.69995      196.69995      196.69995     -145.74988    
   1567000   600.27546     -4897225.7      196.69995      196.69995      196.69995     -128.07545    
   1568000   599.09421     -4897270.6      196.69995      196.69995      196.69995     -63.135597    
   1569000   600.1521      -4897153        196.69995      196.69995      196.69995     -83.192758    
   1570000   600.97554     -4897098.1      196.69995      196.69995      196.69995     -85.653223    
   1571000   599.3955      -4897161.9      196.69995      196.69995      196.69995     -127.23644    
   1572000   599.18526     -4897208.3      196.69995      196.69995      196.69995     -151.55112    
   1573000   599.1645      -4897131.8      196.69995      196.69995      196.69995     -130.18205    
   1574000   601.71396     -4897104.8      196.69995      196.69995      196.69995     -214.00565    
   1575000   599.66536     -4897234.3      196.69995      196.69995      196.69995     -92.563605    
   1576000   599.71939     -4897154        196.69995      196.69995      196.69995      32.026396    
   1577000   601.01145     -4897157.6      196.69995      196.69995      196.69995      26.420724    
   1578000   599.33319     -4897204.1      196.69995      196.69995      196.69995      13.040302    
   1579000   601.1678      -4897109.6      196.69995      196.69995      196.69995     -165.17817    
   1580000   598.31802     -4897218.7      196.69995      196.69995      196.69995     -104.93453    
   1581000   600.21347     -4897129.4      196.69995      196.69995      196.69995      48.409035    
   1582000   599.69336     -4897169.4      196.69995      196.69995      196.69995     -144.03844    
   1583000   600.07153     -4897208.3      196.69995      196.69995      196.69995     -74.158197    
   1584000   599.49404     -4897210.3      196.69995      196.69995      196.69995     -191.23115    
   1585000   600.29657     -4897157.1      196.69995      196.69995      196.69995     -187.91266    
   1586000   600.61871     -4897135.1      196.69995      196.69995      196.69995     -83.908685    
   1587000   599.68826     -4897165.4      196.69995      196.69995      196.69995     -95.941304    
   1588000   599.74425     -4897170.1      196.69995      196.69995      196.69995     -92.105552    
   1589000   600.37445     -4897082.6      196.69995      196.69995      196.69995     -137.01295    
   1590000   601.24281     -4897088.7      196.69995      196.69995      196.69995     -93.988062    
   1591000   601.06238     -4897046.4      196.69995      196.69995      196.69995     -67.254624    
   1592000   599.69876     -4897189.2      196.69995      196.69995      196.69995     -120.45064    
   1593000   600.64364     -4897167        196.69995      196.69995      196.69995     -74.499125    
   1594000   600.33103     -4897085.7      196.69995      196.69995      196.69995      33.95796     
   1595000   599.43295     -4897225.6      196.69995      196.69995      196.69995     -133.66059    
   1596000   599.389       -4897210.7      196.69995      196.69995      196.69995     -59.165451    
   1597000   600.33919     -4897105.7      196.69995      196.69995      196.69995     -146.11121    
   1598000   599.78296     -4897159        196.69995      196.69995      196.69995     -63.775525    
   1599000   599.43224     -4897155.1      196.69995      196.69995      196.69995     -89.073961    
   1600000   599.81119     -4897211.4      196.69995      196.69995      196.69995     -66.416726    
   1601000   600.51608     -4897102.8      196.69995      196.69995      196.69995     -80.38743     
   1602000   599.65489     -4897190.1      196.69995      196.69995      196.69995     -144.80955    
   1603000   599.27232     -4897183.7      196.69995      196.69995      196.69995     -92.207862    
   1604000   599.67099     -4897133.8      196.69995      196.69995      196.69995     -104.81905    
   1605000   600.19751     -4897174.4      196.69995      196.69995      196.69995     -112.79775    
   1606000   599.71872     -4897187.1      196.69995      196.69995      196.69995     -103.12881    
   1607000   598.88008     -4897277.6      196.69995      196.69995      196.69995     -152.84109    
   1608000   601.08267     -4897090.8      196.69995      196.69995      196.69995     -171.26413    
   1609000   598.24621     -4897254.5      196.69995      196.69995      196.69995     -200.75374    
   1610000   598.86545     -4897222.1      196.69995      196.69995      196.69995     -188.26952    
   1611000   600.01756     -4897211.9      196.69995      196.69995      196.69995     -158.00487    
   1612000   599.26492     -4897168.2      196.69995      196.69995      196.69995     -108.22279    
   1613000   599.82716     -4897155.1      196.69995      196.69995      196.69995     -114.15598    
   1614000   600.75571     -4897143.1      196.69995      196.69995      196.69995     -3.8062322    
   1615000   601.65244     -4897073.9      196.69995      196.69995      196.69995     -26.349443    
   1616000   599.82372     -4897199.9      196.69995      196.69995      196.69995     -5.5477119    
   1617000   599.55977     -4897226        196.69995      196.69995      196.69995     -177.82739    
   1618000   600.05054     -4897139.2      196.69995      196.69995      196.69995     -68.319505    
   1619000   600.56796     -4897148.5      196.69995      196.69995      196.69995     -67.271541    
   1620000   600.14899     -4897187.6      196.69995      196.69995      196.69995     -91.454002    
   1621000   600.35798     -4897246.4      196.69995      196.69995      196.69995     -81.220789    
   1622000   600.93837     -4897104.7      196.69995      196.69995      196.69995      9.605267     
   1623000   600.07539     -4897169.6      196.69995      196.69995      196.69995     -117.70122    
   1624000   598.27607     -4897242        196.69995      196.69995      196.69995      31.949684    
   1625000   599.26214     -4897269.3      196.69995      196.69995      196.69995     -190.82594    
   1626000   601.44718     -4897078.4      196.69995      196.69995      196.69995     -61.113074    
   1627000   600.19729     -4897127.9      196.69995      196.69995      196.69995     -121.19117    
   1628000   601.04697     -4897128.7      196.69995      196.69995      196.69995     -167.08439    
   1629000   601.1466      -4897093        196.69995      196.69995      196.69995     -57.136092    
   1630000   599.64088     -4897188.4      196.69995      196.69995      196.69995     -151.7277     
   1631000   600.73678     -4897083.7      196.69995      196.69995      196.69995     -168.87597    
   1632000   600.05131     -4897101.2      196.69995      196.69995      196.69995     -94.500131    
   1633000   599.63383     -4897178        196.69995      196.69995      196.69995     -44.205642    
   1634000   600.07043     -4897191.2      196.69995      196.69995      196.69995      18.89032     
   1635000   598.81375     -4897259.4      196.69995      196.69995      196.69995     -3.8267115    
   1636000   599.7847      -4897108.8      196.69995      196.69995      196.69995     -106.02709    
   1637000   599.49399     -4897156.8      196.69995      196.69995      196.69995     -131.52377    
   1638000   599.50732     -4897225.1      196.69995      196.69995      196.69995     -165.93544    
   1639000   599.51179     -4897293.9      196.69995      196.69995      196.69995     -24.2345      
   1640000   598.66021     -4897175.8      196.69995      196.69995      196.69995     -63.025322    
   1641000   599.93037     -4897132        196.69995      196.69995      196.69995      36.676696    
   1642000   600.40991     -4897148.5      196.69995      196.69995      196.69995      94.935102    
   1643000   600.07236     -4897165.9      196.69995      196.69995      196.69995     -11.377045    
   1644000   599.95444     -4897146.6      196.69995      196.69995      196.69995      30.757483    
   1645000   601.41377     -4897074.5      196.69995      196.69995      196.69995     -126.20548    
   1646000   600.93762     -4897045.7      196.69995      196.69995      196.69995     -123.02166    
   1647000   600.175       -4897140.7      196.69995      196.69995      196.69995     -27.00023     
   1648000   598.9321      -4897307.8      196.69995      196.69995      196.69995     -118.11062    
   1649000   600.10065     -4897208        196.69995      196.69995      196.69995     -201.17696    
   1650000   599.92739     -4897175.5      196.69995      196.69995      196.69995     -32.765451    
   1651000   600.6607      -4897109.3      196.69995      196.69995      196.69995     -166.1223     
   1652000   599.7345      -4897193.1      196.69995      196.69995      196.69995     -72.014915    
   1653000   601.18044     -4897095.2      196.69995      196.69995      196.69995     -16.245235    
   1654000   599.78629     -4897230.1      196.69995      196.69995      196.69995     -131.56031    
   1655000   599.54697     -4897212.7      196.69995      196.69995      196.69995     -6.759426     
   1656000   601.08101     -4897115.6      196.69995      196.69995      196.69995     -9.8443368    
   1657000   602.04094     -4897048.7      196.69995      196.69995      196.69995     -193.13834    
   1658000   600.01566     -4897132.3      196.69995      196.69995      196.69995     -126.04669    
   1659000   599.80268     -4897237.9      196.69995      196.69995      196.69995     -36.153181    
   1660000   601.19272     -4897144.8      196.69995      196.69995      196.69995     -152.26602    
   1661000   600.01614     -4897153        196.69995      196.69995      196.69995     -217.96878    
   1662000   599.48881     -4897234.9      196.69995      196.69995      196.69995     -222.26619    
   1663000   599.52205     -4897234.3      196.69995      196.69995      196.69995     -189.95401    
   1664000   600.29957     -4897142.9      196.69995      196.69995      196.69995     -69.247336    
   1665000   599.03969     -4897309.3      196.69995      196.69995      196.69995     -80.255371    
   1666000   600.3278      -4897128.2      196.69995      196.69995      196.69995     -116.04886    
   1667000   600.06852     -4897211.1      196.69995      196.69995      196.69995     -162.58124    
   1668000   599.39428     -4897180.4      196.69995      196.69995      196.69995     -80.683214    
   1669000   599.97466     -4897198.6      196.69995      196.69995      196.69995     -175.62856    
   1670000   599.48273     -4897176.5      196.69995      196.69995      196.69995     -92.830625    
   1671000   599.64682     -4897238.3      196.69995      196.69995      196.69995     -174.50658    
   1672000   598.39122     -4897216.6      196.69995      196.69995      196.69995     -157.20055    
   1673000   600.31309     -4897169.9      196.69995      196.69995      196.69995     -207.90906    
   1674000   600.33913     -4897212.2      196.69995      196.69995      196.69995     -145.46976    
   1675000   600.19911     -4897218.6      196.69995      196.69995      196.69995     -26.844974    
   1676000   600.27435     -4897213.9      196.69995      196.69995      196.69995     -144.06994    
   1677000   600.18318     -4897223.8      196.69995      196.69995      196.69995     -140.42521    
   1678000   600.03383     -4897136        196.69995      196.69995      196.69995     -128.99366    
   1679000   599.78559     -4897307        196.69995      196.69995      196.69995     -20.794178    
   1680000   599.15818     -4897348.7      196.69995      196.69995      196.69995     -166.53901    
   1681000   599.32555     -4897260.4      196.69995      196.69995      196.69995     -144.84038    
   1682000   599.27588     -4897287.7      196.69995      196.69995      196.69995     -118.00599    
   1683000   599.82152     -4897239.8      196.69995      196.69995      196.69995     -111.28802    
   1684000   599.15818     -4897284.9      196.69995      196.69995      196.69995     -134.40657    
   1685000   599.01075     -4897331.5      196.69995      196.69995      196.69995     -199.72506    
   1686000   600.73081     -4897084.5      196.69995      196.69995      196.69995     -47.80548     
   1687000   600.0429      -4897238.7      196.69995      196.69995      196.69995     -39.823982    
   1688000   599.86217     -4897151.8      196.69995      196.69995      196.69995     -108.94321    
   1689000   600.10944     -4897224.7      196.69995      196.69995      196.69995     -203.79974    
   1690000   598.61373     -4897203.3      196.69995      196.69995      196.69995     -51.949548    
   1691000   600.46451     -4897218.5      196.69995      196.69995      196.69995     -258.79311    
   1692000   600.13449     -4897153.3      196.69995      196.69995      196.69995     -238.35986    
   1693000   600.69372     -4897090.2      196.69995      196.69995      196.69995     -48.430486    
   1694000   600.25866     -4897219.2      196.69995      196.69995      196.69995     -189.40431    
   1695000   600.03228     -4897224.2      196.69995      196.69995      196.69995     -98.879231    
   1696000   600.11708     -4897143.9      196.69995      196.69995      196.69995     -84.15746     
   1697000   599.50463     -4897175.7      196.69995      196.69995      196.69995     -166.20568    
   1698000   601.00632     -4897131.2      196.69995      196.69995      196.69995     -132.92884    
   1699000   599.6134      -4897212.6      196.69995      196.69995      196.69995     -122.97885    
   1700000   600.20628     -4897152.9      196.69995      196.69995      196.69995     -220.02283    
   1701000   599.90886     -4897188.1      196.69995      196.69995      196.69995     -94.140104    
   1702000   599.18915     -4897235.1      196.69995      196.69995      196.69995     -175.58554    
   1703000   599.98726     -4897220.8      196.69995      196.69995      196.69995     -203.68136    
   1704000   599.1947      -4897293.8      196.69995      196.69995      196.69995     -155.51234    
   1705000   600.00768     -4897156.9      196.69995      196.69995      196.69995     -146.33448    
   1706000   600.0058      -4897201        196.69995      196.69995      196.69995     -362.31365    
   1707000   599.45844     -4897241.6      196.69995      196.69995      196.69995     -34.428331    
   1708000   600.86724     -4897145.6      196.69995      196.69995      196.69995     -210.63146    
   1709000   600.1557      -4897211.2      196.69995      196.69995      196.69995     -97.547215    
   1710000   599.27571     -4897196.3      196.69995      196.69995      196.69995     -20.384754    
   1711000   599.3604      -4897259.4      196.69995      196.69995      196.69995     -129.01688    
   1712000   598.46237     -4897307.1      196.69995      196.69995      196.69995     -201.00491    
   1713000   599.62667     -4897208.8      196.69995      196.69995      196.69995     -107.55033    
   1714000   600.03149     -4897219.1      196.69995      196.69995      196.69995     -210.3155     
   1715000   600.06684     -4897223.7      196.69995      196.69995      196.69995     -161.71996    
   1716000   600.4013      -4897218.8      196.69995      196.69995      196.69995     -252.32627    
   1717000   601.03093     -4897190.3      196.69995      196.69995      196.69995     -163.93037    
   1718000   599.76083     -4897164.4      196.69995      196.69995      196.69995     -203.44176    
   1719000   599.04656     -4897326.8      196.69995      196.69995      196.69995     -95.17819     
   1720000   600.49831     -4897182.6      196.69995      196.69995      196.69995     -55.414234    
   1721000   600.22222     -4897244.3      196.69995      196.69995      196.69995     -58.613518    
   1722000   600.50362     -4897118        196.69995      196.69995      196.69995     -172.86306    
   1723000   599.30917     -4897282.8      196.69995      196.69995      196.69995     -246.51121    
   1724000   600.1875      -4897195.8      196.69995      196.69995      196.69995     -89.3562      
   1725000   600.35092     -4897235.7      196.69995      196.69995      196.69995     -180.84671    
   1726000   600.14167     -4897238        196.69995      196.69995      196.69995     -297.51562    
   1727000   600.08947     -4897182.6      196.69995      196.69995      196.69995     -149.37876    
   1728000   600.3093      -4897164.4      196.69995      196.69995      196.69995     -159.91512    
   1729000   600.69353     -4897252        196.69995      196.69995      196.69995     -99.116173    
   1730000   599.41433     -4897259.6      196.69995      196.69995      196.69995     -125.79522    
   1731000   599.51698     -4897290.1      196.69995      196.69995      196.69995     -139.29068    
   1732000   601.36641     -4897116.3      196.69995      196.69995      196.69995     -97.45019     
   1733000   599.53635     -4897203.2      196.69995      196.69995      196.69995     -176.38391    
   1734000   600.49041     -4897192.6      196.69995      196.69995      196.69995     -152.49161    
   1735000   600.18233     -4897219.6      196.69995      196.69995      196.69995     -240.83803    
   1736000   598.55228     -4897307.4      196.69995      196.69995      196.69995     -30.753598    
   1737000   600.70422     -4897154.7      196.69995      196.69995      196.69995     -54.10288     
   1738000   599.8529      -4897209.7      196.69995      196.69995      196.69995     -94.608891    
   1739000   601.02481     -4897121.6      196.69995      196.69995      196.69995     -195.51748    
   1740000   600.30106     -4897139.8      196.69995      196.69995      196.69995     -58.288539    
   1741000   599.92139     -4897217.7      196.69995      196.69995      196.69995     -147.14565    
   1742000   599.56069     -4897301.7      196.69995      196.69995      196.69995     -146.65767    
   1743000   599.51937     -4897170.5      196.69995      196.69995      196.69995     -9.3719626    
   1744000   600.33006     -4897179.5      196.69995      196.69995      196.69995     -202.6761     
   1745000   599.76067     -4897218.2      196.69995      196.69995      196.69995     -376.5357     
   1746000   600.2379      -4897241.2      196.69995      196.69995      196.69995     -166.94633    
   1747000   599.36729     -4897258.1      196.69995      196.69995      196.69995     -139.1073     
   1748000   598.7301      -4897314.3      196.69995      196.69995      196.69995     -230.76616    
   1749000   600.382       -4897212.4      196.69995      196.69995      196.69995     -142.89927    
   1750000   599.72845     -4897266        196.69995      196.69995      196.69995     -77.16821     
   1751000   598.57098     -4897270.6      196.69995      196.69995      196.69995     -56.302297    
   1752000   600.30365     -4897163.6      196.69995      196.69995      196.69995     -22.155296    
   1753000   599.58436     -4897259.4      196.69995      196.69995      196.69995      8.5180091    
   1754000   600.13665     -4897216.8      196.69995      196.69995      196.69995     -132.91159    
   1755000   600.34346     -4897139        196.69995      196.69995      196.69995      126.40684    
   1756000   602.06295     -4897082        196.69995      196.69995      196.69995      36.997192    
   1757000   600.24717     -4897184.5      196.69995      196.69995      196.69995     -130.90837    
   1758000   599.37664     -4897273.1      196.69995      196.69995      196.69995     -88.740762    
   1759000   600.09453     -4897275.4      196.69995      196.69995      196.69995     -187.37971    
   1760000   599.18248     -4897294.4      196.69995      196.69995      196.69995     -217.21936    
   1761000   598.19347     -4897322.6      196.69995      196.69995      196.69995      10.743246    
   1762000   600.6468      -4897187.2      196.69995      196.69995      196.69995     -152.58717    
   1763000   599.20801     -4897289        196.69995      196.69995      196.69995     -113.16491    
   1764000   599.96374     -4897265.7      196.69995      196.69995      196.69995     -130.82106    
   1765000   599.05376     -4897222.4      196.69995      196.69995      196.69995      42.512054    
   1766000   599.71339     -4897264.6      196.69995      196.69995      196.69995     -89.92926     
   1767000   600.28549     -4897234.7      196.69995      196.69995      196.69995     -95.794388    
   1768000   600.92484     -4897220.2      196.69995      196.69995      196.69995     -101.93315    
   1769000   600.1638      -4897140.3      196.69995      196.69995      196.69995     -143.16501    
   1770000   600.1666      -4897295        196.69995      196.69995      196.69995     -222.54506    
   1771000   599.63376     -4897178.3      196.69995      196.69995      196.69995     -169.88505    
   1772000   600.7701      -4897188.4      196.69995      196.69995      196.69995     -225.68236    
   1773000   601.76802     -4897024.4      196.69995      196.69995      196.69995     -199.15342    
   1774000   599.973       -4897281.5      196.69995      196.69995      196.69995     -221.83314    
   1775000   600.29888     -4897158.6      196.69995      196.69995      196.69995     -135.88091    
   1776000   599.25618     -4897290.1      196.69995      196.69995      196.69995     -51.651919    
   1777000   599.35142     -4897254.2      196.69995      196.69995      196.69995     -118.79359    
   1778000   599.14977     -4897205.9      196.69995      196.69995      196.69995     -163.98145    
   1779000   600.87048     -4897159.4      196.69995      196.69995      196.69995     -126.12555    
   1780000   601.20469     -4897176.1      196.69995      196.69995      196.69995     -2.3947363    
   1781000   600.01825     -4897130.4      196.69995      196.69995      196.69995     -61.641028    
   1782000   601.15928     -4897150.4      196.69995      196.69995      196.69995     -68.452092    
   1783000   601.2322      -4897129.2      196.69995      196.69995      196.69995     -89.235326    
   1784000   600.81944     -4897240.9      196.69995      196.69995      196.69995     -103.70625    
   1785000   600.0259      -4897232.4      196.69995      196.69995      196.69995     -231.92829    
   1786000   600.97414     -4897112.1      196.69995      196.69995      196.69995     -53.924076    
   1787000   600.33179     -4897149        196.69995      196.69995      196.69995     -89.291695    
   1788000   600.50899     -4897200.1      196.69995      196.69995      196.69995     -147.48507    
   1789000   601.73317     -4897104.6      196.69995      196.69995      196.69995      0.33162466   
   1790000   599.28832     -4897295.8      196.69995      196.69995      196.69995     -157.97807    
   1791000   598.83348     -4897254.1      196.69995      196.69995      196.69995     -177.59826    
   1792000   599.60268     -4897170.9      196.69995      196.69995      196.69995     -80.121927    
   1793000   598.73903     -4897185.2      196.69995      196.69995      196.69995     -192.69142    
   1794000   599.6568      -4897223.7      196.69995      196.69995      196.69995     -172.23634    
   1795000   598.97005     -4897260.8      196.69995      196.69995      196.69995     -212.4426     
   1796000   599.89489     -4897326.6      196.69995      196.69995      196.69995     -177.59376    
   1797000   598.71561     -4897304.4      196.69995      196.69995      196.69995     -138.23568    
   1798000   599.87455     -4897219.7      196.69995      196.69995      196.69995     -60.340458    
   1799000   599.24163     -4897331.7      196.69995      196.69995      196.69995     -250.73628    
   1800000   599.33349     -4897267.5      196.69995      196.69995      196.69995     -201.34985    
   1801000   600.75238     -4897101.9      196.69995      196.69995      196.69995     -144.87194    
   1802000   600.28057     -4897273.9      196.69995      196.69995      196.69995     -201.86341    
   1803000   599.66793     -4897224.1      196.69995      196.69995      196.69995     -72.155933    
   1804000   600.50132     -4897225.1      196.69995      196.69995      196.69995     -33.374223    
   1805000   599.10965     -4897298.2      196.69995      196.69995      196.69995     -209.41086    
   1806000   600.22909     -4897264.4      196.69995      196.69995      196.69995     -94.159708    
   1807000   600.41642     -4897195.5      196.69995      196.69995      196.69995     -101.08335    
   1808000   598.4372      -4897308.2      196.69995      196.69995      196.69995     -146.66263    
   1809000   600.80973     -4897140.3      196.69995      196.69995      196.69995      8.2886311    
   1810000   598.97916     -4897338.8      196.69995      196.69995      196.69995     -59.890996    
   1811000   600.69727     -4897187.4      196.69995      196.69995      196.69995     -88.542169    
   1812000   600.19008     -4897141.4      196.69995      196.69995      196.69995     -3.1290671    
   1813000   599.10539     -4897286.7      196.69995      196.69995      196.69995     -182.27374    
   1814000   600.25959     -4897303.7      196.69995      196.69995      196.69995     -203.8713     
   1815000   599.71329     -4897256        196.69995      196.69995      196.69995     -190.59969    
   1816000   600.47003     -4897270.4      196.69995      196.69995      196.69995     -150.17413    
   1817000   600.3808      -4897239.7      196.69995      196.69995      196.69995     -265.71377    
   1818000   600.66311     -4897172.4      196.69995      196.69995      196.69995     -169.5038     
   1819000   599.60919     -4897230.1      196.69995      196.69995      196.69995     -158.18882    
   1820000   599.328       -4897307.5      196.69995      196.69995      196.69995     -177.64352    
   1821000   600.00034     -4897259.8      196.69995      196.69995      196.69995     -77.929207    
   1822000   599.50658     -4897232        196.69995      196.69995      196.69995     -110.88751    
   1823000   599.23722     -4897306.2      196.69995      196.69995      196.69995     -13.557945    
   1824000   600.19091     -4897125.7      196.69995      196.69995      196.69995     -119.18789    
   1825000   599.57531     -4897270.6      196.69995      196.69995      196.69995     -110.56495    
   1826000   599.99174     -4897233        196.69995      196.69995      196.69995     -162.36878    
   1827000   600.38476     -4897146.8      196.69995      196.69995      196.69995     -103.71999    
   1828000   600.49948     -4897178.1      196.69995      196.69995      196.69995     -138.1441     
   1829000   600.06936     -4897224.3      196.69995      196.69995      196.69995     -85.117446    
   1830000   599.75007     -4897252.2      196.69995      196.69995      196.69995     -183.79556    
   1831000   600.1506      -4897265.9      196.69995      196.69995      196.69995     -81.26036     
   1832000   600.22268     -4897212.3      196.69995      196.69995      196.69995     -88.954227    
   1833000   598.74956     -4897307.8      196.69995      196.69995      196.69995     -143.50745    
   1834000   601.35479     -4897186.3      196.69995      196.69995      196.69995     -86.396203    
   1835000   600.4106      -4897232.6      196.69995      196.69995      196.69995     -53.368684    
   1836000   599.13641     -4897349.2      196.69995      196.69995      196.69995     -100.1076     
   1837000   599.97539     -4897305.8      196.69995      196.69995      196.69995     -224.76168    
   1838000   599.87774     -4897275        196.69995      196.69995      196.69995     -215.94405    
   1839000   599.86456     -4897299.1      196.69995      196.69995      196.69995     -270.34433    
   1840000   600.36323     -4897226.5      196.69995      196.69995      196.69995     -143.08069    
   1841000   599.40763     -4897268.2      196.69995      196.69995      196.69995     -53.965502    
   1842000   600.3391      -4897226.8      196.69995      196.69995      196.69995     -154.56217    
   1843000   600.48148     -4897211.3      196.69995      196.69995      196.69995     -61.072568    
   1844000   599.98818     -4897204.6      196.69995      196.69995      196.69995     -165.86092    
   1845000   601.27279     -4897123.6      196.69995      196.69995      196.69995     -157.99062    
   1846000   599.81655     -4897257.6      196.69995      196.69995      196.69995     -119.04619    
   1847000   600.75939     -4897170.5      196.69995      196.69995      196.69995     -250.16836    
   1848000   599.92079     -4897301        196.69995      196.69995      196.69995     -91.363634    
   1849000   598.87183     -4897353.7      196.69995      196.69995      196.69995     -164.4558     
   1850000   600.41489     -4897232        196.69995      196.69995      196.69995     -169.23967    
   1851000   600.15312     -4897267.8      196.69995      196.69995      196.69995     -125.20127    
   1852000   599.78661     -4897308        196.69995      196.69995      196.69995     -98.225424    
   1853000   599.27464     -4897261.1      196.69995      196.69995      196.69995     -17.856336    
   1854000   599.60281     -4897242.9      196.69995      196.69995      196.69995     -188.79573    
   1855000   599.44807     -4897248.3      196.69995      196.69995      196.69995     -218.16437    
   1856000   600.67067     -4897234.2      196.69995      196.69995      196.69995     -215.15312    
   1857000   600.52288     -4897220.8      196.69995      196.69995      196.69995     -252.17633    
   1858000   599.18428     -4897258.1      196.69995      196.69995      196.69995     -205.95379    
   1859000   599.08667     -4897247.9      196.69995      196.69995      196.69995     -19.097522    
   1860000   599.10627     -4897306.7      196.69995      196.69995      196.69995     -171.71549    
   1861000   600.41849     -4897241.1      196.69995      196.69995      196.69995      1.7971411    
   1862000   601.01732     -4897156.3      196.69995      196.69995      196.69995     -63.161769    
   1863000   600.15302     -4897205.5      196.69995      196.69995      196.69995     -70.557325    
   1864000   600.37995     -4897184.3      196.69995      196.69995      196.69995     -153.92565    
   1865000   599.75439     -4897238.8      196.69995      196.69995      196.69995     -219.42109    
   1866000   599.34721     -4897308        196.69995      196.69995      196.69995     -241.64018    
   1867000   600.22658     -4897300.8      196.69995      196.69995      196.69995     -322.57593    
   1868000   599.79137     -4897302.3      196.69995      196.69995      196.69995     -189.76654    
   1869000   598.12612     -4897370        196.69995      196.69995      196.69995     -42.87385     
   1870000   600.13917     -4897265.9      196.69995      196.69995      196.69995     -186.11444    
   1871000   599.40725     -4897287.3      196.69995      196.69995      196.69995     -199.19617    
   1872000   600.54713     -4897230.2      196.69995      196.69995      196.69995     -174.77658    
   1873000   600.30881     -4897139.5      196.69995      196.69995      196.69995     -146.64052    
   1874000   600.77674     -4897188.5      196.69995      196.69995      196.69995     -136.6224     
   1875000   599.62276     -4897285.9      196.69995      196.69995      196.69995     -46.743553    
   1876000   599.58738     -4897301        196.69995      196.69995      196.69995     -270.58686    
   1877000   600.15761     -4897238.5      196.69995      196.69995      196.69995     -171.10049    
   1878000   600.26931     -4897191.9      196.69995      196.69995      196.69995     -111.49972    
   1879000   599.23893     -4897299.3      196.69995      196.69995      196.69995     -173.32784    
   1880000   598.90121     -4897319.4      196.69995      196.69995      196.69995     -139.5979     
   1881000   600.46051     -4897200.9      196.69995      196.69995      196.69995     -145.95007    
   1882000   599.59561     -4897251.7      196.69995      196.69995      196.69995     -107.08307    
   1883000   601.32819     -4897206.3      196.69995      196.69995      196.69995     -63.923971    
   1884000   599.81021     -4897264.2      196.69995      196.69995      196.69995     -117.62743    
   1885000   600.20233     -4897233.1      196.69995      196.69995      196.69995     -130.09705    
   1886000   599.2045      -4897273.3      196.69995      196.69995      196.69995     -95.314051    
   1887000   599.57558     -4897293.2      196.69995      196.69995      196.69995     -162.15712    
   1888000   599.4573      -4897327        196.69995      196.69995      196.69995     -36.704378    
   1889000   599.53382     -4897296.2      196.69995      196.69995      196.69995     -99.029343    
   1890000   599.07626     -4897311.8      196.69995      196.69995      196.69995     -38.41125     
   1891000   600.15446     -4897242.1      196.69995      196.69995      196.69995     -157.1697     
   1892000   599.86675     -4897269        196.69995      196.69995      196.69995     -92.575629    
   1893000   599.45961     -4897301.8      196.69995      196.69995      196.69995     -218.91773    
   1894000   600.19565     -4897201        196.69995      196.69995      196.69995     -90.387893    
   1895000   599.23425     -4897274        196.69995      196.69995      196.69995     -119.31815    
   1896000   599.63735     -4897286.7      196.69995      196.69995      196.69995     -17.419527    
   1897000   600.04456     -4897275.6      196.69995      196.69995      196.69995     -140.47588    
   1898000   599.43043     -4897272        196.69995      196.69995      196.69995     -65.858946    
   1899000   599.45195     -4897241.5      196.69995      196.69995      196.69995     -73.264732    
   1900000   600.66387     -4897276.4      196.69995      196.69995      196.69995     -146.37925    
   1901000   600.11703     -4897233.4      196.69995      196.69995      196.69995     -152.50165    
   1902000   599.65527     -4897206.9      196.69995      196.69995      196.69995     -16.542371    
   1903000   598.68464     -4897362.9      196.69995      196.69995      196.69995     -175.40941    
   1904000   599.06989     -4897321.9      196.69995      196.69995      196.69995     -135.96997    
   1905000   599.76454     -4897259.9      196.69995      196.69995      196.69995     -128.75808    
   1906000   599.81528     -4897258.3      196.69995      196.69995      196.69995     -50.746516    
   1907000   601.52676     -4897091.9      196.69995      196.69995      196.69995     -153.34261    
   1908000   598.84329     -4897249.6      196.69995      196.69995      196.69995     -183.10492    
   1909000   600.34258     -4897231.9      196.69995      196.69995      196.69995     -42.823008    
   1910000   601.53192     -4897131.3      196.69995      196.69995      196.69995     -188.63345    
   1911000   599.7161      -4897283.1      196.69995      196.69995      196.69995     -189.51424    
   1912000   600.25425     -4897338.7      196.69995      196.69995      196.69995     -158.32359    
   1913000   600.48659     -4897182.4      196.69995      196.69995      196.69995     -26.791322    
   1914000   599.88293     -4897286.4      196.69995      196.69995      196.69995     -94.207572    
   1915000   597.71357     -4897399.3      196.69995      196.69995      196.69995     -99.0978      
   1916000   601.56662     -4897199.6      196.69995      196.69995      196.69995      20.339979    
   1917000   600.10359     -4897227.1      196.69995      196.69995      196.69995     -243.2163     
   1918000   600.57526     -4897249.6      196.69995      196.69995      196.69995     -115.75545    
   1919000   600.71014     -4897243.8      196.69995      196.69995      196.69995     -1.8473408    
   1920000   600.23054     -4897302.5      196.69995      196.69995      196.69995     -170.29133    
   1921000   600.29216     -4897257.5      196.69995      196.69995      196.69995     -226.46452    
   1922000   600.67481     -4897278.3      196.69995      196.69995      196.69995      34.091321    
   1923000   601.13975     -4897227.8      196.69995      196.69995      196.69995     -49.585469    
   1924000   600.03236     -4897177.1      196.69995      196.69995      196.69995     -106.16714    
   1925000   599.07456     -4897244.1      196.69995      196.69995      196.69995     -119.32587    
   1926000   600.04703     -4897318.9      196.69995      196.69995      196.69995     -113.65645    
   1927000   599.64466     -4897221        196.69995      196.69995      196.69995     -15.487217    
   1928000   600.64478     -4897277.6      196.69995      196.69995      196.69995     -173.866      
   1929000   599.52208     -4897270.2      196.69995      196.69995      196.69995     -52.579951    
   1930000   601.84792     -4897172.8      196.69995      196.69995      196.69995      33.493516    
   1931000   598.95893     -4897376.1      196.69995      196.69995      196.69995     -184.74283    
   1932000   600.61207     -4897190.7      196.69995      196.69995      196.69995     -107.74513    
   1933000   599.2568      -4897371.5      196.69995      196.69995      196.69995     -60.851822    
   1934000   598.9964      -4897352        196.69995      196.69995      196.69995     -79.635727    
   1935000   600.69481     -4897250.6      196.69995      196.69995      196.69995     -145.56371    
   1936000   600.37142     -4897228.5      196.69995      196.69995      196.69995     -118.66602    
   1937000   599.00016     -4897307.4      196.69995      196.69995      196.69995     -160.88941    
   1938000   599.12885     -4897290.9      196.69995      196.69995      196.69995     -194.5657     
   1939000   599.89055     -4897276.2      196.69995      196.69995      196.69995     -139.46185    
   1940000   601.81316     -4897135.3      196.69995      196.69995      196.69995     -170.35636    
   1941000   601.06614     -4897178.4      196.69995      196.69995      196.69995     -46.522367    
   1942000   600.29191     -4897299.5      196.69995      196.69995      196.69995     -110.80713    
   1943000   599.74759     -4897303.4      196.69995      196.69995      196.69995     -69.584857    
   1944000   600.61476     -4897189.7      196.69995      196.69995      196.69995     -40.351946    
   1945000   599.27479     -4897365.6      196.69995      196.69995      196.69995     -72.902114    
   1946000   599.94603     -4897212.6      196.69995      196.69995      196.69995     -113.30103    
   1947000   598.70447     -4897325.5      196.69995      196.69995      196.69995     -20.201208    
   1948000   599.75061     -4897365.3      196.69995      196.69995      196.69995     -248.71712    
   1949000   600.39245     -4897188.9      196.69995      196.69995      196.69995     -131.8182     
   1950000   599.99756     -4897295.5      196.69995      196.69995      196.69995     -179.93136    
   1951000   600.97332     -4897294.6      196.69995      196.69995      196.69995     -191.45412    
   1952000   601.6414      -4897154.7      196.69995      196.69995      196.69995      117.21563    
   1953000   600.9573      -4897254.2      196.69995      196.69995      196.69995     -61.159744    
   1954000   599.66921     -4897352.5      196.69995      196.69995      196.69995     -37.582136    
   1955000   600.06542     -4897278.3      196.69995      196.69995      196.69995     -45.785799    
   1956000   600.32905     -4897252.2      196.69995      196.69995      196.69995     -122.99567    
   1957000   600.63803     -4897225.4      196.69995      196.69995      196.69995     -138.80806    
   1958000   599.93792     -4897207.4      196.69995      196.69995      196.69995     -154.16164    
   1959000   598.24434     -4897379.3      196.69995      196.69995      196.69995     -32.098266    
   1960000   600.58501     -4897243.5      196.69995      196.69995      196.69995     -48.647422    
   1961000   600.02156     -4897283.4      196.69995      196.69995      196.69995     -159.3227     
   1962000   600.32591     -4897327.5      196.69995      196.69995      196.69995     -216.82703    
   1963000   599.63884     -4897321.6      196.69995      196.69995      196.69995     -142.40822    
   1964000   598.73763     -4897329.5      196.69995      196.69995      196.69995     -129.17209    
   1965000   598.64543     -4897388.3      196.69995      196.69995      196.69995     -28.962862    
   1966000   599.49182     -4897266        196.69995      196.69995      196.69995     -107.32443    
   1967000   600.63059     -4897147.5      196.69995      196.69995      196.69995     -43.384711    
   1968000   600.50183     -4897270.9      196.69995      196.69995      196.69995     -165.9866     
   1969000   600.16143     -4897253.9      196.69995      196.69995      196.69995     -15.957547    
   1970000   600.29771     -4897228.6      196.69995      196.69995      196.69995     -136.13061    
   1971000   600.44408     -4897312.4      196.69995      196.69995      196.69995     -88.250747    
   1972000   599.94436     -4897293.3      196.69995      196.69995      196.69995     -247.06385    
   1973000   601.33044     -4897136        196.69995      196.69995      196.69995     -68.167507    
   1974000   600.97111     -4897243.6      196.69995      196.69995      196.69995     -105.04835    
   1975000   601.42787     -4897173.3      196.69995      196.69995      196.69995     -66.825893    
   1976000   600.19045     -4897278.1      196.69995      196.69995      196.69995     -177.90224    
   1977000   600.84405     -4897198.6      196.69995      196.69995      196.69995      7.021334     
   1978000   600.72639     -4897142.7      196.69995      196.69995      196.69995     -34.803129    
   1979000   599.83515     -4897314.5      196.69995      196.69995      196.69995     -80.512413    
   1980000   599.17427     -4897292.9      196.69995      196.69995      196.69995     -198.21847    
   1981000   599.19444     -4897338.8      196.69995      196.69995      196.69995     -346.28614    
   1982000   600.42382     -4897222.9      196.69995      196.69995      196.69995     -113.79757    
   1983000   598.94794     -4897285.6      196.69995      196.69995      196.69995     -203.58626    
   1984000   601.42338     -4897168.8      196.69995      196.69995      196.69995     -200.27699    
   1985000   601.16823     -4897217.5      196.69995      196.69995      196.69995     -99.566895    
   1986000   600.62085     -4897290        196.69995      196.69995      196.69995     -114.55183    
   1987000   598.87267     -4897252.3      196.69995      196.69995      196.69995     -217.20158    
   1988000   601.40143     -4897221.7      196.69995      196.69995      196.69995     -117.52705    
   1989000   600.95103     -4897260.1      196.69995      196.69995      196.69995     -176.29648    
   1990000   599.5305      -4897353.3      196.69995      196.69995      196.69995      19.301992    
   1991000   599.89434     -4897294.1      196.69995      196.69995      196.69995     -193.08708    
   1992000   600.76903     -4897207.3      196.69995      196.69995      196.69995     -57.562622    
   1993000   601.13716     -4897333.9      196.69995      196.69995      196.69995     -156.42835    
   1994000   599.03467     -4897350.1      196.69995      196.69995      196.69995     -50.109493    
   1995000   600.27119     -4897279.9      196.69995      196.69995      196.69995     -101.7513     
   1996000   601.09696     -4897260.1      196.69995      196.69995      196.69995     -42.5595      
   1997000   600.55758     -4897197.6      196.69995      196.69995      196.69995     -61.860802    
   1998000   599.50078     -4897404.5      196.69995      196.69995      196.69995     -108.84207    
   1999000   600.96838     -4897333.3      196.69995      196.69995      196.69995     -81.167624    
   2000000   599.19062     -4897345.3      196.69995      196.69995      196.69995      23.317202    
Loop time of 66741.1 on 16384 procs for 1000000 steps with 431984 atoms

Performance: 2.589 ns/day, 9.270 hours/ns, 14.983 timesteps/s, 6.473 Matom-step/s
77.1% CPU use with 128 MPI tasks x 128 OpenMP threads

MPI task timing breakdown:
Section |  min time  |  avg time  |  max time  |%varavg| %total
---------------------------------------------------------------
Pair    | 22650      | 34572      | 47741      |5224.8 | 51.80
Bond    | 0.088592   | 0.19292    | 0.41013    |  13.4 |  0.00
Kspace  | 10832      | 25598      | 38929      |6826.1 | 38.35
Neigh   | 2676.2     | 4262.9     | 6128       |2023.4 |  6.39
Comm    | 1571.2     | 1795.9     | 2010.4     | 245.2 |  2.69
Output  | 0.16065    | 0.17058    | 0.19417    |   1.3 |  0.00
Modify  | 199.89     | 359.73     | 549.01     | 647.5 |  0.54
Other   |            | 152.4      |            |       |  0.23

Nlocal:        3374.88 ave        4331 max        2430 min
Histogram: 64 0 0 0 0 0 0 0 0 64
Nghost:        11153.8 ave       12766 max        9564 min
Histogram: 64 0 0 0 0 0 0 0 0 64
Neighs:         823115 ave 1.15931e+06 max      521670 min
Histogram: 35 29 0 0 0 0 3 23 9 29

Total # of neighbors = 1.0535876e+08
Ave neighs/atom = 243.89505
Ave special neighs/atom = 0
Neighbor list builds = 160173
Dangerous builds = 0
System init for write_data ...
PPPM initialization ...
  using 12-bit tables for long-range coulomb (src/src/kspace.cpp:342)
  G vector (1/distance) = 0.27298992
  grid = 128 128 128
  stencil order = 5
  estimated absolute RMS force accuracy = 0.0019478739
  estimated relative force accuracy = 0.00013527235
  using double precision MKL FFT
  3d grid and FFT values/proc = 28749 16384
Generated 0 of 10 mixed pair_coeff terms from geometric mixing rule
Total wall time: 38:14:37
