LAMMPS (8 Feb 2023)
WARNING: Using I/O redirection is unreliable with parallel runs. Better to use the -in switch to read input files. (src/src/lammps.cpp:531)
  using 128 OpenMP thread(s) per MPI task
Reading data file ...
  orthogonal box = (-0.11364894 -0.11556571 -0.11624261) to (192.7632 196.01428 197.16241)
  4 by 4 by 8 MPI processor grid
  reading atoms ...
  483733 atoms
  reading velocities ...
  483733 velocities
Finding 1-2 1-3 1-4 neighbors ...
  special bond factors lj:    0        0        0       
  special bond factors coul:  0        0        0       
     0 = max # of 1-2 neighbors
     0 = max # of 1-3 neighbors
     0 = max # of 1-4 neighbors
     1 = max # of special neighbors
  special bonds CPU = 0.092 seconds
  read_data CPU = 3.259 seconds
128743 atoms in group Li
PPPM initialization ...
  using 12-bit tables for long-range coulomb (src/src/kspace.cpp:342)
  G vector (1/distance) = 0.2759681
  grid = 128 135 135
  stencil order = 5
  estimated absolute RMS force accuracy = 0.0017386887
  estimated relative force accuracy = 0.00012074525
  using double precision MKL FFT
  3d grid and FFT values/proc = 34040 34560
Generated 0 of 10 mixed pair_coeff terms from geometric mixing rule
Neighbor list info ...
  update: every = 1 steps, delay = 0 steps, check = yes
  max neighbors/atom: 5000, page size: 100000
  master list distance cutoff = 11.3
  ghost atom cutoff = 11.3
  binsize = 5.65, bins = 35 35 35
  3 neighbor lists, perpetual/occasional/extra = 3 0 0
  (1) pair buck/coul/long, perpetual
      attributes: half, newton on
      pair build: half/bin/newton
      stencil: half/bin/3d
      bin: standard
  (2) pair lennard/mdf, perpetual, skip from (3)
      attributes: half, newton on, cut 3.8
      pair build: skip
      stencil: none
      bin: none
  (3) neighbor class addition, perpetual, trim from (1)
      attributes: half, newton on, cut 3.8
      pair build: trim
      stencil: none
      bin: none
Setting up cg style minimization ...
  Unit style    : metal
  Current step  : 0
Per MPI rank memory allocation (min/avg/max) = 225.3 | 261.9 | 299.7 Mbytes
   Step          Temp          E_pair         E_mol          TotEng         Press     
         0   300.36506     -5551641.4      0             -5532860.3     -314.26647    
       426   300.36506     -5570623.4      0             -5551842.4     -5684.3716    
Loop time of 67.893 on 16384 procs for 426 steps with 483733 atoms

80.4% CPU use with 128 MPI tasks x 128 OpenMP threads

Minimization stats:
  Stopping criterion = linesearch alpha is zero
  Energy initial, next-to-last, final = 
     -5551641.35684746  -5570623.36623724  -5570623.36623724
  Force two-norm initial, final = 668.29792 0.40590114
  Force max component initial, final = 4.4310099 0.19207981
  Final line search alpha, max atom move = 3.9157823e-08 7.5214273e-09
  Iterations, force evaluations = 426 849

MPI task timing breakdown:
Section |  min time  |  avg time  |  max time  |%varavg| %total
---------------------------------------------------------------
Pair    | 30.014     | 41.923     | 54.213     | 146.4 | 61.75
Bond    | 6.273e-05  | 0.00017889 | 0.00031155 |   0.0 |  0.00
Kspace  | 10.332     | 22.995     | 35.339     | 205.2 | 33.87
Neigh   | 0.78195    | 1.124      | 1.4823     |  26.4 |  1.66
Comm    | 1.048      | 1.3448     | 1.6078     |  15.8 |  1.98
Output  | 0          | 0          | 0          |   0.0 |  0.00
Modify  | 0          | 0          | 0          |   0.0 |  0.00
Other   |            | 0.5056     |            |       |  0.74

Nlocal:        3779.16 ave        4628 max        2922 min
Histogram: 64 0 0 0 0 0 0 0 0 64
Nghost:        11984.4 ave       13361 max       10616 min
Histogram: 64 0 0 0 0 0 0 0 0 64
Neighs:         924798 ave 1.21374e+06 max      645814 min
Histogram: 30 33 1 0 0 0 0 18 14 32

Total # of neighbors = 1.1837409e+08
Ave neighs/atom = 244.70955
Ave special neighs/atom = 0
Neighbor list builds = 38
Dangerous builds = 0
PPPM initialization ...
  using 12-bit tables for long-range coulomb (src/src/kspace.cpp:342)
  G vector (1/distance) = 0.2759681
  grid = 128 135 135
  stencil order = 5
  estimated absolute RMS force accuracy = 0.0017386887
  estimated relative force accuracy = 0.00012074525
  using double precision MKL FFT
  3d grid and FFT values/proc = 34040 34560
Generated 0 of 10 mixed pair_coeff terms from geometric mixing rule
Setting up Verlet run ...
  Unit style    : metal
  Current step  : 0
  Time step     : 0.002
Per MPI rank memory allocation (min/avg/max) = 224.2 | 260.3 | 297.4 Mbytes
   Step          Temp          TotEng           Lx             Ly             Lz           Press     
         0   300.36506     -5551842.4      192.87685      196.12985      197.27865     -5684.3716    
      1000   307.64132     -5531674.5      193.16393      196.42178      197.57229      13.636958    
      2000   316.44913     -5530575.6      193.11047      196.36741      197.51761      86.007995    
      3000   324.22383     -5529566        193.10932      196.36625      197.51643     -20.899476    
      4000   332.48718     -5528580.1      193.12749      196.38472      197.53501     -56.766792    
      5000   339.36308     -5527690.7      193.12386      196.38103      197.5313      -118.6257     
      6000   347.68745     -5526629.2      193.06623      196.32242      197.47235      25.563598    
      7000   355.53353     -5525612.5      193.05814      196.3142       197.46408      55.191239    
      8000   364.1637      -5524565.2      193.06857      196.32481      197.47475      41.602057    
      9000   372.09285     -5523459.6      193.09469      196.35137      197.50147     -45.324932    
     10000   380.54038     -5522393.8      193.09785      196.35458      197.5047      -67.33418     
     11000   387.82911     -5521395.8      193.08494      196.34146      197.4915      -58.167381    
     12000   396.28275     -5520290.7      193.11276      196.36975      197.51995     -46.569964    
     13000   404.0723      -5519263.6      193.14036      196.39781      197.54818      57.944436    
     14000   411.94901     -5518237.4      193.16431      196.42217      197.57268     -19.656209    
     15000   419.79831     -5517160.2      193.19979      196.45824      197.60897     -2.1552987    
     16000   427.97833     -5516130.6      193.22794      196.48686      197.63775      14.748574    
     17000   435.25931     -5515088.4      193.27336      196.53306      197.68422      105.19015    
     18000   443.48032     -5514045.3      193.31791      196.57835      197.72978     -62.82451     
     19000   451.90985     -5513031.4      193.35994      196.62109      197.77277     -174.86631    
     20000   459.99652     -5511972.9      193.37893      196.64041      197.7922      -75.829939    
     21000   467.42288     -5510895.8      193.4062       196.66813      197.82008      104.22499    
     22000   475.62546     -5509773.5      193.47585      196.73895      197.89132     -97.613573    
     23000   483.91491     -5508794.5      193.48836      196.75168      197.90412     -17.488045    
     24000   491.95573     -5507716.9      193.5104       196.77409      197.92666      43.035775    
     25000   499.82207     -5506665.1      193.54549      196.80977      197.96256     -95.272507    
     26000   508.95557     -5505458.4      193.56091      196.82546      197.97833      133.01944    
     27000   515.90269     -5504482.3      193.58754      196.85253      198.00557     -45.197958    
     28000   525.63584     -5503389.2      193.6248       196.89042      198.04368     -169.92255    
     29000   532.1525      -5502350.8      193.63288      196.89863      198.05194      29.668593    
     30000   539.70262     -5501309.9      193.65584      196.92198      198.07542      19.845966    
     31000   548.13434     -5500215.7      193.69112      196.95786      198.11151      72.305171    
     32000   556.6137      -5499102.8      193.72849      196.99586      198.14973      8.6567708    
     33000   565.66716     -5498058.8      193.74843      197.01614      198.17013      69.09191     
     34000   571.98332     -5497049.7      193.77405      197.04219      198.19634      75.634402    
     35000   580.36582     -5496040.5      193.81564      197.08448      198.23887     -48.942025    
     36000   588.42029     -5494901.3      193.838        197.10721      198.26174     -1.0620143    
     37000   595.95379     -5493866.5      193.88492      197.15493      198.30973     -63.397649    
     38000   603.04271     -5492881.3      193.89049      197.16059      198.31542      92.986359    
     39000   612.87952     -5491716.9      193.9324       197.20321      198.3583       125.36408    
     40000   619.46904     -5490736.8      193.94824      197.21931      198.37449      165.96021    
     41000   627.89229     -5489588.9      194.0034       197.27541      198.43092     -104.28522    
     42000   637.72007     -5488494.1      194.00232      197.27431      198.42981      119.52413    
     43000   643.14919     -5487666.6      194.03619      197.30875      198.46446     -98.641588    
     44000   652.11604     -5486459.2      194.04466      197.31736      198.47312      313.22462    
     45000   660.25459     -5485383        194.10299      197.37667      198.53278     -195.61025    
     46000   667.76901     -5484283.3      194.13059      197.40474      198.56101     -5.5557704    
     47000   676.11664     -5483202.2      194.15306      197.42759      198.584        10.749104    
     48000   683.76522     -5482217.5      194.1744       197.44929      198.60582      61.828882    
     49000   690.14216     -5481160        194.20466      197.48006      198.63677     -4.7991439    
     50000   700.21912     -5480020.1      194.23252      197.50839      198.66526      129.53274    
Loop time of 3945.04 on 16384 procs for 50000 steps with 483733 atoms

Performance: 2.190 ns/day, 10.958 hours/ns, 12.674 timesteps/s, 6.131 Matom-step/s
79.3% CPU use with 128 MPI tasks x 128 OpenMP threads

MPI task timing breakdown:
Section |  min time  |  avg time  |  max time  |%varavg| %total
---------------------------------------------------------------
Pair    | 1399.3     | 1954.9     | 2511.9     |1004.8 | 49.55
Bond    | 0.0054087  | 0.011085   | 0.018057   |   2.4 |  0.00
Kspace  | 650.1      | 1293.6     | 1935.1     |1439.8 | 32.79
Neigh   | 189.96     | 273.01     | 361.74     | 417.7 |  6.92
Comm    | 73.162     | 91.638     | 108.71     | 112.2 |  2.32
Output  | 0.00697    | 0.0075157  | 0.0084487  |   0.2 |  0.00
Modify  | 160.99     | 190.34     | 329.05     | 233.6 |  4.82
Other   |            | 141.6      |            |       |  3.59

Nlocal:        3779.16 ave        4614 max        2945 min
Histogram: 64 0 0 0 0 0 0 0 0 64
Nghost:        11780.4 ave       13119 max       10440 min
Histogram: 64 0 0 0 0 0 0 0 0 64
Neighs:         899957 ave 1.17746e+06 max      638471 min
Histogram: 41 23 0 0 0 0 0 10 24 30

Total # of neighbors = 1.1519453e+08
Ave neighs/atom = 238.1366
Ave special neighs/atom = 0
Neighbor list builds = 9074
Dangerous builds = 0
PPPM initialization ...
  using 12-bit tables for long-range coulomb (src/src/kspace.cpp:342)
  G vector (1/distance) = 0.27690196
  grid = 135 135 135
  stencil order = 5
  estimated absolute RMS force accuracy = 0.0016252618
  estimated relative force accuracy = 0.00011286819
  using double precision MKL FFT
  3d grid and FFT values/proc = 36800 36450
Generated 0 of 10 mixed pair_coeff terms from geometric mixing rule
Setting up Verlet run ...
  Unit style    : metal
  Current step  : 0
  Time step     : 0.002
Per MPI rank memory allocation (min/avg/max) = 225.8 | 262 | 299.4 Mbytes
   Step          Temp          TotEng           Lx             Ly             Lz           Press     
         0   700.21912     -5480018.1      194.23252      197.50839      198.66526      132.17795    
      1000   700.30568     -5480098.9      194.25375      197.52998      198.68698     -199.56606    
      2000   699.31186     -5480055.4      194.24927      197.52542      198.6824       73.277772    
      3000   700.6612      -5480036        194.23847      197.51444      198.67135      47.212385    
      4000   699.70136     -5480045.3      194.24566      197.52175      198.67871     -115.48629    
      5000   701.31932     -5479877.7      194.25502      197.53127      198.68828     -82.003928    
      6000   701.15114     -5480003.1      194.23624      197.51217      198.66907      97.078854    
      7000   698.58798     -5480121.2      194.25189      197.52808      198.68507     -123.85577    
      8000   700.75761     -5480046.8      194.2528       197.52901      198.68601     -87.388117    
      9000   700.49755     -5479977.3      194.25946      197.53579      198.69282     -15.661638    
     10000   700.70197     -5480062.8      194.24032      197.51633      198.67325      183.69965    
     11000   698.85516     -5480138.5      194.25603      197.53229      198.68931     -29.602975    
     12000   699.54831     -5480008.9      194.24826      197.52439      198.68136      9.9556268    
     13000   701.05847     -5480070        194.25455      197.53079      198.6878      -135.88989    
     14000   701.22108     -5479967.5      194.24097      197.51698      198.67391      24.35101     
     15000   700.56232     -5480068.2      194.24216      197.51819      198.67513     -4.3747072    
     16000   700.53335     -5480095.2      194.21423      197.48979      198.64656      223.71126    
     17000   699.64948     -5480150.4      194.22516      197.5009       198.65773      173.76707    
     18000   699.50681     -5480059        194.23651      197.51244      198.66934      9.2361173    
     19000   699.9751      -5480048        194.23001      197.50584      198.6627       9.3535271    
     20000   698.44152     -5480247        194.2456       197.52169      198.67864     -6.94684      
     21000   700.57966     -5480130.3      194.25712      197.53341      198.69043     -252.83326    
     22000   700.47792     -5480065.5      194.24327      197.51932      198.67626     -196.69453    
     23000   699.64885     -5480309        194.21539      197.49097      198.64775      184.50404    
     24000   700.5219      -5480085        194.23425      197.51015      198.66703      17.372566    
     25000   699.44262     -5480185.8      194.21042      197.48591      198.64266      143.24584    
     26000   700.81017     -5480131.1      194.22597      197.50173      198.65856      52.3317      
     27000   700.01126     -5480139.5      194.22686      197.50264      198.65948      156.42355    
     28000   700.04602     -5480158.6      194.24442      197.52049      198.67743     -125.94409    
     29000   699.16529     -5480262.3      194.22211      197.49781      198.65462      97.353862    
     30000   700.00733     -5480269.7      194.2212       197.49688      198.65368      108.35455    
     31000   699.33221     -5480185.1      194.24247      197.51851      198.67544     -116.65302    
     32000   699.77643     -5480206.9      194.23685      197.51279      198.66969      9.5710653    
     33000   701.22078     -5480248.5      194.24305      197.5191       198.67604     -1.2007158    
     34000   700.02812     -5480237        194.23608      197.51201      198.66891      91.813417    
     35000   698.52385     -5480381.4      194.23845      197.51442      198.67133     -42.114106    
     36000   699.00192     -5480212.9      194.25179      197.52799      198.68498     -63.631067    
     37000   700.10882     -5480266        194.25106      197.52724      198.68423     -83.268469    
     38000   700.13361     -5480236.5      194.22053      197.4962       198.653        85.358859    
     39000   700.25393     -5480277.9      194.2235       197.49922      198.65604     -18.581513    
     40000   700.45098     -5480229.2      194.23864      197.51461      198.67153     -59.489788    
     41000   699.39974     -5480341.8      194.21677      197.49237      198.64915      77.153182    
     42000   700.72034     -5480267        194.25451      197.53075      198.68776     -88.132978    
     43000   699.89462     -5480227.6      194.24358      197.51964      198.67658     -53.333174    
     44000   701.20967     -5480222.5      194.25314      197.52936      198.68635     -43.395335    
     45000   700.65133     -5480334.5      194.2571       197.53338      198.6904      -128.70516    
     46000   698.08046     -5480413        194.23121      197.50706      198.66393      92.947929    
     47000   699.76005     -5480268.5      194.23543      197.51135      198.66824     -36.061841    
     48000   698.85662     -5480316.4      194.23391      197.50981      198.66669      89.406046    
     49000   700.45082     -5480281.8      194.23573      197.51165      198.66855     -3.8725884    
     50000   700.57175     -5480192.7      194.24432      197.52039      198.67734     -128.88481    
     51000   700.54551     -5480247.2      194.2269       197.50268      198.65952      178.17988    
     52000   699.25704     -5480367.7      194.23624      197.51217      198.66907     -40.128814    
     53000   701.19259     -5480283.8      194.23361      197.5095       198.66638      85.081064    
     54000   701.53721     -5480179.2      194.22208      197.49777      198.65459      256.52003    
     55000   700.69958     -5480233.6      194.22538      197.50113      198.65797      42.654214    
     56000   700.06227     -5480224.7      194.23242      197.50829      198.66516     -70.585609    
     57000   699.9005      -5480382        194.22229      197.49798      198.6548       98.13617     
     58000   700.32933     -5480312.9      194.23839      197.51436      198.67127     -216.98827    
     59000   699.8359      -5480447.8      194.2262       197.50196      198.6588      -9.6674022    
     60000   700.12689     -5480284        194.21062      197.48612      198.64286      220.34052    
     61000   700.83837     -5480305.6      194.22443      197.50016      198.65699      78.820696    
     62000   701.17564     -5480277.6      194.24218      197.51822      198.67515     -76.621308    
     63000   699.76188     -5480345        194.22775      197.50354      198.66039      23.008887    
     64000   700.79622     -5480270        194.24001      197.51601      198.67293     -100.9262     
     65000   699.21621     -5480353.6      194.22622      197.50198      198.65882     -3.7927025    
     66000   700.11942     -5480329.7      194.24319      197.51924      198.67618      1.3980917    
     67000   699.64292     -5480312.4      194.22007      197.49573      198.65253      102.86664    
     68000   699.59439     -5480294.3      194.21092      197.48643      198.64318      60.186454    
     69000   698.86087     -5480460.2      194.22778      197.50357      198.66042     -3.9796303    
     70000   701.84072     -5480288.2      194.23605      197.51198      198.66888     -118.15259    
     71000   700.97329     -5480161.9      194.24431      197.52038      198.67733     -77.515563    
     72000   701.27524     -5480187.1      194.23676      197.5127       198.6696      -16.304082    
     73000   698.99905     -5480485.7      194.22252      197.49822      198.65503      61.174254    
     74000   698.90758     -5480442.9      194.2363       197.51223      198.66913     -61.860349    
     75000   699.34694     -5480363.6      194.23039      197.50622      198.66309     -57.016315    
     76000   701.40575     -5480152.3      194.23405      197.50995      198.66683      112.43854    
     77000   701.13651     -5480319.8      194.24015      197.51614      198.67307     -57.400417    
     78000   700.32815     -5480237.6      194.25143      197.52762      198.68461     -174.58126    
     79000   699.92916     -5480345.9      194.23419      197.51009      198.66697     -6.8097112    
     80000   700.61214     -5480350.3      194.22884      197.50465      198.66151     -10.141491    
     81000   701.30942     -5480247.7      194.23161      197.50747      198.66434     -51.023965    
     82000   700.22065     -5480441.9      194.22325      197.49896      198.65578      55.639636    
     83000   700.56323     -5480314.7      194.23064      197.50648      198.66335     -11.229081    
     84000   700.16581     -5480317.9      194.23013      197.50596      198.66282     -45.693126    
     85000   700.35921     -5480372.5      194.20437      197.47976      198.63647      240.0929     
     86000   701.35164     -5480235.8      194.24673      197.52284      198.6798      -175.01231    
     87000   700.44799     -5480381.2      194.22127      197.49694      198.65375      105.52031    
     88000   700.28002     -5480349.7      194.23596      197.51189      198.66878     -87.243176    
     89000   699.94665     -5480428.3      194.24119      197.51721      198.67414     -12.679137    
     90000   699.82072     -5480393.1      194.2249       197.50064      198.65747      171.92689    
     91000   700.25596     -5480418.2      194.24426      197.52032      198.67727     -74.011179    
     92000   700.54111     -5480232.9      194.23642      197.51236      198.66925      41.385224    
     93000   698.62567     -5480451.6      194.25394      197.53017      198.68718     -172.5716     
     94000   701.24603     -5480295.1      194.24246      197.5185       198.67544     -4.9773386    
     95000   699.35978     -5480427.2      194.22526      197.50101      198.65784      152.51714    
     96000   701.09304     -5480452.3      194.22665      197.50242      198.65926      26.234225    
     97000   700.72407     -5480403.3      194.23002      197.50585      198.66271      102.155      
     98000   700.84537     -5480415.2      194.21897      197.49461      198.6514       141.27459    
     99000   698.92601     -5480527.6      194.22839      197.50419      198.66104     -37.170309    
    100000   701.18796     -5480343.7      194.24151      197.51753      198.67446     -66.184564    
    101000   699.41335     -5480506.5      194.23414      197.51004      198.66692      188.91672    
    102000   700.22357     -5480334.2      194.2319       197.50776      198.66463      130.01001    
    103000   701.59639     -5480371.2      194.23928      197.51527      198.67218     -40.403717    
    104000   700.75834     -5480407.3      194.24005      197.51605      198.67297     -45.934111    
    105000   699.31941     -5480478.6      194.23515      197.51106      198.66795      18.316591    
    106000   699.19637     -5480444        194.23615      197.51208      198.66898     -117.00948    
    107000   698.15307     -5480477.2      194.2336       197.50949      198.66637     -1.4202478    
    108000   699.07975     -5480447.2      194.23575      197.51167      198.66857     -177.17799    
    109000   699.22666     -5480488        194.22858      197.50438      198.66123     -15.607447    
    110000   701.24416     -5480397.9      194.22904      197.50485      198.6617       39.083185    
    111000   699.62669     -5480501.9      194.22619      197.50195      198.65879      26.828688    
    112000   699.80746     -5480534.9      194.22158      197.49726      198.65407      59.528037    
    113000   700.8009      -5480407.1      194.22518      197.50092      198.65775      15.43497     
    114000   700.33206     -5480400.3      194.23863      197.5146       198.67151     -54.464978    
    115000   699.23958     -5480481.2      194.24281      197.51885      198.67579     -72.428394    
    116000   699.59447     -5480416.7      194.23764      197.51359      198.6705      -5.9648795    
    117000   701.6119      -5480431.4      194.23116      197.50701      198.66388     -27.800712    
    118000   700.88219     -5480425.9      194.22366      197.49938      198.6562       97.970196    
    119000   699.80708     -5480387.3      194.23179      197.50765      198.66452      20.692321    
    120000   700.83088     -5480300.9      194.24249      197.51853      198.67546     -148.3978     
    121000   700.12861     -5480578.9      194.2252       197.50094      198.65778      143.06812    
    122000   700.81091     -5480370.3      194.25063      197.5268       198.68378     -91.948271    
    123000   699.56699     -5480535.8      194.22551      197.50126      198.65809      111.98415    
    124000   699.35312     -5480483.2      194.23425      197.51015      198.66704      116.79712    
    125000   698.16608     -5480616.3      194.22779      197.50358      198.66043     -103.75422    
    126000   699.55598     -5480526.2      194.24774      197.52387      198.68083     -170.61446    
    127000   699.08074     -5480533.1      194.22974      197.50556      198.66242     -3.6268576    
    128000   698.81891     -5480525.9      194.25409      197.53032      198.68733     -305.30796    
    129000   700.35105     -5480432.1      194.24247      197.5185       198.67544     -97.865912    
    130000   699.15534     -5480570.2      194.22062      197.49629      198.6531       86.315194    
    131000   701.71158     -5480356.8      194.2391       197.51509      198.672       -72.124282    
    132000   700.84088     -5480466.5      194.22249      197.49819      198.655        199.29897    
    133000   699.74325     -5480378.8      194.23491      197.51082      198.66771      17.299071    
    134000   700.99076     -5480323.8      194.23027      197.5061       198.66297      173.46736    
    135000   701.18413     -5480416.2      194.2326       197.50847      198.66535      12.595319    
    136000   699.7871      -5480514.2      194.20804      197.4835       198.64023      216.83417    
    137000   700.18103     -5480479.9      194.24365      197.5197       198.67665     -98.678672    
    138000   698.81295     -5480578.1      194.21462      197.49019      198.64696      200.26102    
    139000   699.98339     -5480480.7      194.22577      197.50153      198.65837      96.28613     
    140000   701.22135     -5480424.5      194.22763      197.50341      198.66026     -21.47751     
    141000   701.17223     -5480418.5      194.21042      197.48592      198.64266      119.66134    
    142000   700.20288     -5480472.3      194.23444      197.51034      198.66723     -67.197303    
    143000   700.52817     -5480457.1      194.23408      197.50997      198.66686      102.62471    
    144000   701.15667     -5480487.2      194.2407       197.51671      198.67363     -19.270228    
    145000   698.08544     -5480645.4      194.24364      197.51969      198.67663     -56.842966    
    146000   699.57151     -5480557.4      194.24099      197.517        198.67393     -32.88512     
    147000   699.72128     -5480470.7      194.23725      197.5132       198.6701       34.563061    
    148000   699.96957     -5480482.5      194.22371      197.49943      198.65626      66.459216    
    149000   701.01788     -5480369.4      194.23182      197.50768      198.66455      101.88958    
    150000   698.10008     -5480652.2      194.23939      197.51537      198.67229     -15.908417    
    151000   701.01232     -5480464.5      194.23636      197.51229      198.66919      58.932176    
    152000   700.6839      -5480340.4      194.22143      197.49711      198.65392      182.74216    
    153000   699.28165     -5480563.1      194.25855      197.53486      198.69189     -163.34673    
    154000   701.06716     -5480427.7      194.23714      197.51308      198.66999      45.264827    
    155000   698.69387     -5480624.2      194.22927      197.50508      198.66194      34.474563    
    156000   701.89922     -5480409.6      194.24348      197.51953      198.67647     -165.66597    
    157000   699.52423     -5480442.4      194.23016      197.50599      198.66285      6.0784818    
    158000   699.86338     -5480446.9      194.24039      197.51639      198.67331     -95.338358    
    159000   701.93544     -5480324.3      194.24621      197.52231      198.67927     -67.96958     
    160000   699.6725      -5480496.7      194.24141      197.51743      198.67436     -117.00512    
    161000   700.50411     -5480284        194.23923      197.51521      198.67212      36.982718    
    162000   699.31797     -5480443.2      194.22702      197.50279      198.65964      45.535089    
    163000   699.89278     -5480528.3      194.2342       197.5101       198.66698     -78.291844    
    164000   699.85329     -5480461.9      194.23216      197.50802      198.66489     -7.345335     
    165000   699.52553     -5480531.9      194.23646      197.51239      198.66929      131.5591     
    166000   698.97364     -5480619.3      194.22703      197.5028       198.65965      56.054704    
    167000   698.17585     -5480551.7      194.22689      197.50267      198.65951      16.50799     
    168000   699.98175     -5480540.3      194.23996      197.51595      198.67287     -8.7176017    
    169000   701.40212     -5480439.5      194.2244       197.50013      198.65696      241.27988    
    170000   700.24449     -5480541.3      194.24737      197.52349      198.68046     -36.954812    
    171000   700.06936     -5480523.4      194.23783      197.51379      198.6707      -43.142203    
    172000   700.02456     -5480561.4      194.21915      197.4948       198.65159      167.7384     
    173000   700.91352     -5480530.9      194.22989      197.50571      198.66257     -122.93297    
    174000   701.21974     -5480416.5      194.22395      197.49967      198.6565       26.997419    
    175000   700.55879     -5480490.4      194.22893      197.50474      198.66159      49.578298    
    176000   699.54119     -5480503.1      194.22758      197.50336      198.66021     -6.2524908    
    177000   700.94352     -5480496.2      194.23183      197.50769      198.66456      71.638911    
    178000   700.097       -5480545.8      194.23758      197.51354      198.67044     -102.5193     
    179000   701.1073      -5480442.6      194.23012      197.50595      198.66281     -100.44831    
    180000   699.72992     -5480585.6      194.23689      197.51284      198.66974     -41.810296    
    181000   699.40688     -5480586.8      194.23413      197.51003      198.66691      17.192987    
    182000   698.77886     -5480557.5      194.23858      197.51455      198.67147      10.659112    
    183000   699.85271     -5480506.3      194.22003      197.49569      198.65249      33.975173    
    184000   701.09122     -5480385.6      194.22787      197.50366      198.66051      108.67257    
    185000   700.47908     -5480581.2      194.20416      197.47955      198.63626      277.20428    
    186000   699.80612     -5480555.9      194.2162       197.4918       198.64858     -34.853932    
    187000   701.25803     -5480326.1      194.22875      197.50456      198.66141     -102.03939    
    188000   700.88918     -5480412.9      194.21764      197.49326      198.65005      193.33931    
    189000   700.30937     -5480478.9      194.22259      197.49829      198.65511      136.99543    
    190000   699.25514     -5480558.1      194.23753      197.51348      198.67038     -40.884707    
    191000   699.96844     -5480517.7      194.23901      197.51498      198.6719       27.455626    
    192000   700.61492     -5480490.2      194.23591      197.51183      198.66873      47.97632     
    193000   699.91034     -5480625.6      194.21899      197.49463      198.65143      103.70516    
    194000   700.56675     -5480480.3      194.23661      197.51255      198.66945     -53.622561    
    195000   701.47753     -5480451.1      194.23974      197.51573      198.67265     -74.237752    
    196000   699.74386     -5480458.3      194.23754      197.51349      198.6704      -62.04482     
    197000   700.36732     -5480582.1      194.22065      197.49632      198.65313     -22.924646    
    198000   700.09417     -5480499.2      194.2261       197.50186      198.6587      -32.603778    
    199000   699.25629     -5480604.8      194.22331      197.49903      198.65585      46.889151    
    200000   700.6617      -5480391.3      194.2511       197.52728      198.68427     -51.947082    
    201000   700.02014     -5480485.8      194.25492      197.53117      198.68818     -220.07778    
    202000   700.61522     -5480630.4      194.22884      197.50465      198.66151      31.789916    
    203000   699.34759     -5480564.8      194.23391      197.5098       198.66669     -79.299301    
    204000   700.56391     -5480573.4      194.23168      197.50754      198.66441      31.094799    
    205000   700.6502      -5480441.5      194.25237      197.52858      198.68557     -80.573762    
    206000   701.40613     -5480455.4      194.25358      197.5298       198.6868      -211.27333    
    207000   699.76934     -5480597.6      194.22784      197.50363      198.66048      87.78867     
    208000   699.73538     -5480639.2      194.21819      197.49381      198.65061      124.34291    
    209000   699.97106     -5480559.9      194.23076      197.5066       198.66346      106.03491    
    210000   700.95581     -5480494.5      194.25573      197.53199      198.689        19.237596    
    211000   698.8765      -5480642.2      194.24759      197.52371      198.68068     -31.865423    
    212000   702.09647     -5480444        194.22992      197.50574      198.66261      5.0976982    
    213000   699.12791     -5480687.6      194.2157       197.49129      198.64806      64.831448    
    214000   699.82369     -5480629.2      194.21341      197.48896      198.64572      120.09332    
    215000   699.59811     -5480546.7      194.23122      197.50706      198.66393     -82.569402    
    216000   701.18059     -5480401.8      194.23125      197.5071       198.66397      0.83288779   
    217000   698.91259     -5480573.4      194.234        197.50989      198.66678     -118.25256    
    218000   699.48102     -5480583.2      194.21846      197.4941       198.65089      113.25375    
    219000   699.40728     -5480553.7      194.23205      197.50791      198.66478     -25.29467     
    220000   701.35147     -5480515.6      194.23941      197.51539      198.67231     -64.353775    
    221000   699.44367     -5480599.2      194.23964      197.51562      198.67254     -197.44879    
    222000   699.11635     -5480661.5      194.21939      197.49504      198.65184      177.94227    
    223000   701.25168     -5480540.7      194.2282       197.50399      198.66084      95.331405    
    224000   701.14309     -5480460.7      194.23596      197.51189      198.66879      78.845082    
    225000   699.43093     -5480605        194.20785      197.48331      198.64004      282.82211    
    226000   701.04495     -5480417.2      194.24755      197.52367      198.68064     -89.285564    
    227000   699.82098     -5480678.8      194.22252      197.49823      198.65504      199.46622    
    228000   699.42787     -5480693.7      194.21433      197.48989      198.64666      102.62612    
    229000   701.09467     -5480551.6      194.20307      197.47844      198.63514      333.12296    
    230000   700.35326     -5480476.9      194.2537       197.52993      198.68693     -279.3369     
    231000   700.92574     -5480563.7      194.23977      197.51576      198.67268     -58.998173    
    232000   700.48588     -5480699.2      194.2224       197.4981       198.65491      151.64537    
    233000   700.34311     -5480565.8      194.21434      197.4899       198.64667      177.78752    
    234000   700.42393     -5480551.4      194.22308      197.49879      198.65561     -115.76649    
    235000   699.38101     -5480675        194.22571      197.50146      198.6583       23.728609    
    236000   699.54004     -5480624.3      194.23827      197.51423      198.67114     -102.48831    
    237000   698.70966     -5480681.1      194.22273      197.49844      198.65525     -10.649556    
    238000   699.65486     -5480623.4      194.21669      197.49229      198.64907      249.66486    
    239000   699.97848     -5480439.1      194.23127      197.50712      198.66399      80.937666    
    240000   700.10627     -5480619.9      194.23958      197.51557      198.67249     -179.70461    
    241000   699.2171      -5480670.8      194.2342       197.5101       198.66699     -38.124456    
    242000   700.5092      -5480657.5      194.21834      197.49397      198.65076      22.314672    
    243000   700.5193      -5480548        194.24044      197.51644      198.67336      23.64711     
    244000   699.98916     -5480698.2      194.22095      197.49663      198.65344      64.627493    
    245000   700.24794     -5480505.1      194.23348      197.50937      198.66625      16.962172    
    246000   699.42979     -5480597.4      194.22447      197.50021      198.65703      123.08123    
    247000   699.93845     -5480562.1      194.21409      197.48964      198.64641      84.848424    
    248000   701.81682     -5480545.5      194.21916      197.4948       198.6516      -36.258019    
    249000   699.41902     -5480656.8      194.22608      197.50184      198.65868      119.4379     
    250000   700.80723     -5480628.7      194.22472      197.50046      198.65729     -18.581035    
    251000   700.1675      -5480624.8      194.23993      197.51593      198.67285     -62.8505      
    252000   697.85876     -5480737.7      194.23921      197.51519      198.67211     -190.70438    
    253000   699.9516      -5480668.3      194.2439       197.51996      198.6769      -176.87657    
    254000   700.40497     -5480622.1      194.23691      197.51285      198.66975     -148.47159    
    255000   700.86189     -5480651.1      194.20835      197.48382      198.64055      58.498912    
    256000   698.47196     -5480781.9      194.2231       197.49881      198.65563     -219.55969    
    257000   700.2352      -5480693.5      194.22653      197.5023       198.65914     -55.315061    
    258000   700.58547     -5480539.1      194.24587      197.52196      198.67892     -78.277873    
    259000   699.28673     -5480706.1      194.22425      197.49997      198.6568       12.372245    
    260000   700.67641     -5480568.4      194.22025      197.49592      198.65272      128.84541    
    261000   698.75613     -5480725.6      194.23003      197.50586      198.66272      64.54894     
    262000   700.91522     -5480620.9      194.23733      197.51328      198.67018      4.3596738    
    263000   700.0877      -5480595.2      194.2488       197.52494      198.68191     -225.09208    
    264000   699.73388     -5480651.2      194.22393      197.49965      198.65648      91.472016    
    265000   699.5096      -5480651.6      194.21066      197.48616      198.64291      60.931109    
    266000   697.84941     -5480662.2      194.23863      197.5146       198.67151     -165.37448    
    267000   700.57315     -5480605.6      194.22123      197.49691      198.65372      90.967108    
    268000   700.46695     -5480670        194.22805      197.50384      198.66069     -5.6321432    
    269000   700.39201     -5480591.7      194.21899      197.49463      198.65143      124.93669    
    270000   699.03439     -5480705.8      194.21055      197.48605      198.64279      24.720502    
    271000   700.35282     -5480615.6      194.21258      197.48811      198.64487      27.01119     
    272000   700.12758     -5480633.6      194.2289       197.50471      198.66157     -27.329841    
    273000   700.26445     -5480670.4      194.22         197.49566      198.65246     -74.762289    
    274000   700.93225     -5480586        194.22415      197.49987      198.6567       41.790089    
    275000   700.64045     -5480640.1      194.23161      197.50746      198.66433     -79.171689    
    276000   699.83621     -5480639.3      194.23924      197.51522      198.67213     -122.39689    
    277000   700.07272     -5480562.3      194.22677      197.50255      198.65939      137.73369    
    278000   699.43115     -5480619.7      194.22672      197.50249      198.65933     -69.125096    
    279000   700.12302     -5480595.7      194.2255       197.50125      198.65808      183.9077     
    280000   701.13963     -5480577.4      194.23223      197.50809      198.66496      8.0721409    
    281000   701.06365     -5480573.8      194.22906      197.50487      198.66172      60.631827    
    282000   700.01375     -5480632.4      194.21958      197.49523      198.65203     -40.92581     
    283000   699.2414      -5480678.8      194.20852      197.48399      198.64072      181.00898    
    284000   699.46329     -5480706.7      194.21478      197.49035      198.64712     -43.208313    
    285000   699.34588     -5480568.4      194.21752      197.49314      198.64992      5.6395636    
    286000   700.43546     -5480610.1      194.23002      197.50585      198.66271     -46.184344    
    287000   700.06027     -5480572.1      194.23509      197.511        198.66789      76.486765    
    288000   699.6724      -5480631.9      194.2289       197.50471      198.66157     -17.178222    
    289000   701.04043     -5480520.6      194.23906      197.51504      198.67195      4.4222279    
    290000   700.51233     -5480534.7      194.24444      197.52051      198.67745     -93.443503    
    291000   700.17879     -5480722.2      194.22209      197.49778      198.6546       119.85084    
    292000   700.21176     -5480628.5      194.23399      197.50989      198.66677     -85.201972    
    293000   699.54734     -5480548.9      194.24624      197.52234      198.6793      -144.853      
    294000   699.13038     -5480585.4      194.24248      197.51851      198.67545     -219.97518    
    295000   700.81822     -5480702        194.23349      197.50937      198.66625     -138.1964     
    296000   700.91768     -5480577        194.23277      197.50864      198.66552     -5.7348165    
    297000   701.30732     -5480469.1      194.23075      197.50659      198.66345     -87.643256    
    298000   699.39162     -5480636.3      194.23597      197.5119       198.66879     -57.839093    
    299000   699.86568     -5480642.5      194.22671      197.50248      198.65932      60.614167    
    300000   698.74244     -5480657.4      194.22268      197.49838      198.6552       36.458868    
    301000   700.82275     -5480598.3      194.24281      197.51886      198.67579      7.7390268    
    302000   699.16565     -5480679.4      194.23957      197.51556      198.67248     -58.725689    
    303000   699.4178      -5480598.7      194.25253      197.52873      198.68573     -242.79576    
    304000   699.66025     -5480633.2      194.23671      197.51265      198.66955     -157.79672    
    305000   700.46955     -5480660.5      194.21798      197.49361      198.6504      -15.343116    
    306000   700.03532     -5480646.9      194.22958      197.5054       198.66226      46.004345    
    307000   699.67451     -5480654.1      194.21623      197.49182      198.6486      -15.949072    
    308000   701.2249      -5480592.4      194.22677      197.50254      198.65938      32.312713    
    309000   699.72189     -5480658.8      194.23884      197.51482      198.67173     -8.3146333    
    310000   700.65446     -5480672.7      194.22422      197.49995      198.65678      123.4288     
    311000   699.14368     -5480705.7      194.21848      197.49411      198.6509       99.640594    
    312000   700.63591     -5480616.2      194.20413      197.47952      198.63622      235.68835    
    313000   700.70367     -5480567.1      194.22933      197.50514      198.662       -35.491361    
    314000   701.32013     -5480609.5      194.24126      197.51727      198.6742      -89.237809    
    315000   699.41562     -5480635.7      194.23742      197.51337      198.67028     -125.07007    
    316000   699.62126     -5480649.1      194.24241      197.51845      198.67538     -58.825828    
    317000   700.26498     -5480650        194.2195       197.49515      198.65195      70.479793    
    318000   700.34545     -5480811.6      194.22465      197.50039      198.65722     -19.444635    
    319000   700.17825     -5480636.1      194.21559      197.49117      198.64795      222.58941    
    320000   700.46874     -5480533        194.21751      197.49313      198.64991      69.045325    
    321000   701.12334     -5480611.1      194.23823      197.5142       198.67111     -251.92042    
    322000   700.10491     -5480609.9      194.2327       197.50857      198.66545     -184.65424    
    323000   699.2565      -5480729.9      194.22621      197.50198      198.65881     -65.259253    
    324000   699.47614     -5480708.3      194.21642      197.49202      198.6488       67.501925    
    325000   700.11503     -5480630.5      194.22691      197.50269      198.65953     -6.9102155    
    326000   699.9631      -5480728.3      194.22438      197.50011      198.65694     -46.902773    
    327000   700.0963      -5480766.8      194.21417      197.48973      198.6465       37.263131    
    328000   699.15852     -5480738        194.24459      197.52066      198.67761     -149.75072    
    329000   699.52866     -5480584        194.23805      197.51401      198.67092      24.204063    
    330000   700.00988     -5480700        194.23039      197.50622      198.66308     -170.42124    
    331000   700.3547      -5480689.7      194.21353      197.48908      198.64585     -14.918411    
    332000   699.75701     -5480644.9      194.2013       197.47664      198.63333      83.324683    
    333000   699.91554     -5480733        194.21491      197.49049      198.64726      59.657331    
    334000   699.90507     -5480677.5      194.22318      197.49889      198.65571     -43.948035    
    335000   699.21907     -5480731.6      194.23541      197.51133      198.66822     -81.764369    
    336000   699.85191     -5480695.7      194.22805      197.50385      198.6607      -44.155129    
    337000   701.49854     -5480569.2      194.23558      197.5115       198.66839      40.759787    
    338000   700.22244     -5480664.2      194.22189      197.49758      198.65439      43.265279    
    339000   700.22147     -5480707.5      194.22862      197.50442      198.66127     -103.66612    
    340000   699.84171     -5480678.7      194.22502      197.50076      198.65759      114.28758    
    341000   700.12154     -5480629.5      194.22126      197.49694      198.65375      175.01692    
    342000   699.31199     -5480794.2      194.21072      197.48622      198.64297      51.702172    
    343000   699.92036     -5480641.3      194.22613      197.50189      198.65873      149.58951    
    344000   699.25752     -5480742.1      194.22913      197.50495      198.6618      -40.827843    
    345000   701.00256     -5480666.3      194.22679      197.50256      198.6594      -13.063254    
    346000   700.0571      -5480751.9      194.20917      197.48464      198.64138      176.97       
    347000   698.46123     -5480843.3      194.22884      197.50464      198.6615      -29.068009    
    348000   699.88419     -5480641.2      194.23896      197.51494      198.67185     -129.35602    
    349000   699.35548     -5480679.2      194.23335      197.50923      198.66611     -90.254791    
    350000   701.30864     -5480642        194.19817      197.47346      198.63013      191.55383    
    351000   701.79258     -5480598.5      194.23114      197.50699      198.66386      14.936723    
    352000   698.0301      -5480766.6      194.22822      197.50402      198.66087      83.333202    
    353000   700.03077     -5480683.7      194.22166      197.49734      198.65416     -112.3365     
    354000   699.22157     -5480794.6      194.21262      197.48815      198.64491      50.76836     
    355000   700.75236     -5480639.4      194.21129      197.4868       198.64355      132.00358    
    356000   701.658       -5480638.5      194.22466      197.50039      198.65722      16.584064    
    357000   698.82442     -5480735.7      194.22344      197.49915      198.65598      15.491593    
    358000   699.84626     -5480795.8      194.20869      197.48416      198.64089      141.36833    
    359000   699.29461     -5480784.2      194.23024      197.50607      198.66294     -151.03825    
    360000   699.78302     -5480735.7      194.22279      197.4985       198.65532      48.68847     
    361000   700.75659     -5480626.1      194.23784      197.5138       198.67071     -116.78616    
    362000   699.7105      -5480727.5      194.23619      197.51212      198.66902      108.69526    
    363000   699.87411     -5480623.3      194.23633      197.51227      198.66916      79.504046    
    364000   700.43536     -5480744.9      194.22569      197.50144      198.65828     -89.874433    
    365000   699.53182     -5480743.3      194.22188      197.49757      198.65438     -18.529438    
    366000   698.34684     -5480799.7      194.20038      197.47571      198.63239      284.0308     
    367000   700.0844      -5480624.6      194.23402      197.50992      198.6668      -144.30825    
    368000   698.00095     -5480859.5      194.22715      197.50293      198.65978     -0.34066589   
    369000   698.41545     -5480806        194.21969      197.49534      198.65214     -59.990507    
    370000   698.28132     -5480847.4      194.2203       197.49596      198.65277     -20.935959    
    371000   701.13178     -5480612.6      194.1965       197.47177      198.62843      314.63077    
    372000   700.43995     -5480701.3      194.22885      197.50466      198.66151      25.994752    
    373000   700.4009      -5480711.4      194.23114      197.50698      198.66385      105.34495    
    374000   699.86988     -5480695.8      194.2336       197.50949      198.66637      39.004971    
    375000   700.5507      -5480698.2      194.23601      197.51194      198.66884     -11.637259    
    376000   698.10322     -5480759.4      194.2293       197.50511      198.66197      64.411152    
    377000   699.043       -5480654.2      194.23123      197.50708      198.66394     -3.9346262    
    378000   700.59108     -5480621.2      194.21093      197.48643      198.64318      177.03777    
    379000   698.96506     -5480692.2      194.20008      197.4754       198.63208      102.62979    
    380000   700.51176     -5480652.3      194.20114      197.47648      198.63317      182.18515    
    381000   698.85285     -5480813.1      194.19974      197.47505      198.63173      38.386018    
    382000   700.07445     -5480679.9      194.22705      197.50283      198.65967     -210.56116    
    383000   700.76869     -5480697.8      194.2183       197.49393      198.65073     -73.217347    
    384000   700.2163      -5480558.2      194.22866      197.50447      198.66132     -73.886779    
    385000   701.22921     -5480591.3      194.23526      197.51118      198.66807     -79.312024    
    386000   700.31626     -5480633.5      194.22641      197.50218      198.65902     -42.928244    
    387000   699.05463     -5480873.6      194.21696      197.49257      198.64935      44.452507    
    388000   698.78407     -5480784.6      194.22023      197.4959       198.6527      -67.495645    
    389000   700.40313     -5480644.6      194.25363      197.52985      198.68686     -227.41991    
    390000   699.11225     -5480826.2      194.24545      197.52154      198.67849     -83.430792    
    391000   700.55163     -5480762.9      194.20917      197.48464      198.64138      208.23104    
    392000   700.55826     -5480693.8      194.24124      197.51726      198.67419      5.4541824    
    393000   700.41335     -5480625.7      194.23259      197.50846      198.66533     -39.370361    
    394000   699.43453     -5480721.6      194.24418      197.52024      198.67719     -202.24934    
    395000   698.41982     -5480801.4      194.22306      197.49876      198.65558     -4.6368661    
    396000   701.40628     -5480585        194.24225      197.51829      198.67522     -160.89032    
    397000   700.2815      -5480755.5      194.20765      197.4831       198.63983      126.49801    
    398000   699.18627     -5480702.5      194.22433      197.50006      198.65689      45.291421    
    399000   700.43261     -5480648.1      194.24257      197.5186       198.67554     -121.65587    
    400000   700.57058     -5480724.9      194.21986      197.49551      198.65231     -85.748896    
    401000   699.2615      -5480736.7      194.23353      197.50942      198.6663       24.870733    
    402000   700.98294     -5480543.9      194.23455      197.51046      198.66735      27.471781    
    403000   700.64227     -5480757.6      194.21852      197.49415      198.65094      96.429563    
    404000   701.17943     -5480570.3      194.22595      197.5017       198.65854      16.277637    
    405000   699.01789     -5480709.8      194.23777      197.51373      198.67064     -163.77874    
    406000   699.43942     -5480797.1      194.2186       197.49423      198.65103      162.50556    
    407000   699.33204     -5480791.8      194.22817      197.50397      198.66082      21.23575     
    408000   700.97502     -5480744        194.21601      197.4916       198.64837      10.12662     
    409000   699.28471     -5480807.6      194.22713      197.50291      198.65976     -140.51551    
    410000   699.88502     -5480744.7      194.23107      197.50692      198.66378     -43.08168     
    411000   698.124       -5480795.3      194.24927      197.52542      198.6824      -172.9333     
    412000   700.05531     -5480806.1      194.23777      197.51373      198.67064     -179.96811    
    413000   699.77934     -5480830.9      194.23649      197.51243      198.66933     -202.71449    
    414000   700.40312     -5480623.8      194.23683      197.51277      198.66967     -81.456058    
    415000   698.72155     -5480784        194.221        197.49668      198.65349      143.61879    
    416000   700.30206     -5480798.1      194.2062       197.48162      198.63834      45.54456     
    417000   699.8036      -5480675.3      194.19604      197.47129      198.62795      18.033       
    418000   698.59198     -5480759.4      194.21009      197.48558      198.64232      44.626517    
    419000   698.50846     -5480836.4      194.21306      197.4886       198.64537      103.40503    
    420000   701.53202     -5480653        194.2273       197.50308      198.65993     -5.9545583    
    421000   699.09809     -5480692.8      194.22743      197.50321      198.66006      71.512339    
    422000   700.10269     -5480749.2      194.23028      197.50611      198.66297      80.340548    
    423000   700.89526     -5480700.1      194.22521      197.50096      198.65779      131.07253    
    424000   699.7179      -5480765.8      194.21252      197.48805      198.64481      200.54123    
    425000   701.00332     -5480722.1      194.21882      197.49446      198.65125      30.041554    
    426000   699.01989     -5480896.8      194.22496      197.5007       198.65753      3.6917854    
    427000   699.73229     -5480750.7      194.22598      197.50174      198.65858      50.730773    
    428000   701.48816     -5480540.6      194.23455      197.51046      198.66734     -66.639278    
    429000   700.70256     -5480691.6      194.23388      197.50977      198.66666      84.529226    
    430000   698.37321     -5480837.9      194.22692      197.5027       198.65954     -203.84788    
    431000   700.71925     -5480644.6      194.20871      197.48418      198.64091      220.10551    
    432000   701.06189     -5480678.2      194.22402      197.49975      198.65657      33.075076    
    433000   700.5211      -5480579        194.23817      197.51413      198.67104     -90.871864    
    434000   699.17778     -5480761.9      194.21905      197.49469      198.65149     -79.843243    
    435000   699.30067     -5480782.8      194.22886      197.50466      198.66152     -103.13423    
    436000   700.77811     -5480689.3      194.23546      197.51138      198.66828     -63.303042    
    437000   700.2065      -5480736.1      194.22435      197.50008      198.65691      164.64075    
    438000   698.64113     -5480770.1      194.24036      197.51636      198.67328      36.282882    
    439000   701.51694     -5480564        194.23659      197.51253      198.66943     -52.147388    
    440000   699.89082     -5480719.4      194.23101      197.50685      198.66372     -112.14067    
    441000   700.13137     -5480707.4      194.21388      197.48944      198.6462       189.00827    
    442000   698.25802     -5480775.8      194.23136      197.50721      198.66408     -6.9551898    
    443000   699.86043     -5480802        194.22935      197.50516      198.66202     -115.4544     
    444000   699.95204     -5480802        194.22897      197.50478      198.66163      6.8337924    
    445000   701.01512     -5480663.9      194.22697      197.50275      198.65959      253.54371    
    446000   699.99353     -5480713.6      194.23088      197.50672      198.66358     -15.188429    
    447000   697.83297     -5480798.3      194.23255      197.50842      198.6653      -18.652915    
    448000   700.83763     -5480669.5      194.22667      197.50244      198.65928      105.2819     
    449000   700.06061     -5480739.2      194.2444       197.52047      198.67741     -155.25466    
    450000   699.46867     -5480777.3      194.21099      197.48649      198.64324      103.73108    
    451000   700.16824     -5480712.8      194.23197      197.50783      198.66471     -50.783084    
    452000   700.15267     -5480655.6      194.2225       197.49821      198.65502      163.05014    
    453000   699.00273     -5480754.6      194.23554      197.51146      198.66836     -141.21275    
    454000   700.22106     -5480765.5      194.22753      197.50331      198.66016      1.7436046    
    455000   698.77962     -5480738.6      194.22568      197.50143      198.65827      77.40521     
    456000   701.4523      -5480634.6      194.2416       197.51762      198.67455     -89.369052    
    457000   699.29711     -5480760.8      194.22999      197.50582      198.66268      37.271021    
    458000   698.92614     -5480829.9      194.22355      197.49927      198.65609      43.852698    
    459000   700.06352     -5480714.8      194.23849      197.51446      198.67137      31.871181    
    460000   699.745       -5480698.7      194.21328      197.48882      198.64558      145.32048    
    461000   700.88656     -5480701.9      194.2346       197.51051      198.66739     -91.214665    
    462000   699.52715     -5480714.9      194.22376      197.49948      198.6563      -5.9068456    
    463000   701.45868     -5480569.8      194.2383       197.51426      198.67117     -217.46239    
    464000   698.99138     -5480888.1      194.21086      197.48637      198.64311      30.795365    
    465000   698.87199     -5480927.6      194.21276      197.4883       198.64506      8.377043     
    466000   700.15335     -5480751        194.23057      197.50641      198.66327     -104.66273    
    467000   698.86434     -5480875.4      194.22482      197.50056      198.65739     -11.897867    
    468000   700.74416     -5480709.5      194.21666      197.49226      198.64905      27.364277    
    469000   698.68409     -5480818.3      194.23828      197.51425      198.67116     -72.579453    
    470000   701.93627     -5480547.9      194.22552      197.50127      198.65811      49.055486    
    471000   700.03282     -5480709.3      194.22418      197.49991      198.65674      77.307936    
    472000   699.99901     -5480705.4      194.23032      197.50615      198.66301      81.753146    
    473000   699.73934     -5480720.4      194.24647      197.52257      198.67953     -145.40465    
    474000   700.65515     -5480766.4      194.22828      197.50408      198.66093     -38.294277    
    475000   700.00432     -5480750.6      194.22602      197.50178      198.65862     -135.07519    
    476000   700.08373     -5480728.7      194.22411      197.49983      198.65666      72.589486    
    477000   699.90463     -5480731.1      194.23905      197.51503      198.67195     -65.72373     
    478000   699.10575     -5480829.3      194.22158      197.49727      198.65408     -21.259793    
    479000   700.6266      -5480727.2      194.23552      197.51144      198.66833     -167.21357    
    480000   699.54891     -5480748.9      194.22277      197.49848      198.6553       96.093328    
    481000   700.05654     -5480767.4      194.2036       197.47898      198.63568      274.8014     
    482000   699.6218      -5480675.9      194.22188      197.49756      198.65438     -6.6908739    
    483000   699.25135     -5480804.8      194.21365      197.4892       198.64596      157.35425    
    484000   699.97125     -5480673.9      194.24267      197.51871      198.67564     -207.94835    
    485000   699.94732     -5480667.1      194.22884      197.50464      198.6615       44.301508    
    486000   698.78543     -5480771        194.21783      197.49346      198.65024      109.56399    
    487000   700.18415     -5480730.7      194.21806      197.49368      198.65047      131.23164    
    488000   699.60883     -5480665.9      194.23585      197.51177      198.66867     -50.692985    
    489000   699.54024     -5480738.7      194.21612      197.49171      198.64849      33.213087    
    490000   700.84141     -5480677.5      194.22672      197.50249      198.65933      124.45852    
    491000   700.27888     -5480671.9      194.21633      197.49193      198.64871      116.01483    
    492000   700.32971     -5480659.9      194.22714      197.50292      198.65977      12.520712    
    493000   699.90441     -5480770.6      194.22167      197.49735      198.65416      0.29029903   
    494000   700.65598     -5480803.3      194.2145       197.49007      198.64684      126.50968    
    495000   700.03094     -5480808.4      194.20313      197.47851      198.63521      386.82278    
    496000   700.41978     -5480696.6      194.23363      197.50952      198.6664       52.342278    
    497000   700.69147     -5480721.7      194.21911      197.49475      198.65155      53.17525     
    498000   700.17252     -5480740.6      194.21622      197.49181      198.64859      95.290582    
    499000   699.23627     -5480840.4      194.20893      197.4844       198.64113      158.30172    
    500000   700.73514     -5480722.7      194.21719      197.49281      198.64959      105.06216    
Loop time of 40592.9 on 16384 procs for 500000 steps with 483733 atoms

Performance: 2.128 ns/day, 11.276 hours/ns, 12.317 timesteps/s, 5.958 Matom-step/s
79.2% CPU use with 128 MPI tasks x 128 OpenMP threads

MPI task timing breakdown:
Section |  min time  |  avg time  |  max time  |%varavg| %total
---------------------------------------------------------------
Pair    | 13829      | 19419      | 25005      |3192.1 | 47.84
Bond    | 0.058692   | 0.11222    | 0.18334    |   7.4 |  0.00
Kspace  | 6992.1     | 13582      | 20155      |4538.1 | 33.46
Neigh   | 2159.9     | 3116.6     | 4144.8     |1423.3 |  7.68
Comm    | 775.8      | 967.56     | 1144       | 358.4 |  2.38
Output  | 0.070115   | 0.075212   | 0.0852     |   0.7 |  0.00
Modify  | 1722.2     | 2018.6     | 3486.2     | 756.8 |  4.97
Other   |            | 1489       |            |       |  3.67

Nlocal:        3779.16 ave        4631 max        2916 min
Histogram: 64 0 0 0 0 0 0 0 0 64
Nghost:        11787.7 ave       13131 max       10460 min
Histogram: 64 0 0 0 0 0 0 0 0 64
Neighs:         899815 ave 1.17853e+06 max      626017 min
Histogram: 24 40 0 0 0 0 0 10 23 31

Total # of neighbors = 1.1517634e+08
Ave neighs/atom = 238.09899
Ave special neighs/atom = 0
Neighbor list builds = 103774
Dangerous builds = 0
PPPM initialization ...
  using 12-bit tables for long-range coulomb (src/src/kspace.cpp:342)
  G vector (1/distance) = 0.27690778
  grid = 135 135 135
  stencil order = 5
  estimated absolute RMS force accuracy = 0.0016248756
  estimated relative force accuracy = 0.00011284136
  using double precision MKL FFT
  3d grid and FFT values/proc = 36800 36450
Generated 0 of 10 mixed pair_coeff terms from geometric mixing rule
Setting up Verlet run ...
  Unit style    : metal
  Current step  : 0
  Time step     : 0.002
Per MPI rank memory allocation (min/avg/max) = 225.8 | 262 | 299.4 Mbytes
   Step          Temp          TotEng           Lx             Ly             Lz           Press     
         0   700.73514     -5480722.7      194.21719      197.49281      198.64959      105.08039    
      1000   700.4895      -5480725.2      194.21719      197.49281      198.64959      63.892909    
      2000   700.2034      -5480763.6      194.21719      197.49281      198.64959     -7.8876564    
      3000   700.00838     -5480775.5      194.21719      197.49281      198.64959     -111.38594    
      4000   700.70559     -5480658.7      194.21719      197.49281      198.64959     -4.9551272    
      5000   699.4722      -5480865        194.21719      197.49281      198.64959     -54.448858    
      6000   701.10265     -5480679.6      194.21719      197.49281      198.64959      12.099816    
      7000   699.11633     -5480808.3      194.21719      197.49281      198.64959      69.010468    
      8000   699.62586     -5480803.8      194.21719      197.49281      198.64959      202.94319    
      9000   699.64768     -5480756.2      194.21719      197.49281      198.64959      137.487      
     10000   699.76775     -5480813.3      194.21719      197.49281      198.64959      126.81055    
     11000   700.67523     -5480701.2      194.21719      197.49281      198.64959      95.092115    
     12000   700.02799     -5480845.1      194.21719      197.49281      198.64959     -14.095456    
     13000   700.18713     -5480870.8      194.21719      197.49281      198.64959      96.476729    
     14000   701.36118     -5480857.2      194.21719      197.49281      198.64959     -68.808442    
     15000   701.30095     -5480650.3      194.21719      197.49281      198.64959      98.450984    
     16000   699.172       -5480766.9      194.21719      197.49281      198.64959      175.8859     
     17000   700.3142      -5480700.6      194.21719      197.49281      198.64959      32.796443    
     18000   700.18886     -5480762.2      194.21719      197.49281      198.64959      137.35839    
     19000   700.63786     -5480759.5      194.21719      197.49281      198.64959     -33.565639    
     20000   698.67243     -5480818.4      194.21719      197.49281      198.64959      80.225732    
     21000   699.92677     -5480738        194.21719      197.49281      198.64959      39.72303     
     22000   700.06981     -5480833.2      194.21719      197.49281      198.64959     -116.68638    
     23000   699.79038     -5480754.1      194.21719      197.49281      198.64959     -106.10895    
     24000   700.54699     -5480738.3      194.21719      197.49281      198.64959     -2.1457936    
     25000   700.53554     -5480766.6      194.21719      197.49281      198.64959      34.52581     
     26000   700.03587     -5480701.1      194.21719      197.49281      198.64959     -41.436368    
     27000   699.42229     -5480794.2      194.21719      197.49281      198.64959     -117.76933    
     28000   700.12251     -5480828.6      194.21719      197.49281      198.64959      41.866935    
     29000   699.09657     -5480752.4      194.21719      197.49281      198.64959      127.40873    
     30000   699.39791     -5480787.3      194.21719      197.49281      198.64959     -105.26647    
     31000   700.13165     -5480693.4      194.21719      197.49281      198.64959     -44.541061    
     32000   700.22038     -5480775.9      194.21719      197.49281      198.64959      65.428244    
     33000   699.27257     -5480847.1      194.21719      197.49281      198.64959      111.17502    
     34000   699.49348     -5480819.6      194.21719      197.49281      198.64959      53.36063     
     35000   699.54883     -5480692.8      194.21719      197.49281      198.64959      85.427381    
     36000   699.23325     -5480878.3      194.21719      197.49281      198.64959      67.951272    
     37000   700.08748     -5480773        194.21719      197.49281      198.64959      113.82044    
     38000   701.11649     -5480717        194.21719      197.49281      198.64959      203.57152    
     39000   699.23235     -5480767.5      194.21719      197.49281      198.64959      222.54189    
     40000   699.91917     -5480765.6      194.21719      197.49281      198.64959      42.519757    
     41000   700.67701     -5480668.6      194.21719      197.49281      198.64959      92.945458    
     42000   700.64288     -5480860.3      194.21719      197.49281      198.64959      119.73447    
     43000   701.08308     -5480697.3      194.21719      197.49281      198.64959      41.893787    
     44000   699.32179     -5480752.3      194.21719      197.49281      198.64959      163.24407    
     45000   700.39046     -5480731.1      194.21719      197.49281      198.64959      94.387122    
     46000   700.65906     -5480729.9      194.21719      197.49281      198.64959      59.003723    
     47000   701.13019     -5480802        194.21719      197.49281      198.64959      55.140479    
     48000   699.11295     -5480832.9      194.21719      197.49281      198.64959      85.162905    
     49000   699.19109     -5480850.5      194.21719      197.49281      198.64959      69.791169    
     50000   699.79477     -5480828.4      194.21719      197.49281      198.64959     -145.081      
     51000   699.04225     -5480834.4      194.21719      197.49281      198.64959      154.27918    
     52000   700.04196     -5480766.7      194.21719      197.49281      198.64959      102.64047    
     53000   699.55034     -5480822.5      194.21719      197.49281      198.64959      90.213278    
     54000   700.25209     -5480792.6      194.21719      197.49281      198.64959      42.47221     
     55000   699.89534     -5480793.6      194.21719      197.49281      198.64959      24.842915    
     56000   700.21254     -5480740.3      194.21719      197.49281      198.64959      155.33253    
     57000   701.0336      -5480701.8      194.21719      197.49281      198.64959      256.79588    
     58000   701.64753     -5480721        194.21719      197.49281      198.64959      173.38659    
     59000   700.27092     -5480797.9      194.21719      197.49281      198.64959      117.34139    
     60000   699.57106     -5480844        194.21719      197.49281      198.64959      129.84828    
     61000   699.58197     -5480796.1      194.21719      197.49281      198.64959      172.75854    
     62000   700.20617     -5480688.4      194.21719      197.49281      198.64959      131.22311    
     63000   700.6348      -5480827.4      194.21719      197.49281      198.64959     -28.342995    
     64000   700.0594      -5480794.8      194.21719      197.49281      198.64959      6.8924074    
     65000   699.20471     -5480914        194.21719      197.49281      198.64959     -21.029034    
     66000   699.90029     -5480816.9      194.21719      197.49281      198.64959      190.94913    
     67000   699.26429     -5480821.7      194.21719      197.49281      198.64959      170.33004    
     68000   700.41005     -5480808.4      194.21719      197.49281      198.64959     -11.120372    
     69000   700.06073     -5480796        194.21719      197.49281      198.64959     -4.8434457    
     70000   699.5147      -5480763.6      194.21719      197.49281      198.64959      161.36858    
     71000   699.73789     -5480700.6      194.21719      197.49281      198.64959      101.69181    
     72000   699.33426     -5480810.4      194.21719      197.49281      198.64959     -31.448224    
     73000   699.3323      -5480815.5      194.21719      197.49281      198.64959     -123.34979    
     74000   699.95867     -5480770        194.21719      197.49281      198.64959      51.336947    
     75000   699.80795     -5480958.9      194.21719      197.49281      198.64959      94.23884     
     76000   699.38154     -5480917.8      194.21719      197.49281      198.64959      125.19089    
     77000   699.8472      -5480719.1      194.21719      197.49281      198.64959      86.637653    
     78000   700.17342     -5480906.5      194.21719      197.49281      198.64959      3.2425835    
     79000   698.78146     -5480828.6      194.21719      197.49281      198.64959      60.541893    
     80000   698.88634     -5480946.8      194.21719      197.49281      198.64959      71.418882    
     81000   699.60596     -5480809.6      194.21719      197.49281      198.64959     -4.8374871    
     82000   701.48355     -5480682.9      194.21719      197.49281      198.64959      176.85155    
     83000   699.68942     -5480837        194.21719      197.49281      198.64959      131.79963    
     84000   699.75931     -5480832        194.21719      197.49281      198.64959      108.91332    
     85000   699.8014      -5480813.6      194.21719      197.49281      198.64959      112.16846    
     86000   700.35413     -5480698.9      194.21719      197.49281      198.64959      100.44207    
     87000   699.89855     -5480824.6      194.21719      197.49281      198.64959      135.22894    
     88000   700.5305      -5480846.9      194.21719      197.49281      198.64959      31.91218     
     89000   700.73323     -5480759.9      194.21719      197.49281      198.64959      113.47534    
     90000   699.78096     -5480888        194.21719      197.49281      198.64959     -35.541917    
     91000   698.65662     -5480931.2      194.21719      197.49281      198.64959      112.24538    
     92000   698.46121     -5480879.1      194.21719      197.49281      198.64959     -81.913676    
     93000   699.8459      -5480814.9      194.21719      197.49281      198.64959      87.410691    
     94000   702.13957     -5480596.9      194.21719      197.49281      198.64959      63.149544    
     95000   700.3793      -5480830.8      194.21719      197.49281      198.64959     -42.596068    
     96000   698.85768     -5480834.1      194.21719      197.49281      198.64959      38.124388    
     97000   699.69128     -5480821.1      194.21719      197.49281      198.64959      87.6573      
     98000   699.94954     -5480769        194.21719      197.49281      198.64959      113.36741    
     99000   699.2608      -5480874        194.21719      197.49281      198.64959     -97.840073    
    100000   699.95657     -5480744.6      194.21719      197.49281      198.64959      60.416565    
    101000   698.48918     -5480851.8      194.21719      197.49281      198.64959     -6.8476783    
    102000   700.3884      -5480829.5      194.21719      197.49281      198.64959      36.47881     
    103000   700.88176     -5480742.4      194.21719      197.49281      198.64959      62.600105    
    104000   699.52421     -5480820        194.21719      197.49281      198.64959     -40.466941    
    105000   699.81968     -5480719.5      194.21719      197.49281      198.64959      110.97171    
    106000   699.55905     -5480747.6      194.21719      197.49281      198.64959      173.48823    
    107000   700.95377     -5480652.2      194.21719      197.49281      198.64959      107.05781    
    108000   699.99622     -5480843.8      194.21719      197.49281      198.64959      136.40888    
    109000   701.04728     -5480714.5      194.21719      197.49281      198.64959      155.86112    
    110000   699.38055     -5480871.3      194.21719      197.49281      198.64959      143.20155    
    111000   699.94934     -5480913.4      194.21719      197.49281      198.64959      48.232455    
    112000   699.25891     -5480822.1      194.21719      197.49281      198.64959      72.048375    
    113000   700.47874     -5480754        194.21719      197.49281      198.64959      150.31769    
    114000   700.19064     -5480774.3      194.21719      197.49281      198.64959      213.52125    
    115000   699.0139      -5480870.3      194.21719      197.49281      198.64959      167.19477    
    116000   699.66732     -5480863.9      194.21719      197.49281      198.64959      20.093253    
    117000   700.08362     -5480869.4      194.21719      197.49281      198.64959     -1.6141867    
    118000   699.58138     -5480822.2      194.21719      197.49281      198.64959      127.00019    
    119000   699.90276     -5480807.7      194.21719      197.49281      198.64959      20.190951    
    120000   700.09659     -5480803.4      194.21719      197.49281      198.64959      98.137008    
    121000   700.38817     -5480702.2      194.21719      197.49281      198.64959      50.700976    
    122000   700.60637     -5480759.7      194.21719      197.49281      198.64959      55.106586    
    123000   700.36682     -5480863.1      194.21719      197.49281      198.64959      74.34357     
    124000   700.56259     -5480727.9      194.21719      197.49281      198.64959      285.17163    
    125000   701.03503     -5480775.4      194.21719      197.49281      198.64959     -0.97824148   
    126000   699.50954     -5480829.7      194.21719      197.49281      198.64959      141.559      
    127000   699.02986     -5480833        194.21719      197.49281      198.64959     -31.838136    
    128000   699.63155     -5480901.4      194.21719      197.49281      198.64959     -56.666125    
    129000   699.51775     -5480874.5      194.21719      197.49281      198.64959      103.38887    
    130000   699.81037     -5480896.9      194.21719      197.49281      198.64959      96.492563    
    131000   699.92365     -5480793.4      194.21719      197.49281      198.64959      162.32474    
    132000   699.24477     -5480937.8      194.21719      197.49281      198.64959     -49.101118    
    133000   700.70736     -5480754.6      194.21719      197.49281      198.64959     -11.414938    
    134000   698.95262     -5480970.9      194.21719      197.49281      198.64959      113.94501    
    135000   700.09814     -5480752        194.21719      197.49281      198.64959      324.75711    
    136000   701.05549     -5480730.1      194.21719      197.49281      198.64959      130.77724    
    137000   699.81927     -5480865.2      194.21719      197.49281      198.64959     -47.496285    
    138000   700.42934     -5480745.6      194.21719      197.49281      198.64959      108.2104     
    139000   700.35103     -5480730.2      194.21719      197.49281      198.64959      148.31608    
    140000   700.64897     -5480709.7      194.21719      197.49281      198.64959     -129.19969    
    141000   700.88093     -5480672.7      194.21719      197.49281      198.64959      156.59687    
    142000   700.4281      -5480865.3      194.21719      197.49281      198.64959      9.9800633    
    143000   698.49318     -5480961.9      194.21719      197.49281      198.64959      36.628242    
    144000   699.31245     -5480865.7      194.21719      197.49281      198.64959      130.17302    
    145000   699.66062     -5480911.4      194.21719      197.49281      198.64959      32.322046    
    146000   700.46105     -5480857.4      194.21719      197.49281      198.64959      78.410057    
    147000   700.62068     -5480815.5      194.21719      197.49281      198.64959      3.9232008    
    148000   699.80543     -5480915.2      194.21719      197.49281      198.64959      28.089565    
    149000   699.71055     -5480868.7      194.21719      197.49281      198.64959      57.037122    
    150000   700.29561     -5480782.1      194.21719      197.49281      198.64959      176.74275    
    151000   700.06453     -5480720.4      194.21719      197.49281      198.64959      179.81725    
    152000   700.80881     -5480853.9      194.21719      197.49281      198.64959      224.97966    
    153000   700.37964     -5480922.5      194.21719      197.49281      198.64959      126.44192    
    154000   700.08622     -5480830.7      194.21719      197.49281      198.64959      44.050907    
    155000   698.07247     -5480904.1      194.21719      197.49281      198.64959      156.16455    
    156000   700.89236     -5480890.9      194.21719      197.49281      198.64959      89.237304    
    157000   698.89985     -5480840.9      194.21719      197.49281      198.64959      256.10474    
    158000   700.11164     -5480728.2      194.21719      197.49281      198.64959      169.2914     
    159000   700.68704     -5480780.5      194.21719      197.49281      198.64959      78.285122    
    160000   699.3558      -5480926.7      194.21719      197.49281      198.64959     -55.07109     
    161000   699.68055     -5480949.4      194.21719      197.49281      198.64959      103.67579    
    162000   698.78894     -5480949.9      194.21719      197.49281      198.64959      105.34053    
    163000   700.73479     -5480880.3      194.21719      197.49281      198.64959      99.535506    
    164000   699.94901     -5480801.6      194.21719      197.49281      198.64959      121.61947    
    165000   699.39255     -5480935.7      194.21719      197.49281      198.64959      13.721098    
    166000   699.44031     -5480931        194.21719      197.49281      198.64959      45.834024    
    167000   699.78631     -5480889.1      194.21719      197.49281      198.64959      139.02888    
    168000   700.27625     -5480841.4      194.21719      197.49281      198.64959      102.73161    
    169000   700.59536     -5480732.7      194.21719      197.49281      198.64959      67.623775    
    170000   702.0207      -5480635.7      194.21719      197.49281      198.64959      53.222161    
    171000   701.05279     -5480889.9      194.21719      197.49281      198.64959     -19.264664    
    172000   698.13216     -5480969.1      194.21719      197.49281      198.64959      186.46976    
    173000   698.65574     -5480945.2      194.21719      197.49281      198.64959      53.001316    
    174000   699.75837     -5480838.8      194.21719      197.49281      198.64959      68.844167    
    175000   700.34747     -5480841.1      194.21719      197.49281      198.64959     -57.049523    
    176000   699.35664     -5480990.9      194.21719      197.49281      198.64959      22.046493    
    177000   698.15266     -5480971.4      194.21719      197.49281      198.64959      26.810629    
    178000   699.92291     -5480864.8      194.21719      197.49281      198.64959      65.645241    
    179000   699.1349      -5480926.6      194.21719      197.49281      198.64959      1.2451194    
    180000   697.98356     -5480993.4      194.21719      197.49281      198.64959     -31.629336    
    181000   699.76745     -5480801.3      194.21719      197.49281      198.64959      72.143037    
    182000   699.72324     -5480781.7      194.21719      197.49281      198.64959      241.84385    
    183000   699.77385     -5480766.6      194.21719      197.49281      198.64959      161.57484    
    184000   700.40937     -5480772.1      194.21719      197.49281      198.64959     -87.554959    
    185000   701.08971     -5480710.1      194.21719      197.49281      198.64959      58.455873    
    186000   701.07288     -5480776.5      194.21719      197.49281      198.64959      205.20023    
    187000   700.47443     -5480762        194.21719      197.49281      198.64959      230.7571     
    188000   700.5755      -5480753.1      194.21719      197.49281      198.64959      74.355511    
    189000   698.1797      -5481023.3      194.21719      197.49281      198.64959      123.59914    
    190000   699.8259      -5480857.6      194.21719      197.49281      198.64959      12.177087    
    191000   697.91477     -5481096.2      194.21719      197.49281      198.64959     -34.135568    
    192000   700.03807     -5480765.9      194.21719      197.49281      198.64959      136.40795    
    193000   700.45082     -5480835.5      194.21719      197.49281      198.64959      100.30601    
    194000   701.23007     -5480774.2      194.21719      197.49281      198.64959      90.455986    
    195000   699.88394     -5480943.9      194.21719      197.49281      198.64959      153.64691    
    196000   701.05299     -5480835.6      194.21719      197.49281      198.64959      90.863088    
    197000   701.50395     -5480791.9      194.21719      197.49281      198.64959      31.332621    
    198000   700.21474     -5480996.5      194.21719      197.49281      198.64959     -114.35969    
    199000   699.47475     -5480914.5      194.21719      197.49281      198.64959     -26.012781    
    200000   700.39644     -5480747.2      194.21719      197.49281      198.64959      147.42938    
    201000   700.16557     -5480868.4      194.21719      197.49281      198.64959      57.410921    
    202000   700.75305     -5480680        194.21719      197.49281      198.64959      60.348001    
    203000   698.22436     -5481025.6      194.21719      197.49281      198.64959     -22.184312    
    204000   700.5961      -5480787.4      194.21719      197.49281      198.64959     -9.666111     
    205000   698.29617     -5480966.1      194.21719      197.49281      198.64959      170.64056    
    206000   698.94234     -5480929.1      194.21719      197.49281      198.64959      90.711844    
    207000   700.10491     -5480747.2      194.21719      197.49281      198.64959      133.56411    
    208000   700.14781     -5480780.5      194.21719      197.49281      198.64959      180.37409    
    209000   700.41819     -5480887.2      194.21719      197.49281      198.64959      139.40498    
    210000   699.31672     -5480896.9      194.21719      197.49281      198.64959      73.735016    
    211000   700.17979     -5480929        194.21719      197.49281      198.64959     -7.350744     
    212000   700.32871     -5480866.4      194.21719      197.49281      198.64959      52.250041    
    213000   702.03814     -5480722.2      194.21719      197.49281      198.64959      34.407404    
    214000   700.1909      -5480798.2      194.21719      197.49281      198.64959      20.148987    
    215000   700.37464     -5480834.9      194.21719      197.49281      198.64959      16.784055    
    216000   699.70747     -5480787.7      194.21719      197.49281      198.64959      14.837326    
    217000   699.25451     -5480849.6      194.21719      197.49281      198.64959      19.541729    
    218000   699.53223     -5480867.7      194.21719      197.49281      198.64959      8.1203857    
    219000   701.44567     -5480846.4      194.21719      197.49281      198.64959      38.613951    
    220000   702.00067     -5480725.8      194.21719      197.49281      198.64959      164.18174    
    221000   699.67646     -5480730.1      194.21719      197.49281      198.64959      160.9316     
    222000   698.61311     -5480971.8      194.21719      197.49281      198.64959     -12.051431    
    223000   700.84581     -5480812.1      194.21719      197.49281      198.64959      24.693241    
    224000   699.06623     -5480897.9      194.21719      197.49281      198.64959     -29.163572    
    225000   698.77333     -5480912.5      194.21719      197.49281      198.64959     -18.28226     
    226000   699.35368     -5480889.4      194.21719      197.49281      198.64959      159.07129    
    227000   699.54806     -5480784.2      194.21719      197.49281      198.64959     -15.520021    
    228000   698.75591     -5480884.7      194.21719      197.49281      198.64959      33.847621    
    229000   700.3924      -5480939.8      194.21719      197.49281      198.64959      43.85812     
    230000   699.28578     -5480971.5      194.21719      197.49281      198.64959      120.10263    
    231000   700.18252     -5480833.1      194.21719      197.49281      198.64959      77.940774    
    232000   700.91243     -5480830.5      194.21719      197.49281      198.64959      37.392805    
    233000   698.97912     -5480960.8      194.21719      197.49281      198.64959      21.139756    
    234000   700.76806     -5480716.8      194.21719      197.49281      198.64959      90.309075    
    235000   699.43798     -5480917.1      194.21719      197.49281      198.64959      108.32553    
    236000   699.59116     -5480762.7      194.21719      197.49281      198.64959      18.8367      
    237000   698.78926     -5480978.7      194.21719      197.49281      198.64959      191.0792     
    238000   700.3816      -5480814.5      194.21719      197.49281      198.64959      65.982849    
    239000   699.71823     -5480951.8      194.21719      197.49281      198.64959      58.786284    
    240000   700.51847     -5480749.9      194.21719      197.49281      198.64959      65.255925    
    241000   699.84472     -5480849.1      194.21719      197.49281      198.64959      189.36293    
    242000   701.54108     -5480871.1      194.21719      197.49281      198.64959      129.46942    
    243000   698.65066     -5480930.6      194.21719      197.49281      198.64959     -15.29613     
    244000   700.94488     -5480810.5      194.21719      197.49281      198.64959      117.15633    
    245000   699.82928     -5480884.6      194.21719      197.49281      198.64959      170.77806    
    246000   699.96089     -5480836.1      194.21719      197.49281      198.64959      199.5144     
    247000   699.80003     -5480852.4      194.21719      197.49281      198.64959      221.89963    
    248000   699.33296     -5480820.2      194.21719      197.49281      198.64959      69.921552    
    249000   700.63137     -5480759.6      194.21719      197.49281      198.64959      78.93575     
    250000   700.02449     -5480897.1      194.21719      197.49281      198.64959      106.5378     
    251000   699.94701     -5480940.9      194.21719      197.49281      198.64959      142.44391    
    252000   700.86545     -5480842.8      194.21719      197.49281      198.64959      92.228657    
    253000   701.43053     -5480772.9      194.21719      197.49281      198.64959      198.56464    
    254000   700.63507     -5480799.1      194.21719      197.49281      198.64959      237.65809    
    255000   699.16307     -5480844.8      194.21719      197.49281      198.64959     -24.218217    
    256000   700.27478     -5480955.4      194.21719      197.49281      198.64959     -11.988768    
    257000   698.38538     -5480955.3      194.21719      197.49281      198.64959      94.877622    
    258000   698.09512     -5481000.5      194.21719      197.49281      198.64959      99.27366     
    259000   700.4797      -5480871        194.21719      197.49281      198.64959      37.552477    
    260000   700.61072     -5480920.4      194.21719      197.49281      198.64959      65.1567      
    261000   700.92992     -5480694.2      194.21719      197.49281      198.64959      171.28782    
    262000   699.38698     -5480867.9      194.21719      197.49281      198.64959      72.290312    
    263000   699.91227     -5480883.1      194.21719      197.49281      198.64959      125.1986     
    264000   700.48853     -5480746.1      194.21719      197.49281      198.64959      58.77099     
    265000   699.9909      -5480961.9      194.21719      197.49281      198.64959      99.355338    
    266000   701.13738     -5480869.2      194.21719      197.49281      198.64959      26.680854    
    267000   698.68119     -5480963.9      194.21719      197.49281      198.64959     -61.842638    
    268000   700.20072     -5480887.3      194.21719      197.49281      198.64959     -14.949244    
    269000   700.41687     -5480858.4      194.21719      197.49281      198.64959     -16.802461    
    270000   699.29781     -5480856.6      194.21719      197.49281      198.64959     -27.824058    
    271000   699.71074     -5480898.5      194.21719      197.49281      198.64959      34.997257    
    272000   699.76405     -5480846.5      194.21719      197.49281      198.64959      14.303585    
    273000   698.81889     -5480947.1      194.21719      197.49281      198.64959      1.9907003    
    274000   700.47551     -5480770        194.21719      197.49281      198.64959      27.075906    
    275000   699.48105     -5480895.8      194.21719      197.49281      198.64959      227.32674    
    276000   700.18281     -5480751        194.21719      197.49281      198.64959      116.52057    
    277000   701.51776     -5480729.1      194.21719      197.49281      198.64959      93.322131    
    278000   699.81388     -5480790.1      194.21719      197.49281      198.64959      163.11447    
    279000   698.96489     -5480930.3      194.21719      197.49281      198.64959      130.05434    
    280000   700.18474     -5480893.6      194.21719      197.49281      198.64959      56.786126    
    281000   700.62202     -5480838        194.21719      197.49281      198.64959     -38.788838    
    282000   701.11072     -5480769.1      194.21719      197.49281      198.64959      112.00129    
    283000   700.05771     -5480888.5      194.21719      197.49281      198.64959      180.24941    
    284000   698.86815     -5480886.4      194.21719      197.49281      198.64959      79.184843    
    285000   700.21322     -5480925.7      194.21719      197.49281      198.64959     -13.548223    
    286000   698.7126      -5480914.2      194.21719      197.49281      198.64959      86.98609     
    287000   701.59337     -5480718.4      194.21719      197.49281      198.64959      157.79544    
    288000   699.10292     -5480970.3      194.21719      197.49281      198.64959      24.521603    
    289000   699.4574      -5480918.3      194.21719      197.49281      198.64959     -15.599584    
    290000   700.00602     -5480884        194.21719      197.49281      198.64959      142.45436    
    291000   700.05364     -5480874.5      194.21719      197.49281      198.64959      24.544849    
    292000   700.82071     -5480819.5      194.21719      197.49281      198.64959      39.979967    
    293000   699.10733     -5480920.1      194.21719      197.49281      198.64959      110.38508    
    294000   698.87757     -5480930.7      194.21719      197.49281      198.64959      71.245341    
    295000   699.07794     -5480953.5      194.21719      197.49281      198.64959      1.3623184    
    296000   699.9645      -5480927.9      194.21719      197.49281      198.64959      78.735953    
    297000   700.14459     -5480793.3      194.21719      197.49281      198.64959      76.117199    
    298000   700.37652     -5480825.4      194.21719      197.49281      198.64959      7.1443273    
    299000   699.63681     -5480888        194.21719      197.49281      198.64959      21.125161    
    300000   700.24572     -5480738        194.21719      197.49281      198.64959      107.43918    
    301000   699.52227     -5480843.6      194.21719      197.49281      198.64959      178.97585    
    302000   700.63646     -5480895.6      194.21719      197.49281      198.64959      66.613779    
    303000   700.19578     -5480696.8      194.21719      197.49281      198.64959      192.42487    
    304000   700.26864     -5480806.8      194.21719      197.49281      198.64959      137.75464    
    305000   700.44359     -5480792.8      194.21719      197.49281      198.64959      106.106      
    306000   699.57597     -5480897.1      194.21719      197.49281      198.64959      59.596111    
    307000   699.39427     -5480935        194.21719      197.49281      198.64959      35.552385    
    308000   699.50002     -5480858.2      194.21719      197.49281      198.64959      181.26407    
    309000   699.90332     -5480899.9      194.21719      197.49281      198.64959      68.62478     
    310000   700.04485     -5480911.1      194.21719      197.49281      198.64959      53.366599    
    311000   700.28858     -5480811.4      194.21719      197.49281      198.64959      77.691789    
    312000   699.71587     -5480905.2      194.21719      197.49281      198.64959      130.1954     
    313000   701.18642     -5480882.9      194.21719      197.49281      198.64959      302.42245    
    314000   698.72504     -5481042.7      194.21719      197.49281      198.64959      212.74018    
    315000   699.40227     -5480880.4      194.21719      197.49281      198.64959      208.5643     
    316000   698.50583     -5480953.8      194.21719      197.49281      198.64959      24.360569    
    317000   700.06916     -5480984.4      194.21719      197.49281      198.64959      55.212951    
    318000   700.04666     -5480932.6      194.21719      197.49281      198.64959      134.35163    
    319000   699.84043     -5480879.2      194.21719      197.49281      198.64959      151.38881    
    320000   697.96449     -5480935.9      194.21719      197.49281      198.64959      130.35766    
    321000   699.02884     -5480957.3      194.21719      197.49281      198.64959      190.95992    
    322000   699.4281      -5480874.1      194.21719      197.49281      198.64959      275.34386    
    323000   698.91423     -5481009.7      194.21719      197.49281      198.64959      40.588942    
    324000   700.15382     -5480947.1      194.21719      197.49281      198.64959      108.64271    
    325000   699.51255     -5480902.3      194.21719      197.49281      198.64959     -59.59068     
    326000   700.4634      -5480784.3      194.21719      197.49281      198.64959      175.70829    
    327000   700.0814      -5480982.3      194.21719      197.49281      198.64959      135.00742    
    328000   700.67238     -5480824.4      194.21719      197.49281      198.64959      186.30386    
    329000   699.65536     -5480860        194.21719      197.49281      198.64959      164.7183     
    330000   698.26727     -5480884.9      194.21719      197.49281      198.64959      277.38152    
    331000   700.18934     -5480882.4      194.21719      197.49281      198.64959      135.21384    
    332000   698.57334     -5480975.3      194.21719      197.49281      198.64959      115.53672    
    333000   700.48392     -5480968.5      194.21719      197.49281      198.64959      70.647467    
    334000   700.21464     -5480818.4      194.21719      197.49281      198.64959     -5.1580408    
    335000   699.60498     -5480964.6      194.21719      197.49281      198.64959      79.606207    
    336000   699.127       -5480964.6      194.21719      197.49281      198.64959      46.575636    
    337000   700.70196     -5480885        194.21719      197.49281      198.64959      64.928668    
    338000   700.51889     -5480780.8      194.21719      197.49281      198.64959      155.13216    
    339000   699.55085     -5480870.2      194.21719      197.49281      198.64959      120.64219    
    340000   699.60003     -5480903.2      194.21719      197.49281      198.64959      74.875857    
    341000   699.17952     -5480950.7      194.21719      197.49281      198.64959     -39.420005    
    342000   699.24927     -5480889.3      194.21719      197.49281      198.64959      133.96544    
    343000   699.31897     -5480921.6      194.21719      197.49281      198.64959      56.710894    
    344000   699.88346     -5480922.5      194.21719      197.49281      198.64959      153.70877    
    345000   698.69862     -5480946.1      194.21719      197.49281      198.64959      73.329697    
    346000   700.10952     -5480905.7      194.21719      197.49281      198.64959      113.38621    
    347000   701.01111     -5480816.5      194.21719      197.49281      198.64959      164.40076    
    348000   699.91097     -5480931.6      194.21719      197.49281      198.64959      74.156208    
    349000   698.99494     -5480960.2      194.21719      197.49281      198.64959      88.039989    
    350000   700.45055     -5480838.3      194.21719      197.49281      198.64959      46.01807     
    351000   699.83243     -5481014.3      194.21719      197.49281      198.64959      146.16022    
    352000   700.54308     -5480824.3      194.21719      197.49281      198.64959      70.315625    
    353000   699.59106     -5480926.9      194.21719      197.49281      198.64959      129.46267    
    354000   699.22178     -5480877        194.21719      197.49281      198.64959      63.754737    
    355000   701.46074     -5480790.5      194.21719      197.49281      198.64959      111.98167    
    356000   700.23941     -5480946.8      194.21719      197.49281      198.64959      80.517583    
    357000   699.98263     -5480868        194.21719      197.49281      198.64959      70.883074    
    358000   700.4294      -5480900.4      194.21719      197.49281      198.64959      31.343676    
    359000   699.74632     -5480937.7      194.21719      197.49281      198.64959      120.87119    
    360000   700.14703     -5480790.5      194.21719      197.49281      198.64959     -6.8579879    
    361000   699.2883      -5480952.5      194.21719      197.49281      198.64959     -21.951109    
    362000   699.90337     -5480935.7      194.21719      197.49281      198.64959      85.520401    
    363000   700.88268     -5480934.9      194.21719      197.49281      198.64959      21.667832    
    364000   698.35095     -5481065.8      194.21719      197.49281      198.64959      98.652567    
    365000   700.47457     -5480883.9      194.21719      197.49281      198.64959      320.30666    
    366000   700.0292      -5480840.4      194.21719      197.49281      198.64959      44.777648    
    367000   701.13835     -5480833.7      194.21719      197.49281      198.64959      2.1786684    
    368000   700.91653     -5480803.9      194.21719      197.49281      198.64959      135.77437    
    369000   700.56233     -5480850.3      194.21719      197.49281      198.64959      133.90108    
    370000   700.41603     -5480896.7      194.21719      197.49281      198.64959      130.62784    
    371000   702.52582     -5480724.6      194.21719      197.49281      198.64959      122.12216    
    372000   699.4889      -5481005.3      194.21719      197.49281      198.64959     -88.515927    
    373000   701.14986     -5480794.4      194.21719      197.49281      198.64959      198.27976    
    374000   701.00287     -5480924.4      194.21719      197.49281      198.64959      66.311915    
    375000   700.28527     -5480860.1      194.21719      197.49281      198.64959     -0.58393921   
    376000   699.77926     -5480803.8      194.21719      197.49281      198.64959      132.23147    
    377000   699.66265     -5481028.6      194.21719      197.49281      198.64959      18.271606    
    378000   699.45121     -5480960.3      194.21719      197.49281      198.64959      129.25221    
    379000   698.67242     -5480932.4      194.21719      197.49281      198.64959      85.30877     
    380000   700.47974     -5480953.1      194.21719      197.49281      198.64959     -44.085989    
    381000   699.49802     -5480848        194.21719      197.49281      198.64959      59.502122    
    382000   700.18075     -5480798        194.21719      197.49281      198.64959      96.428405    
    383000   699.8722      -5480903.6      194.21719      197.49281      198.64959      113.2599     
    384000   699.76049     -5480938.4      194.21719      197.49281      198.64959     -5.040926     
    385000   698.35237     -5480999.8      194.21719      197.49281      198.64959     -48.851604    
    386000   698.83453     -5480957.6      194.21719      197.49281      198.64959     -50.923584    
    387000   698.91901     -5480889.2      194.21719      197.49281      198.64959      102.40438    
    388000   699.79958     -5480979.6      194.21719      197.49281      198.64959      112.22269    
    389000   699.44558     -5480949.2      194.21719      197.49281      198.64959      127.7688     
    390000   699.73782     -5480941.8      194.21719      197.49281      198.64959      18.299955    
    391000   701.43402     -5480882.8      194.21719      197.49281      198.64959      13.608363    
    392000   700.48935     -5480941.2      194.21719      197.49281      198.64959      34.644933    
    393000   699.65389     -5481010        194.21719      197.49281      198.64959      37.52305     
    394000   700.19108     -5480875.8      194.21719      197.49281      198.64959     -57.310139    
    395000   700.60758     -5480840.5      194.21719      197.49281      198.64959      5.9519837    
    396000   700.30451     -5480821.6      194.21719      197.49281      198.64959      139.91895    
    397000   699.57295     -5480982.1      194.21719      197.49281      198.64959     -20.632797    
    398000   698.32952     -5481022.3      194.21719      197.49281      198.64959      113.52854    
    399000   700.049       -5480845.7      194.21719      197.49281      198.64959      101.06945    
    400000   700.14766     -5480893.6      194.21719      197.49281      198.64959      184.01577    
    401000   699.40673     -5480963        194.21719      197.49281      198.64959      158.90003    
    402000   697.27297     -5481077        194.21719      197.49281      198.64959      81.738937    
    403000   699.66824     -5480935.2      194.21719      197.49281      198.64959      10.099667    
    404000   700.45429     -5480895        194.21719      197.49281      198.64959      24.113125    
    405000   699.83284     -5480907.7      194.21719      197.49281      198.64959      32.901755    
    406000   699.95081     -5481019.5      194.21719      197.49281      198.64959     -58.19246     
    407000   699.10878     -5480975.8      194.21719      197.49281      198.64959     -19.313858    
    408000   699.79695     -5480905.6      194.21719      197.49281      198.64959      25.837663    
    409000   701.60678     -5480740.1      194.21719      197.49281      198.64959      121.67386    
    410000   700.11182     -5480927.5      194.21719      197.49281      198.64959     -4.0464548    
    411000   699.42792     -5480932.1      194.21719      197.49281      198.64959      128.59462    
    412000   700.22332     -5480906.4      194.21719      197.49281      198.64959      133.70816    
    413000   698.09573     -5481105.1      194.21719      197.49281      198.64959     -83.204997    
    414000   701.18105     -5480859.4      194.21719      197.49281      198.64959      87.967069    
    415000   700.07899     -5480790.6      194.21719      197.49281      198.64959      25.006733    
    416000   699.89375     -5480919.4      194.21719      197.49281      198.64959     -60.883729    
    417000   699.75418     -5480943.8      194.21719      197.49281      198.64959      4.6029258    
    418000   699.5982      -5480942.4      194.21719      197.49281      198.64959      54.802626    
    419000   699.75145     -5480901.4      194.21719      197.49281      198.64959     -67.999469    
    420000   699.05598     -5480964        194.21719      197.49281      198.64959     -36.745475    
    421000   701.411       -5480846.2      194.21719      197.49281      198.64959      188.70225    
    422000   699.04823     -5481017.5      194.21719      197.49281      198.64959      204.18834    
    423000   699.51861     -5480934.2      194.21719      197.49281      198.64959      65.93143     
    424000   700.19902     -5480899.2      194.21719      197.49281      198.64959     -11.745797    
    425000   699.86118     -5480870        194.21719      197.49281      198.64959      276.27589    
    426000   698.8771      -5480978        194.21719      197.49281      198.64959      124.96469    
    427000   700.6074      -5480915.7      194.21719      197.49281      198.64959      164.37373    
    428000   700.10886     -5480890        194.21719      197.49281      198.64959     -21.013991    
    429000   700.03385     -5480897.8      194.21719      197.49281      198.64959      4.1775932    
    430000   699.73669     -5480903        194.21719      197.49281      198.64959      213.86599    
    431000   698.84012     -5481077        194.21719      197.49281      198.64959      111.27359    
    432000   701.20849     -5480882.9      194.21719      197.49281      198.64959     -54.257558    
    433000   699.77078     -5480962.9      194.21719      197.49281      198.64959      78.360188    
    434000   700.60755     -5480914        194.21719      197.49281      198.64959      20.222595    
    435000   699.17596     -5480928.5      194.21719      197.49281      198.64959      107.20376    
    436000   699.98904     -5480935.5      194.21719      197.49281      198.64959     -7.5980201    
    437000   699.49532     -5480982.3      194.21719      197.49281      198.64959      65.167965    
    438000   701.15127     -5480808.9      194.21719      197.49281      198.64959      70.580799    
    439000   699.19731     -5480942.4      194.21719      197.49281      198.64959      166.24437    
    440000   700.48791     -5480900        194.21719      197.49281      198.64959      137.57815    
    441000   700.54512     -5480815.5      194.21719      197.49281      198.64959      44.664802    
    442000   700.61478     -5480775.1      194.21719      197.49281      198.64959      96.137826    
    443000   699.63015     -5480975        194.21719      197.49281      198.64959      123.53409    
    444000   699.46296     -5481016.3      194.21719      197.49281      198.64959     -19.105461    
    445000   699.30259     -5481005.1      194.21719      197.49281      198.64959      62.902341    
    446000   699.51086     -5481007.9      194.21719      197.49281      198.64959     -87.38556     
    447000   699.54967     -5480901.9      194.21719      197.49281      198.64959      202.01249    
    448000   700.28973     -5480905.3      194.21719      197.49281      198.64959      112.96705    
    449000   700.34676     -5480879.3      194.21719      197.49281      198.64959      228.96006    
    450000   699.30803     -5480967.5      194.21719      197.49281      198.64959      56.517005    
    451000   699.55514     -5480940.4      194.21719      197.49281      198.64959      104.15108    
    452000   701.4074      -5480785.8      194.21719      197.49281      198.64959      122.26199    
    453000   699.91743     -5480914.9      194.21719      197.49281      198.64959     -7.3426256    
    454000   699.25536     -5480977.2      194.21719      197.49281      198.64959     -27.730361    
    455000   699.9373      -5480862.5      194.21719      197.49281      198.64959      109.74042    
    456000   700.23472     -5480835.4      194.21719      197.49281      198.64959      71.807934    
    457000   700.32241     -5480872.6      194.21719      197.49281      198.64959      99.394229    
    458000   700.05563     -5480896.8      194.21719      197.49281      198.64959      63.437115    
    459000   700.38495     -5480932.2      194.21719      197.49281      198.64959      72.7717      
    460000   699.03953     -5481022        194.21719      197.49281      198.64959      139.48586    
    461000   701.32905     -5480813.1      194.21719      197.49281      198.64959      36.700484    
    462000   701.02936     -5480916.4      194.21719      197.49281      198.64959      147.72952    
    463000   699.43922     -5480974.7      194.21719      197.49281      198.64959      129.93954    
    464000   699.91801     -5480993.1      194.21719      197.49281      198.64959     -3.4346218    
    465000   699.77533     -5480929.3      194.21719      197.49281      198.64959      62.690249    
    466000   699.88547     -5480881.7      194.21719      197.49281      198.64959     -56.858341    
    467000   701.07758     -5480823.3      194.21719      197.49281      198.64959      22.540356    
    468000   700.00445     -5480874        194.21719      197.49281      198.64959      157.06113    
    469000   699.63002     -5480913.8      194.21719      197.49281      198.64959      104.67997    
    470000   699.83727     -5480947.5      194.21719      197.49281      198.64959      189.18455    
    471000   700.21392     -5480907.3      194.21719      197.49281      198.64959      139.95573    
    472000   702.11941     -5480812.6      194.21719      197.49281      198.64959      113.0945     
    473000   700.33533     -5480868.5      194.21719      197.49281      198.64959      9.1426992    
    474000   698.77741     -5481100        194.21719      197.49281      198.64959      31.167162    
    475000   699.88511     -5480936        194.21719      197.49281      198.64959     -29.591931    
    476000   699.388       -5480816.8      194.21719      197.49281      198.64959     -4.8369307    
    477000   699.43722     -5480959.2      194.21719      197.49281      198.64959      2.6778131    
    478000   699.4419      -5480924.1      194.21719      197.49281      198.64959      64.335238    
    479000   701.63612     -5480800.9      194.21719      197.49281      198.64959      94.659948    
    480000   699.05968     -5481019.8      194.21719      197.49281      198.64959      99.95015     
    481000   699.98357     -5480964.4      194.21719      197.49281      198.64959      13.206573    
    482000   700.46884     -5480906.1      194.21719      197.49281      198.64959      126.18241    
    483000   700.29201     -5480900.5      194.21719      197.49281      198.64959      187.38232    
    484000   699.42166     -5480875        194.21719      197.49281      198.64959      44.858363    
    485000   699.39132     -5481024.1      194.21719      197.49281      198.64959      71.2109      
    486000   700.46851     -5480875.7      194.21719      197.49281      198.64959      85.59487     
    487000   699.66311     -5480920.6      194.21719      197.49281      198.64959      42.272984    
    488000   700.67305     -5480984.8      194.21719      197.49281      198.64959      81.470004    
    489000   701.06795     -5480829.9      194.21719      197.49281      198.64959      47.134939    
    490000   700.45357     -5480943.4      194.21719      197.49281      198.64959      74.071136    
    491000   699.98133     -5480945.4      194.21719      197.49281      198.64959      69.181167    
    492000   700.28373     -5480930.1      194.21719      197.49281      198.64959      22.942017    
    493000   701.39592     -5480810        194.21719      197.49281      198.64959      28.863213    
    494000   700.03638     -5480890.3      194.21719      197.49281      198.64959      210.54481    
    495000   700.46726     -5480838.7      194.21719      197.49281      198.64959      79.030337    
    496000   699.34443     -5480957.8      194.21719      197.49281      198.64959      181.96117    
    497000   700.54225     -5480877.8      194.21719      197.49281      198.64959      232.78977    
    498000   700.23798     -5480902.6      194.21719      197.49281      198.64959      51.979469    
    499000   700.53709     -5480931.2      194.21719      197.49281      198.64959      92.345756    
    500000   699.34371     -5481036.3      194.21719      197.49281      198.64959      31.914793    
Loop time of 36999.2 on 16384 procs for 500000 steps with 483733 atoms

Performance: 2.335 ns/day, 10.278 hours/ns, 13.514 timesteps/s, 6.537 Matom-step/s
80.1% CPU use with 128 MPI tasks x 128 OpenMP threads

MPI task timing breakdown:
Section |  min time  |  avg time  |  max time  |%varavg| %total
---------------------------------------------------------------
Pair    | 13933      | 19532      | 25174      |3184.5 | 52.79
Bond    | 0.052277   | 0.10831    | 0.16567    |   7.4 |  0.00
Kspace  | 6444.2     | 13126      | 19605      |4536.2 | 35.48
Neigh   | 2152.8     | 3103.3     | 4130.9     |1415.3 |  8.39
Comm    | 869.87     | 973.2      | 1115       | 163.0 |  2.63
Output  | 0.069583   | 0.074745   | 0.085762   |   0.7 |  0.00
Modify  | 104.7      | 186.14     | 285.71     | 458.6 |  0.50
Other   |            | 78.63      |            |       |  0.21

Nlocal:        3779.16 ave        4611 max        2937 min
Histogram: 64 0 0 0 0 0 0 0 0 64
Nghost:        11785.2 ave       13132 max       10461 min
Histogram: 64 0 0 0 0 0 0 0 0 64
Neighs:         899757 ave 1.17743e+06 max      631447 min
Histogram: 32 32 0 0 0 0 0 10 25 29

Total # of neighbors = 1.1516894e+08
Ave neighs/atom = 238.0837
Ave special neighs/atom = 0
Neighbor list builds = 102824
Dangerous builds = 0
System init for write_data ...
PPPM initialization ...
  using 12-bit tables for long-range coulomb (src/src/kspace.cpp:342)
  G vector (1/distance) = 0.27690778
  grid = 135 135 135
  stencil order = 5
  estimated absolute RMS force accuracy = 0.0016248756
  estimated relative force accuracy = 0.00011284136
  using double precision MKL FFT
  3d grid and FFT values/proc = 36800 36450
Generated 0 of 10 mixed pair_coeff terms from geometric mixing rule
Total wall time: 22:40:10
