LAMMPS (8 Feb 2023)
WARNING: Using I/O redirection is unreliable with parallel runs. Better to use the -in switch to read input files. (src/src/lammps.cpp:531)
  using 128 OpenMP thread(s) per MPI task
Reading data file ...
  orthogonal box = (-0.064128818 -0.065210396 -0.065592357) to (192.71368 195.96393 197.11176)
  4 by 4 by 8 MPI processor grid
  reading atoms ...
  433690 atoms
  reading velocities ...
  433690 velocities
Finding 1-2 1-3 1-4 neighbors ...
  special bond factors lj:    0        0        0       
  special bond factors coul:  0        0        0       
     0 = max # of 1-2 neighbors
     0 = max # of 1-3 neighbors
     0 = max # of 1-4 neighbors
     1 = max # of special neighbors
  special bonds CPU = 0.086 seconds
  read_data CPU = 2.901 seconds
115224 atoms in group Li
PPPM initialization ...
  using 12-bit tables for long-range coulomb (src/src/kspace.cpp:342)
  G vector (1/distance) = 0.27457533
  grid = 128 128 135
  stencil order = 5
  estimated absolute RMS force accuracy = 0.0017890061
  estimated relative force accuracy = 0.0001242396
  using double precision MKL FFT
  3d grid and FFT values/proc = 31487 32768
Generated 0 of 10 mixed pair_coeff terms from geometric mixing rule
Neighbor list info ...
  update: every = 1 steps, delay = 0 steps, check = yes
  max neighbors/atom: 5000, page size: 100000
  master list distance cutoff = 11.3
  ghost atom cutoff = 11.3
  binsize = 5.65, bins = 35 35 35
  3 neighbor lists, perpetual/occasional/extra = 3 0 0
  (1) pair buck/coul/long, perpetual
      attributes: half, newton on
      pair build: half/bin/newton
      stencil: half/bin/3d
      bin: standard
  (2) pair lennard/mdf, perpetual, skip from (3)
      attributes: half, newton on, cut 3.8
      pair build: skip
      stencil: none
      bin: none
  (3) neighbor class addition, perpetual, trim from (1)
      attributes: half, newton on, cut 3.8
      pair build: trim
      stencil: none
      bin: none
Setting up cg style minimization ...
  Unit style    : metal
  Current step  : 0
Per MPI rank memory allocation (min/avg/max) = 224.5 | 261.1 | 298.8 Mbytes
   Step          Temp          E_pair         E_mol          TotEng         Press     
         0   299.27539     -4980159.1      0             -4963382.1     -220.43325    
       350   299.27539     -4997265.7      0             -4980488.7     -4255.3635    
Loop time of 49.7322 on 16384 procs for 350 steps with 433690 atoms

78.5% CPU use with 128 MPI tasks x 128 OpenMP threads

Minimization stats:
  Stopping criterion = linesearch alpha is zero
  Energy initial, next-to-last, final = 
     -4980159.13396529  -4997265.72941013  -4997265.72941013
  Force two-norm initial, final = 633.74364 0.53319393
  Force max component initial, final = 4.2398243 0.22392472
  Final line search alpha, max atom move = 4.2707875e-08 9.563349e-09
  Iterations, force evaluations = 350 678

MPI task timing breakdown:
Section |  min time  |  avg time  |  max time  |%varavg| %total
---------------------------------------------------------------
Pair    | 18.364     | 29.191     | 39.507     | 153.4 | 58.70
Bond    | 5.2921e-05 | 0.00012214 | 0.00023622 |   0.0 |  0.00
Kspace  | 7.6956     | 18.383     | 29.55      | 200.8 | 36.96
Neigh   | 0.4701     | 0.78562    | 1.0922     |  27.8 |  1.58
Comm    | 0.72437    | 0.98432    | 1.1984     |  15.8 |  1.98
Output  | 0          | 0          | 0          |   0.0 |  0.00
Modify  | 0          | 0          | 0          |   0.0 |  0.00
Other   |            | 0.3886     |            |       |  0.78

Nlocal:         3388.2 ave        4458 max        2228 min
Histogram: 17 31 16 0 0 0 0 0 16 48
Nghost:        10993.8 ave       12723 max        9181 min
Histogram: 36 28 0 0 0 0 0 0 4 60
Neighs:         812110 ave  1.1149e+06 max      497694 min
Histogram: 24 32 8 0 0 0 0 6 26 32

Total # of neighbors = 1.0395008e+08
Ave neighs/atom = 239.68751
Ave special neighs/atom = 0
Neighbor list builds = 31
Dangerous builds = 0
PPPM initialization ...
  using 12-bit tables for long-range coulomb (src/src/kspace.cpp:342)
  G vector (1/distance) = 0.27457533
  grid = 128 128 135
  stencil order = 5
  estimated absolute RMS force accuracy = 0.0017890061
  estimated relative force accuracy = 0.0001242396
  using double precision MKL FFT
  3d grid and FFT values/proc = 31487 32768
Generated 0 of 10 mixed pair_coeff terms from geometric mixing rule
Setting up Verlet run ...
  Unit style    : metal
  Current step  : 0
  Time step     : 0.002
Per MPI rank memory allocation (min/avg/max) = 223.4 | 259.4 | 296.6 Mbytes
   Step          Temp          TotEng           Lx             Ly             Lz           Press     
         0   299.27539     -4980488.7      192.77781      196.02914      197.17735     -4255.3635    
      1000   308.23154     -4962291.1      193.1494       196.407        197.55742     -15.869193    
      2000   315.96087     -4961415.9      193.10641      196.36329      197.51346      21.483656    
      3000   323.80516     -4960523.6      193.04228      196.29807      197.44786      26.326582    
      4000   332.1702      -4959574.8      193.02592      196.28144      197.43113      61.02332     
      5000   340.5796      -4958669.9      193.01684      196.27221      197.42184      38.132288    
      6000   347.88544     -4957786.9      193.02123      196.27667      197.42633     -2.7780212    
      7000   355.22428     -4956887.9      193.00212      196.25723      197.40678     -65.638198    
      8000   363.37756     -4955930.7      192.97308      196.22771      197.37708     -23.514202    
      9000   372.36325     -4954941.7      192.97053      196.22511      197.37447     -14.416059    
     10000   380.01655     -4953994.4      192.96764      196.22218      197.37152      95.479308    
     11000   387.10851     -4953121.8      192.98962      196.24453      197.394        71.728869    
     12000   395.40186     -4952173.5      193.01869      196.27409      197.42373     -8.8373309    
     13000   403.4992      -4951221.7      193.03606      196.29175      197.4415      -89.606288    
     14000   412.42995     -4950215.2      193.05707      196.31311      197.46299     -23.120524    
     15000   419.88423     -4949278.3      193.09142      196.34805      197.49813      64.285675    
     16000   427.46542     -4948414.5      193.13245      196.38977      197.54009     -69.343585    
     17000   435.27715     -4947444.2      193.17429      196.43232      197.58289     -118.27431    
     18000   444.0492      -4946504.3      193.19732      196.45573      197.60644      67.758405    
     19000   452.13501     -4945511.6      193.24687      196.50612      197.65712     -90.122146    
     20000   459.59079     -4944654.3      193.28894      196.54889      197.70015     -147.1563     
     21000   467.75366     -4943618.5      193.32891      196.58954      197.74103     -101.70734    
     22000   475.32519     -4942686.2      193.36711      196.62838      197.7801      -103.56639    
     23000   484.12557     -4941715.5      193.37753      196.63898      197.79076      101.95837    
     24000   492.85664     -4940750.5      193.42339      196.68562      197.83767     -21.319024    
     25000   500.16782     -4939854.3      193.45614      196.71892      197.87117     -80.60481     
     26000   507.88858     -4938858.2      193.48004      196.74322      197.89561      30.889324    
     27000   515.38417     -4937959        193.50793      196.77158      197.92414     -21.38468     
     28000   524.36949     -4936933.1      193.52808      196.79207      197.94475      117.21678    
     29000   531.89074     -4936057.2      193.53456      196.79865      197.95137      108.17725    
     30000   540.14406     -4935094.6      193.57271      196.83745      197.99039      114.67403    
     31000   547.68673     -4934150.3      193.61702      196.88251      198.03572     -162.85108    
     32000   556.35542     -4933177.5      193.63101      196.89674      198.05003     -31.188608    
     33000   563.63186     -4932338        193.64795      196.91396      198.06736      4.3908933    
     34000   571.91463     -4931347.7      193.68321      196.94982      198.10342      17.301018    
     35000   580.29753     -4930321.2      193.69902      196.96589      198.11959      56.360929    
     36000   588.05939     -4929389.8      193.73442      197.00189      198.1558       84.173362    
     37000   595.02906     -4928491.4      193.78112      197.04938      198.20357     -46.297652    
     38000   603.4896      -4927445.6      193.79148      197.05991      198.21416      25.152117    
     39000   612.58367     -4926480.1      193.84885      197.11825      198.27284     -103.0061     
     40000   620.85485     -4925481.4      193.87944      197.14935      198.30412     -105.5142     
     41000   627.35888     -4924705.9      193.87994      197.14987      198.30464      148.66767    
     42000   637.265       -4923616.8      193.91013      197.18056      198.33552      49.369177    
     43000   643.55372     -4922705.7      193.94584      197.21687      198.37204      12.882947    
     44000   650.97695     -4921803.7      193.95387      197.22504      198.38026      191.72872    
     45000   659.19859     -4920882.3      193.97486      197.24639      198.40173      145.68401    
     46000   666.40113     -4919948.3      194.01293      197.28509      198.44066      37.09622     
     47000   676.17604     -4918839        194.06306      197.33607      198.49193     -10.786219    
     48000   682.15617     -4918100.7      194.0686       197.3417       198.4976       32.525664    
     49000   693.31912     -4916884.8      194.14556      197.41997      198.57633     -168.65307    
     50000   700.75702     -4915915.3      194.16074      197.43539      198.59184     -21.070032    
Loop time of 3611.82 on 16384 procs for 50000 steps with 433690 atoms

Performance: 2.392 ns/day, 10.033 hours/ns, 13.843 timesteps/s, 6.004 Matom-step/s
77.7% CPU use with 128 MPI tasks x 128 OpenMP threads

MPI task timing breakdown:
Section |  min time  |  avg time  |  max time  |%varavg| %total
---------------------------------------------------------------
Pair    | 1053.3     | 1702.6     | 2289.4     |1179.3 | 47.14
Bond    | 0.004201   | 0.0099018  | 0.01859    |   3.0 |  0.00
Kspace  | 601.68     | 1279.9     | 2026.1     |1580.2 | 35.44
Neigh   | 136.87     | 232.78     | 321.94     | 482.5 |  6.45
Comm    | 63.288     | 83.584     | 100.38     | 129.5 |  2.31
Output  | 0.0068161  | 0.0072039  | 0.008256   |   0.2 |  0.00
Modify  | 148.07     | 178.55     | 310.33     | 228.6 |  4.94
Other   |            | 134.4      |            |       |  3.72

Nlocal:         3388.2 ave        4476 max        2186 min
Histogram: 16 32 16 0 0 0 0 0 24 40
Nghost:        10842.2 ave       12568 max        9035 min
Histogram: 39 25 0 0 0 0 0 0 12 52
Neighs:         789500 ave 1.08098e+06 max      472212 min
Histogram: 24 28 12 0 0 0 0 1 31 32

Total # of neighbors = 1.0105595e+08
Ave neighs/atom = 233.01425
Ave special neighs/atom = 0
Neighbor list builds = 9051
Dangerous builds = 0
PPPM initialization ...
  using 12-bit tables for long-range coulomb (src/src/kspace.cpp:342)
  G vector (1/distance) = 0.275475
  grid = 128 135 135
  stencil order = 5
  estimated absolute RMS force accuracy = 0.0016817098
  estimated relative force accuracy = 0.00011678828
  using double precision MKL FFT
  3d grid and FFT values/proc = 34040 34560
Generated 0 of 10 mixed pair_coeff terms from geometric mixing rule
Setting up Verlet run ...
  Unit style    : metal
  Current step  : 0
  Time step     : 0.002
Per MPI rank memory allocation (min/avg/max) = 224.9 | 261.2 | 298.6 Mbytes
   Step          Temp          TotEng           Lx             Ly             Lz           Press     
         0   700.75702     -4915913.6      194.16074      197.43539      198.59184     -18.334537    
      1000   700.68298     -4915983.3      194.14016      197.41447      198.5708       133.60012    
      2000   700.24785     -4916041.9      194.15572      197.4303       198.58672      22.518202    
      3000   700.95984     -4915855.3      194.15168      197.42618      198.58258      4.8835444    
      4000   700.1016      -4916152.5      194.1495       197.42397      198.58035     -14.626058    
      5000   700.7816      -4915920.7      194.13343      197.40763      198.56391     -3.1900241    
      6000   700.64572     -4915976.8      194.13801      197.41229      198.5686       40.063059    
      7000   700.18325     -4916128.6      194.14528      197.41968      198.57604      55.874925    
      8000   700.84679     -4915981.8      194.14474      197.41912      198.57548      66.901085    
      9000   699.89345     -4916093.6      194.14007      197.41438      198.57071      97.972327    
     10000   698.78012     -4916133.2      194.14413      197.41851      198.57486      4.3130738    
     11000   699.23064     -4916154.1      194.1546       197.42916      198.58557     -70.805476    
     12000   699.52928     -4916136.2      194.13457      197.40879      198.56508      78.348441    
     13000   699.08735     -4916123.4      194.14221      197.41656      198.5729       120.42374    
     14000   700.06223     -4916121        194.14829      197.42274      198.57911      102.57279    
     15000   699.93966     -4916121        194.14489      197.41928      198.57564      82.862784    
     16000   700.31011     -4916132.8      194.16263      197.43732      198.59378     -127.90955    
     17000   698.94483     -4916176.5      194.16089      197.43555      198.592        51.85555     
     18000   700.19202     -4916176.3      194.16119      197.43586      198.59231     -69.280878    
     19000   700.20603     -4916199        194.14399      197.41837      198.57472     -13.041951    
     20000   700.16059     -4916076.9      194.14889      197.42335      198.57973      28.437129    
     21000   701.1288      -4916017.4      194.12981      197.40394      198.56021      129.72965    
     22000   700.69881     -4916068.8      194.13612      197.41037      198.56667     -9.5845794    
     23000   698.97603     -4916209.8      194.13506      197.40929      198.56558      96.587859    
     24000   700.27014     -4916132.3      194.1484       197.42285      198.57923      108.81755    
     25000   701.90782     -4915979.2      194.16464      197.43936      198.59584     -177.62021    
     26000   700.26333     -4916258.3      194.1345       197.40871      198.565        172.46806    
     27000   699.67832     -4916122.6      194.16131      197.43597      198.59243     -22.845044    
     28000   699.46936     -4916214.8      194.13397      197.40818      198.56446      53.625332    
     29000   699.24549     -4916221.3      194.13936      197.41366      198.56998      27.79344     
     30000   699.06161     -4916343.4      194.14057      197.41489      198.57122     -99.769244    
     31000   699.53745     -4916359.6      194.14312      197.41749      198.57383     -148.53732    
     32000   699.12948     -4916313.2      194.13776      197.41203      198.56834      58.83118     
     33000   699.81568     -4916335.4      194.15468      197.42924      198.58565     -91.780165    
     34000   700.0301      -4916224.7      194.16708      197.44185      198.59834     -78.79581     
     35000   700.03176     -4916200.1      194.13519      197.40942      198.56572      301.77814    
     36000   700.30626     -4916154.5      194.16155      197.43623      198.59268      42.982147    
     37000   700.23667     -4916296        194.15178      197.42629      198.58268     -0.38246476   
     38000   699.21279     -4916328        194.13432      197.40854      198.56483      85.519412    
     39000   698.71257     -4916506        194.12434      197.39838      198.55462      152.37663    
     40000   700.43092     -4916262.7      194.14775      197.42219      198.57856      59.462364    
     41000   699.40789     -4916296.5      194.13607      197.41031      198.56661      152.6584     
     42000   700.39308     -4916168        194.13513      197.40935      198.56565      171.27886    
     43000   699.6266      -4916222.6      194.15091      197.42541      198.5818      -29.573779    
     44000   700.27036     -4916247.5      194.17025      197.44507      198.60158     -195.39157    
     45000   700.53693     -4916300.4      194.137        197.41126      198.56756      104.42148    
     46000   699.7226      -4916292.2      194.14792      197.42236      198.57873      33.766582    
     47000   700.08358     -4916325.5      194.15348      197.42802      198.58442     -61.48762     
     48000   698.99777     -4916489.1      194.13938      197.41368      198.57         34.695363    
     49000   700.08804     -4916238.3      194.1366       197.41085      198.56716      59.427551    
     50000   700.59924     -4916207.8      194.16593      197.44067      198.59715     -56.381691    
     51000   701.06002     -4916234.4      194.14524      197.41964      198.57599     -32.353932    
     52000   699.40994     -4916404.2      194.15177      197.42628      198.58267     -86.40973     
     53000   700.10173     -4916282.7      194.14322      197.41758      198.57392      138.12548    
     54000   701.95        -4916218.5      194.15001      197.42448      198.58087      99.601385    
     55000   699.62285     -4916353.5      194.16814      197.44293      198.59942      21.762508    
     56000   699.67174     -4916385.1      194.15054      197.42503      198.58141     -55.991053    
     57000   699.74467     -4916272.5      194.14775      197.42219      198.57856     -61.326732    
     58000   700.07589     -4916343.8      194.14808      197.42253      198.5789      -59.769102    
     59000   699.97965     -4916245.2      194.15585      197.43043      198.58685     -1.6370268    
     60000   699.44798     -4916340.1      194.16207      197.43675      198.59321     -209.50753    
     61000   699.69994     -4916257.8      194.14707      197.4215       198.57787      50.012846    
     62000   700.001       -4916466.2      194.1425       197.41685      198.57319      20.074043    
     63000   701.71908     -4916297        194.17569      197.4506       198.60714     -139.9551     
     64000   700.81428     -4916330.9      194.16252      197.43721      198.59367     -137.25393    
     65000   701.0512      -4916281.1      194.14543      197.41983      198.57619      97.701583    
     66000   698.74763     -4916366.1      194.14191      197.41625      198.57259      37.943027    
     67000   699.81724     -4916285.9      194.13872      197.41301      198.56933      40.523709    
     68000   699.20581     -4916429.6      194.14415      197.41853      198.57488     -112.9426     
     69000   698.82154     -4916497.8      194.13815      197.41243      198.56875     -96.554125    
     70000   697.93405     -4916502.8      194.13214      197.40632      198.5626       170.07793    
     71000   700.50064     -4916300        194.14683      197.42125      198.57761      7.870352     
     72000   700.78675     -4916428.9      194.1501       197.42458      198.58097      14.294133    
     73000   699.77596     -4916441.8      194.15813      197.43274      198.58918      67.020296    
     74000   700.64485     -4916261.5      194.16334      197.43804      198.59451      73.882997    
     75000   700.66522     -4916284.6      194.15448      197.42903      198.58544      50.582563    
     76000   699.26529     -4916446.5      194.15506      197.42962      198.58604     -83.725582    
     77000   698.29271     -4916459.5      194.14742      197.42186      198.57823      50.662029    
     78000   701.18768     -4916358.2      194.12305      197.39707      198.5533       56.310666    
     79000   699.4596      -4916483.7      194.11898      197.39294      198.54914      24.194817    
     80000   700.51172     -4916360.5      194.12933      197.40345      198.55972      136.93816    
     81000   701.06945     -4916411.2      194.11825      197.39219      198.54839      27.34883     
     82000   698.70556     -4916456.5      194.14035      197.41467      198.57099     -18.60139     
     83000   699.54193     -4916422.8      194.15162      197.42612      198.58252     -37.770419    
     84000   701.588       -4916222.7      194.14693      197.42135      198.57772      30.476625    
     85000   699.64382     -4916421.2      194.15466      197.42922      198.58563      19.844107    
     86000   699.68115     -4916464.8      194.13487      197.40909      198.56538      51.957478    
     87000   700.67536     -4916291        194.1521       197.42661      198.58301     -17.700026    
     88000   700.85058     -4916368.9      194.14699      197.42142      198.57778      9.5748496    
     89000   700.49454     -4916410        194.1518       197.42631      198.5827       22.099186    
     90000   701.82957     -4916357.9      194.14911      197.42357      198.57995     -57.617712    
     91000   700.24603     -4916351.5      194.14776      197.4222       198.57857      28.68494     
     92000   700.4071      -4916449        194.10879      197.38257      198.53871      190.07433    
     93000   701.21826     -4916437.5      194.13513      197.40936      198.56566     -7.0441231    
     94000   700.00607     -4916443.6      194.11475      197.38864      198.54481      146.75476    
     95000   699.28649     -4916512.5      194.13302      197.40721      198.5635       85.60722     
     96000   700.70266     -4916430.9      194.13453      197.40875      198.56504     -3.3613485    
     97000   700.7259      -4916463.6      194.16011      197.43476      198.5912      -165.34082    
     98000   700.90374     -4916375.4      194.12933      197.40345      198.55972     -104.23634    
     99000   699.72294     -4916483.5      194.1485       197.42295      198.57933     -76.351999    
    100000   700.82484     -4916447.5      194.14139      197.41573      198.57206     -51.368239    
    101000   699.45319     -4916489.3      194.1525       197.42702      198.58342     -102.15968    
    102000   698.58605     -4916536.9      194.16347      197.43818      198.59464     -85.464029    
    103000   700.55954     -4916456.7      194.15204      197.42656      198.58295     -115.8866     
    104000   699.18316     -4916547.9      194.16089      197.43555      198.592       -85.219444    
    105000   699.65721     -4916408.7      194.14975      197.42423      198.58061      68.175841    
    106000   699.98737     -4916423.4      194.16025      197.4349       198.59135     -2.3382187    
    107000   700.33561     -4916484.4      194.13427      197.40848      198.56477      98.534944    
    108000   699.43322     -4916455.3      194.1491       197.42356      198.57994     -40.952268    
    109000   700.7841      -4916403.3      194.14144      197.41577      198.5721      -92.206714    
    110000   699.38864     -4916505.4      194.14354      197.41791      198.57425      27.074757    
    111000   699.84377     -4916457.9      194.12919      197.40332      198.55958      85.938432    
    112000   700.39442     -4916565.7      194.14047      197.41479      198.57112      55.061687    
    113000   701.22547     -4916403.2      194.1507       197.42519      198.58158     -46.153489    
    114000   700.81969     -4916451.3      194.15954      197.43418      198.59062     -29.011945    
    115000   700.80038     -4916381.9      194.17388      197.44876      198.60528     -36.701088    
    116000   700.84926     -4916427        194.1381       197.41238      198.56869      163.19149    
    117000   699.0695      -4916443.6      194.15146      197.42597      198.58236      100.73938    
    118000   699.35935     -4916589        194.1473       197.42173      198.5781      -24.240688    
    119000   700.3379      -4916408.1      194.14608      197.42049      198.57685     -75.853681    
    120000   700.10846     -4916476.5      194.149        197.42346      198.57984     -132.23556    
    121000   699.51678     -4916464        194.15209      197.4266       198.583       -140.51911    
    122000   700.73555     -4916382.2      194.14572      197.42013      198.57649     -221.22225    
    123000   699.1627      -4916635.7      194.12345      197.39748      198.5537      -55.026754    
    124000   698.95474     -4916564.8      194.13489      197.40912      198.56541      59.629191    
    125000   700.50913     -4916447.7      194.15753      197.43214      198.58857     -101.20006    
    126000   699.64029     -4916521.4      194.14495      197.41934      198.57569      108.73436    
    127000   699.75843     -4916540.4      194.14013      197.41445      198.57077      242.76886    
    128000   700.3189      -4916497.7      194.1649       197.43963      198.59611     -120.73351    
    129000   699.28022     -4916423.1      194.16171      197.43638      198.59284     -61.748184    
    130000   698.63439     -4916572.2      194.11741      197.39134      198.54753      122.6102     
    131000   701.01264     -4916506.1      194.14047      197.41478      198.57111     -10.25236     
    132000   700.82974     -4916414.6      194.17928      197.45425      198.61081     -101.01998    
    133000   699.11585     -4916468.4      194.13871      197.413        198.56932      263.23437    
    134000   698.91206     -4916455.9      194.16163      197.4363       198.59276     -99.541088    
    135000   698.42365     -4916713.8      194.14511      197.4195       198.57586     -118.22495    
    136000   699.53145     -4916507.7      194.14984      197.42432      198.5807       90.763608    
    137000   700.89904     -4916576.1      194.13997      197.41428      198.57061      62.61395     
    138000   697.5489      -4916579.7      194.13709      197.41135      198.56766      119.65167    
    139000   700.50068     -4916496.2      194.14303      197.41739      198.57374     -45.006062    
    140000   700.13658     -4916443.3      194.15045      197.42494      198.58132      0.63296657   
    141000   699.43985     -4916526.2      194.14971      197.42418      198.58056     -95.353282    
    142000   700.75501     -4916550.4      194.14779      197.42223      198.5786      -3.9000439    
    143000   701.14683     -4916383.2      194.15601      197.43059      198.58701      16.651033    
    144000   699.79989     -4916617.4      194.14115      197.41547      198.57181     -32.374117    
    145000   700.8108      -4916452.4      194.14494      197.41934      198.57569      93.881088    
    146000   700.70063     -4916541.2      194.1222       197.39621      198.55243      50.322401    
    147000   699.23345     -4916579.5      194.15329      197.42782      198.58422      2.6599786    
    148000   698.75482     -4916508.4      194.13356      197.40776      198.56405      51.625125    
    149000   699.91036     -4916422.1      194.15424      197.42879      198.5852      -48.665852    
    150000   699.41025     -4916611        194.13851      197.4128       198.56911      111.8221     
    151000   699.04117     -4916469.6      194.16309      197.43779      198.59425      75.895564    
    152000   700.51508     -4916458.2      194.15067      197.42516      198.58155      68.339934    
    153000   699.95338     -4916531.8      194.14629      197.42071      198.57707     -109.50825    
    154000   698.2014      -4916655.8      194.14366      197.41803      198.57438     -96.681007    
    155000   698.70967     -4916596.8      194.14009      197.4144       198.57073     -86.125753    
    156000   700.20556     -4916591.4      194.12308      197.3971       198.55333     -14.924686    
    157000   700.36481     -4916563        194.14658      197.421        198.57737     -160.44274    
    158000   700.15657     -4916463.3      194.13365      197.40786      198.56414      124.15756    
    159000   698.89034     -4916644.5      194.14718      197.42161      198.57798     -197.7313     
    160000   699.58532     -4916553.1      194.13097      197.40512      198.5614       11.439226    
    161000   698.31974     -4916670.4      194.15491      197.42947      198.58589     -74.747282    
    162000   700.04915     -4916562.3      194.16616      197.44091      198.59739     -50.956448    
    163000   699.98508     -4916531.5      194.15301      197.42753      198.58394     -154.77821    
    164000   699.27609     -4916611.8      194.15823      197.43284      198.58928     -102.80539    
    165000   698.59974     -4916676.9      194.15352      197.42806      198.58446      16.850582    
    166000   699.63427     -4916502.1      194.14421      197.41859      198.57494      42.027391    
    167000   701.36993     -4916482.2      194.13707      197.41133      198.56763      72.293523    
    168000   700.29919     -4916575        194.12482      197.39887      198.55511      165.62798    
    169000   700.3524      -4916461.4      194.15247      197.42699      198.58339      114.46095    
    170000   701.28766     -4916413.4      194.15129      197.42579      198.58219      39.069782    
    171000   701.17207     -4916470        194.12272      197.39674      198.55296      187.94651    
    172000   699.29656     -4916597.7      194.1395       197.4138       198.57012      66.897849    
    173000   699.68217     -4916706.8      194.13691      197.41117      198.56748      36.444878    
    174000   701.06426     -4916533        194.14155      197.41589      198.57222     -39.610959    
    175000   699.08315     -4916602.7      194.12802      197.40212      198.55838      119.24108    
    176000   699.8941      -4916562.3      194.14799      197.42243      198.5788      -56.706302    
    177000   701.07674     -4916456.6      194.15007      197.42455      198.58094     -43.450545    
    178000   700.43469     -4916584.3      194.16774      197.44252      198.59901     -290.93652    
    179000   700.94218     -4916517.6      194.14043      197.41475      198.57108      53.043733    
    180000   699.46559     -4916562        194.15319      197.42772      198.58413     -87.418368    
    181000   698.63133     -4916662        194.13042      197.40457      198.56084     -66.563663    
    182000   699.9818      -4916542.9      194.13712      197.41138      198.56769      59.305501    
    183000   701.48377     -4916538.2      194.13608      197.41032      198.56662      160.4807     
    184000   700.95803     -4916601.8      194.13634      197.41058      198.56689      145.40576    
    185000   700.02162     -4916566.6      194.16702      197.44178      198.59827     -107.64852    
    186000   700.76417     -4916538.8      194.14651      197.42093      198.57729     -51.402457    
    187000   700.02886     -4916584.3      194.15165      197.42616      198.58255     -132.92433    
    188000   700.005       -4916492        194.14126      197.41559      198.57192     -63.169519    
    189000   699.2495      -4916571.1      194.1228       197.39682      198.55305      69.577683    
    190000   698.96477     -4916677.6      194.13576      197.40999      198.56629     -23.434362    
    191000   700.26027     -4916579.1      194.15679      197.43138      198.58781      32.3688      
    192000   699.83091     -4916537.3      194.14019      197.4145       198.57083     -7.487379     
    193000   699.55507     -4916667.2      194.1466       197.42102      198.57739     -53.622       
    194000   700.16041     -4916587.5      194.14696      197.42138      198.57775     -64.180193    
    195000   701.0351      -4916491.8      194.15458      197.42913      198.58554     -121.8307     
    196000   699.59796     -4916705.8      194.12719      197.40129      198.55754      90.461519    
    197000   700.73605     -4916584.4      194.1261       197.40018      198.55642     -15.826365    
    198000   699.55054     -4916589.6      194.13353      197.40773      198.56402      27.150422    
    199000   700.61453     -4916596.3      194.1419       197.41624      198.57258     -45.707776    
    200000   699.49977     -4916654.7      194.13073      197.40488      198.56115      80.223795    
    201000   701.06224     -4916526        194.1382       197.41248      198.5688       171.97926    
    202000   699.27245     -4916619.7      194.14949      197.42395      198.58034     -232.00081    
    203000   700.53225     -4916548.3      194.13258      197.40676      198.56304      26.503928    
    204000   700.87253     -4916660.7      194.12325      197.39727      198.5535      -29.109343    
    205000   698.92332     -4916645.5      194.14163      197.41596      198.5723       22.725831    
    206000   700.81474     -4916574.2      194.14462      197.41901      198.57536      83.720513    
    207000   700.50575     -4916665.5      194.15298      197.42751      198.58391     -124.68708    
    208000   698.17174     -4916693.7      194.15333      197.42786      198.58427     -156.24856    
    209000   700.20918     -4916556.5      194.14707      197.42149      198.57786      2.4845357    
    210000   699.51215     -4916649.9      194.15253      197.42705      198.58345     -13.853267    
    211000   700.05108     -4916652.7      194.14454      197.41892      198.57528     -8.4789878    
    212000   699.1287      -4916640.5      194.15041      197.4249       198.58128      6.5695207    
    213000   699.29095     -4916726.4      194.1417       197.41604      198.57237      69.796429    
    214000   699.12739     -4916585.3      194.14261      197.41697      198.57331      43.366806    
    215000   699.35942     -4916687.5      194.16463      197.43936      198.59583     -150.80994    
    216000   699.94262     -4916641        194.14591      197.42032      198.57668      14.707354    
    217000   700.35246     -4916598.4      194.14978      197.42425      198.58063      2.8132545    
    218000   698.40115     -4916739.1      194.1385       197.41278      198.56909     -88.413085    
    219000   701.00547     -4916535.9      194.14621      197.42062      198.57699     -19.358308    
    220000   700.81152     -4916639.9      194.13301      197.4072       198.56348      35.350981    
    221000   698.15111     -4916798        194.13692      197.41118      198.56749      125.637      
    222000   700.29689     -4916670        194.13911      197.4134       198.56972      22.973486    
    223000   698.44528     -4916776.1      194.11938      197.39334      198.54955      51.195928    
    224000   700.53378     -4916493        194.14677      197.4212       198.57756     -120.92351    
    225000   699.20195     -4916749.4      194.13193      197.4061       198.56238      29.321248    
    226000   701.72226     -4916541.6      194.13052      197.40467      198.56094      69.791823    
    227000   699.10126     -4916774.9      194.13385      197.40806      198.56435     -131.05028    
    228000   700.34455     -4916621        194.11491      197.3888       198.54498      202.50965    
    229000   700.06922     -4916584.9      194.1259       197.39997      198.55621      4.9459621    
    230000   698.44692     -4916671.9      194.11975      197.39372      198.54993      10.049728    
    231000   700.82026     -4916568.6      194.13298      197.40717      198.56345     -16.661359    
    232000   699.87209     -4916653.2      194.13613      197.41037      198.56667     -9.8807184    
    233000   700.07586     -4916669.9      194.14828      197.42273      198.5791      -86.126334    
    234000   699.63058     -4916710.4      194.13123      197.40539      198.56166      119.0299     
    235000   699.18267     -4916672.8      194.15619      197.43077      198.58719      42.878398    
    236000   699.76328     -4916678.5      194.1515       197.42601      198.5824      -103.61456    
    237000   701.31261     -4916552.7      194.14961      197.42408      198.58046     -48.92905     
    238000   701.29848     -4916605.1      194.12934      197.40347      198.55973      134.15008    
    239000   700.49995     -4916558.5      194.14454      197.41893      198.57528     -78.869022    
    240000   701.19278     -4916560.1      194.15557      197.43014      198.58656     -138.12566    
    241000   701.50812     -4916524.2      194.14889      197.42335      198.57972      126.18167    
    242000   698.71766     -4916675.2      194.15244      197.42696      198.58336      15.369082    
    243000   699.72811     -4916702.7      194.15111      197.42561      198.582        6.9675162    
    244000   700.60243     -4916572.8      194.14964      197.42412      198.5805       2.7501329    
    245000   698.7986      -4916703.4      194.155        197.42956      198.58598      15.544346    
    246000   700.93967     -4916507.1      194.14774      197.42218      198.57855     -45.433252    
    247000   699.36335     -4916777.2      194.11394      197.38781      198.54398      242.21022    
    248000   700.10836     -4916554.5      194.14795      197.42239      198.57876     -23.802396    
    249000   698.52689     -4916727.4      194.13781      197.41208      198.5684      -37.611091    
    250000   699.70094     -4916777.7      194.12554      197.3996       198.55584      20.241861    
    251000   700.11292     -4916639.2      194.13233      197.40651      198.56279      3.3942505    
    252000   698.53585     -4916807.7      194.12211      197.39612      198.55234      29.371622    
    253000   697.95168     -4916708.8      194.16201      197.43669      198.59315     -229.27292    
    254000   697.68184     -4916733.8      194.14855      197.42301      198.57938     -26.494512    
    255000   701.43843     -4916563.3      194.15421      197.42876      198.58517     -153.00877    
    256000   698.472       -4916768.4      194.15754      197.43215      198.58858     -315.40818    
    257000   700.21791     -4916733.4      194.14276      197.41711      198.57345     -103.46253    
    258000   700.67189     -4916628.6      194.14618      197.42059      198.57695      41.72779     
    259000   700.50055     -4916529.6      194.1562       197.43078      198.5872      -112.11592    
    260000   700.86425     -4916627        194.14393      197.41831      198.57465      3.6364453    
    261000   700.20285     -4916594.1      194.14818      197.42263      198.57901      24.410054    
    262000   699.2956      -4916749.4      194.15205      197.42656      198.58295      17.553599    
    263000   700.52335     -4916689        194.14208      197.41642      198.57276      33.28639     
    264000   699.67055     -4916602.9      194.1539       197.42845      198.58485     -168.04991    
    265000   700.84233     -4916553.6      194.16657      197.44132      198.59781     -36.32368     
    266000   700.22079     -4916753        194.13282      197.40701      198.56329      155.89424    
    267000   700.20949     -4916651.4      194.14776      197.4222       198.57858      46.815987    
    268000   699.86788     -4916714.3      194.13909      197.41338      198.5697       121.83439    
    269000   698.4428      -4916805.9      194.13268      197.40686      198.56314      152.75721    
    270000   700.38712     -4916667        194.13252      197.4067       198.56298      48.725752    
    271000   700.40681     -4916577.2      194.14826      197.42271      198.57908     -85.008723    
    272000   700.2016      -4916665.7      194.12472      197.39877      198.555        134.27622    
    273000   699.81656     -4916773.8      194.12986      197.404        198.56026      123.26789    
    274000   698.92283     -4916769.5      194.11824      197.39218      198.54838      246.97378    
    275000   701.13036     -4916610.7      194.14293      197.41729      198.57363     -76.816928    
    276000   700.06828     -4916715.5      194.12936      197.40349      198.55975      254.55734    
    277000   699.36192     -4916665.7      194.16149      197.43616      198.59262      9.9557992    
    278000   700.2728      -4916710.2      194.16278      197.43747      198.59393     -105.26172    
    279000   700.32633     -4916726.3      194.11552      197.38942      198.5456       262.54077    
    280000   702.22751     -4916576.6      194.14515      197.41955      198.57591     -56.175508    
    281000   701.27534     -4916592.2      194.14442      197.4188       198.57515      35.974329    
    282000   699.48158     -4916666.2      194.1367       197.41095      198.56725      57.799901    
    283000   699.20461     -4916568.6      194.13928      197.41358      198.5699       32.187939    
    284000   698.71791     -4916683.5      194.14562      197.42002      198.57638      9.8720524    
    285000   701.28083     -4916714.7      194.12383      197.39786      198.55409      15.461505    
    286000   698.384       -4916860.1      194.12896      197.40308      198.55934      15.040533    
    287000   698.04558     -4916829.5      194.16154      197.43621      198.59266     -110.85445    
    288000   699.36434     -4916682.5      194.12612      197.40019      198.55644      102.77615    
    289000   700.90263     -4916572.1      194.1483       197.42275      198.57912     -9.2702624    
    290000   700.47289     -4916672.8      194.13788      197.41216      198.56847      10.530967    
    291000   698.68542     -4916722.6      194.15834      197.43295      198.58939     -178.47594    
    292000   699.87048     -4916746.7      194.13234      197.40652      198.5628       170.49528    
    293000   700.22225     -4916607.2      194.15544      197.43001      198.58642     -7.5260554    
    294000   699.74174     -4916666.3      194.13075      197.4049       198.56117      115.40226    
    295000   699.55317     -4916667.2      194.12636      197.40044      198.55668     -15.119063    
    296000   699.35446     -4916738.4      194.1093       197.38309      198.53923      75.796683    
    297000   699.43806     -4916631.2      194.13317      197.40737      198.56365     -14.339694    
    298000   699.62815     -4916693        194.14248      197.41683      198.57317     -193.74267    
    299000   700.10261     -4916656        194.14974      197.42422      198.5806      -73.615749    
    300000   700.6016      -4916705.5      194.14415      197.41853      198.57488     -66.202759    
    301000   700.41911     -4916688.9      194.15274      197.42726      198.58366     -37.310642    
    302000   700.45972     -4916574.1      194.16147      197.43614      198.5926      -128.42512    
    303000   699.73183     -4916661.3      194.15301      197.42754      198.58395     -86.169225    
    304000   700.1572      -4916677.8      194.13365      197.40786      198.56414     -26.224893    
    305000   699.71996     -4916642.4      194.13466      197.40888      198.56517     -65.272273    
    306000   698.94263     -4916832.5      194.13015      197.40429      198.56056      25.942391    
    307000   700.77612     -4916590.8      194.10759      197.38135      198.53748      118.62424    
    308000   699.29311     -4916692.8      194.11908      197.39303      198.54924      92.807091    
    309000   700.66249     -4916782.9      194.12527      197.39933      198.55556     -87.5371      
    310000   700.02022     -4916684.1      194.15195      197.42646      198.58286     -132.45199    
    311000   699.54607     -4916686.7      194.13918      197.41347      198.56979      50.424538    
    312000   702.23841     -4916639        194.12761      197.40171      198.55796      266.99096    
    313000   698.77943     -4916857.7      194.13392      197.40813      198.56442      9.1140225    
    314000   700.51111     -4916821.7      194.12528      197.39934      198.55557      120.88788    
    315000   698.38858     -4916748.1      194.15213      197.42664      198.58304     -31.223873    
    316000   698.78103     -4916717.4      194.15904      197.43367      198.59011     -132.80309    
    317000   700.50528     -4916641.6      194.14245      197.4168       198.57314     -90.63757     
    318000   700.4934      -4916709.3      194.14676      197.42118      198.57755     -120.76236    
    319000   698.75524     -4916846.7      194.13127      197.40543      198.5617      -74.84202     
    320000   700.31015     -4916743.3      194.13707      197.41133      198.56764      2.0896144    
    321000   697.94237     -4916832.9      194.13272      197.40691      198.56319      27.727533    
    322000   698.91176     -4916752.3      194.14286      197.41721      198.57355     -14.695302    
    323000   700.13134     -4916715        194.11344      197.3873       198.54346      255.57226    
    324000   699.04189     -4916758.1      194.13259      197.40677      198.56305      165.85279    
    325000   699.70293     -4916720.8      194.14169      197.41603      198.57236     -38.351929    
    326000   699.64535     -4916775.1      194.11649      197.3904       198.54659      173.43278    
    327000   700.55298     -4916674.8      194.13088      197.40503      198.56131      202.15899    
    328000   701.13129     -4916617.8      194.14105      197.41537      198.5717       28.735162    
    329000   701.48216     -4916514.9      194.15775      197.43236      198.58879     -64.5097      
    330000   700.33942     -4916746.4      194.14797      197.42241      198.57879     -59.51022     
    331000   699.04947     -4916700.5      194.1582       197.43282      198.58925     -66.092929    
    332000   699.92772     -4916698        194.13968      197.41398      198.57031     -68.983997    
    333000   698.91715     -4916807.3      194.14751      197.42195      198.57832     -128.69565    
    334000   699.9055      -4916741.3      194.13448      197.40869      198.56498     -53.507017    
    335000   701.10667     -4916581.5      194.14419      197.41857      198.57492      115.49203    
    336000   698.8077      -4916761.3      194.14863      197.42308      198.57946     -103.34414    
    337000   699.06836     -4916697.9      194.13282      197.40701      198.56329     -35.364408    
    338000   700.68262     -4916591.3      194.12077      197.39475      198.55096      171.72917    
    339000   699.56527     -4916697.1      194.16397      197.43868      198.59515     -133.21339    
    340000   700.9443      -4916605.3      194.14621      197.42063      198.57699     -44.576782    
    341000   699.07079     -4916801        194.1378       197.41207      198.56838      10.97379     
    342000   699.96467     -4916678.1      194.14889      197.42335      198.57972     -10.238139    
    343000   701.61341     -4916644.9      194.15139      197.42589      198.58229     -77.639186    
    344000   700.19009     -4916710.7      194.13451      197.40873      198.56502      120.36591    
    345000   700.71127     -4916669.5      194.14664      197.42106      198.57742     -165.49956    
    346000   700.31368     -4916724.4      194.1305       197.40465      198.56092      137.72112    
    347000   699.59415     -4916786.4      194.13275      197.40694      198.56322      78.539284    
    348000   700.40056     -4916705.8      194.12577      197.39984      198.55608      39.541221    
    349000   700.59987     -4916599        194.14344      197.41781      198.57415      50.801565    
    350000   699.85569     -4916679.2      194.13798      197.41225      198.56857      54.012572    
    351000   700.65725     -4916679.3      194.15634      197.43093      198.58735     -97.805088    
    352000   701.1455      -4916615.4      194.15531      197.42988      198.58629     -65.347409    
    353000   699.96551     -4916794.6      194.12901      197.40313      198.55939      134.14884    
    354000   699.57316     -4916824.1      194.14509      197.41948      198.57584      27.54093     
    355000   700.20042     -4916727.6      194.16508      197.43981      198.59628     -143.6774     
    356000   699.90879     -4916726.6      194.14297      197.41733      198.57367     -111.0902     
    357000   698.22703     -4916750        194.135        197.40922      198.56552      64.500536    
    358000   699.9302      -4916700.6      194.14916      197.42362      198.58        -85.981621    
    359000   700.71452     -4916685        194.16013      197.43478      198.59122     -82.95214     
    360000   699.6864      -4916638.8      194.14615      197.42056      198.57692      46.754537    
    361000   700.73924     -4916699        194.13798      197.41226      198.56857      48.306843    
    362000   699.78193     -4916839.9      194.1558       197.43037      198.58679     -100.84671    
    363000   699.88982     -4916806.2      194.1395       197.4138       198.57012     -46.248333    
    364000   699.74048     -4916691        194.14293      197.41729      198.57363      92.147687    
    365000   697.89398     -4916900.7      194.1509       197.42539      198.58178     -164.51549    
    366000   699.1413      -4916743        194.13607      197.41031      198.56661      138.56423    
    367000   699.9634      -4916727.5      194.14952      197.42399      198.58037     -31.461023    
    368000   700.83247     -4916730.4      194.1482       197.42264      198.57902     -74.667342    
    369000   699.9701      -4916758.4      194.12683      197.40092      198.55716      295.73499    
    370000   699.41997     -4916778.7      194.13888      197.41317      198.56949      19.541868    
    371000   699.54504     -4916679        194.16577      197.44052      198.59699     -124.28164    
    372000   699.52107     -4916835        194.14078      197.41511      198.57144      33.491548    
    373000   699.94274     -4916684.5      194.15712      197.43172      198.58815     -4.3074867    
    374000   699.77107     -4916773.6      194.1417       197.41604      198.57237     -83.00029     
    375000   700.54459     -4916747.1      194.13386      197.40806      198.56435      107.22133    
    376000   699.70327     -4916749.1      194.15656      197.43115      198.58757     -149.25843    
    377000   700.78304     -4916687.4      194.1322       197.40638      198.56266     -1.9364941    
    378000   699.88745     -4916739.7      194.13776      197.41203      198.56835      89.446255    
    379000   700.16331     -4916759.3      194.14202      197.41636      198.5727       30.784293    
    380000   699.60233     -4916846.2      194.14299      197.41735      198.57369     -7.3915149    
    381000   699.40191     -4916820.1      194.14318      197.41755      198.57389     -142.17364    
    382000   700.99488     -4916816.5      194.13745      197.41171      198.56802      95.639214    
    383000   701.03675     -4916670.7      194.17375      197.44863      198.60515     -91.080653    
    384000   700.33227     -4916790        194.16483      197.43956      198.59603     -78.189938    
    385000   699.42772     -4916735.9      194.15888      197.43351      198.58994     -50.603354    
    386000   700.3987      -4916817.2      194.14777      197.42221      198.57858      46.000903    
    387000   699.65006     -4916766.1      194.15142      197.42592      198.58232      46.611412    
    388000   701.82528     -4916683.8      194.15321      197.42774      198.58415     -7.6282116    
    389000   700.27997     -4916717        194.15906      197.43369      198.59013     -168.347      
    390000   698.76841     -4916907.1      194.13353      197.40773      198.56402      8.0058296    
    391000   701.01921     -4916627.6      194.14839      197.42284      198.57921     -63.434455    
    392000   701.33019     -4916685.4      194.12426      197.3983       198.55453      75.333273    
    393000   699.62806     -4916731.7      194.1392       197.4135       198.56982     -80.062528    
    394000   700.43923     -4916751.4      194.12558      197.39964      198.55588      33.575949    
    395000   700.51188     -4916664.5      194.15475      197.42931      198.58572     -7.20009      
    396000   700.70281     -4916690.1      194.15281      197.42734      198.58374     -94.126048    
    397000   700.31702     -4916785.6      194.13861      197.41289      198.56921      39.005755    
    398000   700.34004     -4916632.4      194.14347      197.41783      198.57418     -38.438816    
    399000   700.10552     -4916769.1      194.12958      197.40371      198.55997      131.9508     
    400000   699.61966     -4916803.1      194.15579      197.43037      198.58679     -42.309289    
    401000   699.22122     -4916773.2      194.18937      197.46451      198.62113     -234.83444    
    402000   700.87141     -4916652.5      194.16775      197.44253      198.59902     -83.841963    
    403000   699.52841     -4916819.8      194.15485      197.42941      198.58582     -110.87653    
    404000   700.48984     -4916697        194.15432      197.42887      198.58528      4.955709     
    405000   699.07837     -4916809.4      194.16125      197.43591      198.59236      25.243931    
    406000   699.44277     -4916780.3      194.16724      197.44201      198.59849     -19.170327    
    407000   698.61287     -4916845.5      194.17131      197.44615      198.60266     -109.59072    
    408000   700.34523     -4916730.3      194.16057      197.43523      198.59167      75.124532    
    409000   700.07183     -4916845.7      194.13318      197.40737      198.56365      112.99915    
    410000   700.28297     -4916865.7      194.11928      197.39323      198.54944     -26.811038    
    411000   700.2458      -4916818.7      194.12164      197.39564      198.55185      103.36152    
    412000   700.37403     -4916799.8      194.14772      197.42216      198.57853      57.086206    
    413000   700.90071     -4916730        194.15908      197.43371      198.59015     -4.2849524    
    414000   699.53659     -4916787.5      194.15049      197.42498      198.58136      89.87487     
    415000   701.07169     -4916673.1      194.15526      197.42982      198.58624      52.784141    
    416000   701.05943     -4916631.5      194.15098      197.42547      198.58187     -21.12123     
    417000   700.42038     -4916793.6      194.13855      197.41283      198.56915     -121.89222    
    418000   699.17131     -4916758.4      194.1549       197.42946      198.58587     -212.22252    
    419000   700.1433      -4916840        194.13347      197.40767      198.56396     -114.91462    
    420000   699.68515     -4916754.2      194.15858      197.4332       198.58964     -226.79786    
    421000   698.00178     -4916989.3      194.16302      197.43772      198.59418     -242.31626    
    422000   699.80417     -4916845.1      194.14138      197.41571      198.57204     -11.352487    
    423000   702.22717     -4916656.1      194.13891      197.4132       198.56952     -3.5857132    
    424000   699.60581     -4916710.4      194.13956      197.41386      198.57018     -19.793944    
    425000   699.49658     -4916754.2      194.158        197.43261      198.58904     -164.40346    
    426000   700.11992     -4916726.2      194.15048      197.42496      198.58135      36.132378    
    427000   701.88448     -4916697.6      194.15129      197.42579      198.58218      52.530151    
    428000   700.38374     -4916736.1      194.15083      197.42532      198.58171     -58.097585    
    429000   701.00133     -4916822.4      194.14274      197.4171       198.57344      144.59392    
    430000   700.88549     -4916684.1      194.14444      197.41882      198.57517     -112.87321    
    431000   697.82452     -4916861.1      194.13201      197.40619      198.56246      128.58971    
    432000   699.43961     -4916853.2      194.16408      197.43879      198.59526     -59.328399    
    433000   698.92251     -4916863.8      194.1426       197.41695      198.57329      79.706451    
    434000   700.59679     -4916669        194.16418      197.4389       198.59537     -61.983833    
    435000   699.34086     -4916744.7      194.1382       197.41248      198.56879      155.68999    
    436000   699.86845     -4916755        194.14817      197.42262      198.57899      7.4083364    
    437000   699.31104     -4916753.1      194.15951      197.43415      198.59059     -167.66857    
    438000   701.43415     -4916756.1      194.13662      197.41088      198.56718     -72.614596    
    439000   701.02639     -4916738.6      194.1578       197.43241      198.58884     -113.93284    
    440000   700.26332     -4916653.2      194.14409      197.41847      198.57482      75.129871    
    441000   700.27432     -4916768.6      194.15282      197.42735      198.58375     -68.407727    
    442000   700.07667     -4916791.9      194.14843      197.42288      198.57925     -187.79415    
    443000   699.93471     -4916825.1      194.12869      197.40281      198.55907      175.306      
    444000   699.50189     -4916798.6      194.13992      197.41422      198.57055     -54.226367    
    445000   698.19242     -4916873.4      194.14521      197.41961      198.57596     -109.17555    
    446000   699.72235     -4916727.1      194.14844      197.42289      198.57927     -27.485536    
    447000   700.52768     -4916711.5      194.14102      197.41535      198.57168      149.6798     
    448000   698.25479     -4916822.8      194.16042      197.43507      198.59152      5.1434289    
    449000   699.9184      -4916871.5      194.15509      197.42966      198.58607      118.36013    
    450000   699.29077     -4916769.9      194.15937      197.43401      198.59045     -39.774056    
    451000   700.07586     -4916751        194.13556      197.4098       198.5661       107.16399    
    452000   700.29501     -4916760.1      194.13376      197.40797      198.56425     -99.120153    
    453000   700.18442     -4916749.2      194.14442      197.41881      198.57516     -90.494126    
    454000   700.07373     -4916690.5      194.13438      197.40859      198.56488     -37.588893    
    455000   700.70054     -4916826.2      194.10687      197.38062      198.53675      244.41378    
    456000   700.36362     -4916800.6      194.12583      197.3999       198.55614     -48.34088     
    457000   699.8         -4916780.9      194.14369      197.41806      198.57441     -114.72519    
    458000   700.4404      -4916777.8      194.1333       197.40749      198.56378      110.0052     
    459000   699.38673     -4916777.8      194.14364      197.41801      198.57436      65.005567    
    460000   699.49495     -4916853.7      194.13966      197.41396      198.57029     -36.284344    
    461000   699.61976     -4916941        194.14648      197.4209       198.57726      113.66782    
    462000   700.14301     -4916804.8      194.15555      197.43012      198.58654     -157.36385    
    463000   701.69735     -4916684.1      194.14177      197.4161       198.57244     -13.948173    
    464000   699.45886     -4916814.8      194.13275      197.40694      198.56322      26.762369    
    465000   699.03719     -4916900.8      194.15868      197.43331      198.58974     -203.39399    
    466000   700.96961     -4916670.8      194.15062      197.42511      198.5815      -52.907466    
    467000   700.38264     -4916752.8      194.15638      197.43097      198.58739     -58.805113    
    468000   699.66613     -4916930        194.12842      197.40254      198.55879      66.456699    
    469000   700.14151     -4916883.2      194.14221      197.41656      198.57289     -37.450692    
    470000   699.61761     -4916669.3      194.16992      197.44473      198.60124     -72.315956    
    471000   700.09302     -4916688        194.16944      197.44425      198.60075     -45.248367    
    472000   700.30309     -4916761.1      194.16681      197.44157      198.59806     -6.3380992    
    473000   701.37157     -4916812.6      194.14881      197.42327      198.57965     -62.6978      
    474000   699.52407     -4916701.6      194.16703      197.4418       198.59828     -62.996273    
    475000   698.22427     -4916930.5      194.15381      197.42835      198.58476      33.376903    
    476000   700.41086     -4916786.3      194.15262      197.42714      198.58354     -99.861978    
    477000   701.3141      -4916743.8      194.13882      197.41311      198.56943     -90.116884    
    478000   699.69843     -4916967.3      194.12138      197.39537      198.55159      171.62065    
    479000   700.19553     -4916852.1      194.13394      197.40814      198.56443      110.92       
    480000   699.18058     -4916874.3      194.1438       197.41817      198.57452      66.3534      
    481000   699.62697     -4916848.7      194.14793      197.42237      198.57874     -136.25562    
    482000   700.14342     -4916902.6      194.12958      197.40371      198.55997      160.68874    
    483000   698.6436      -4916818.9      194.14799      197.42243      198.57881     -84.937241    
    484000   699.26361     -4916854.2      194.13327      197.40747      198.56376     -67.787042    
    485000   701.04388     -4916800.1      194.13433      197.40854      198.56483     -34.89442     
    486000   699.36803     -4916788.9      194.15101      197.4255       198.58189     -96.110185    
    487000   699.77971     -4916815.8      194.15488      197.42944      198.58585     -161.82545    
    488000   700.63511     -4916789.2      194.12518      197.39924      198.55548      164.48722    
    489000   698.78585     -4916986.2      194.12286      197.39688      198.5531       33.139456    
    490000   700.67254     -4916821.5      194.13864      197.41293      198.56925      65.236369    
    491000   699.33433     -4916800.4      194.14196      197.4163       198.57264     -77.539743    
    492000   700.10284     -4916767.8      194.15309      197.42762      198.58402     -142.25568    
    493000   698.67883     -4916859.5      194.15257      197.42709      198.58349      34.383842    
    494000   699.81435     -4916933.6      194.13373      197.40793      198.56422      21.888211    
    495000   699.62221     -4916867.6      194.13         197.40414      198.56041      79.208392    
    496000   699.7393      -4916813.4      194.13985      197.41415      198.57048     -0.010879658  
    497000   699.1058      -4916910.6      194.13155      197.40572      198.56199      57.8178      
    498000   700.46275     -4916829.3      194.12623      197.40031      198.55655     -65.629577    
    499000   700.05727     -4916864.1      194.13469      197.40891      198.5652      -6.1890862    
    500000   699.41785     -4916882.5      194.13879      197.41308      198.5694      -3.7028172    
Loop time of 37445.6 on 16384 procs for 500000 steps with 433690 atoms

Performance: 2.307 ns/day, 10.402 hours/ns, 13.353 timesteps/s, 5.791 Matom-step/s
76.7% CPU use with 128 MPI tasks x 128 OpenMP threads

MPI task timing breakdown:
Section |  min time  |  avg time  |  max time  |%varavg| %total
---------------------------------------------------------------
Pair    | 9212.4     | 16907      | 23057      |3865.2 | 45.15
Bond    | 0.046288   | 0.09883    | 0.17222    |   9.0 |  0.00
Kspace  | 6459.5     | 13718      | 22714      |5069.8 | 36.63
Neigh   | 1364.4     | 2655.4     | 3740.8     |1672.3 |  7.09
Comm    | 657.21     | 879.45     | 1045.5     | 415.7 |  2.35
Output  | 0.067795   | 0.071961   | 0.082503   |   0.6 |  0.00
Modify  | 1559.3     | 1879.8     | 3276.6     | 742.9 |  5.02
Other   |            | 1406       |            |       |  3.75

Nlocal:         3388.2 ave        4636 max        1590 min
Histogram: 16 0 9 23 6 10 0 8 24 32
Nghost:        10731.1 ave       12943 max        8582 min
Histogram: 24 19 21 0 0 0 1 23 25 15
Neighs:         789648 ave 1.12122e+06 max      353107 min
Histogram: 16 0 32 0 16 0 0 16 22 26

Total # of neighbors = 1.0107498e+08
Ave neighs/atom = 233.05812
Ave special neighs/atom = 0
Neighbor list builds = 103480
Dangerous builds = 0
PPPM initialization ...
  using 12-bit tables for long-range coulomb (src/src/kspace.cpp:342)
  G vector (1/distance) = 0.2754834
  grid = 128 135 135
  stencil order = 5
  estimated absolute RMS force accuracy = 0.0016811367
  estimated relative force accuracy = 0.00011674848
  using double precision MKL FFT
  3d grid and FFT values/proc = 34040 34560
Generated 0 of 10 mixed pair_coeff terms from geometric mixing rule
Setting up Verlet run ...
  Unit style    : metal
  Current step  : 0
  Time step     : 0.002
Per MPI rank memory allocation (min/avg/max) = 224.9 | 261.3 | 298.6 Mbytes
   Step          Temp          TotEng           Lx             Ly             Lz           Press     
         0   699.41785     -4916882.5      194.13879      197.41308      198.5694      -3.6773364    
      1000   700.60299     -4916858.5      194.13879      197.41308      198.5694      -17.333859    
      2000   700.25741     -4916855.1      194.13879      197.41308      198.5694      -0.24536448   
      3000   701.41594     -4916757.4      194.13879      197.41308      198.5694       70.348978    
      4000   701.19382     -4916752.4      194.13879      197.41308      198.5694       43.28082     
      5000   699.87676     -4916857.8      194.13879      197.41308      198.5694       21.075194    
      6000   700.38843     -4916761.6      194.13879      197.41308      198.5694      -122.24638    
      7000   700.86808     -4916710.4      194.13879      197.41308      198.5694      -187.22112    
      8000   700.83567     -4916742.8      194.13879      197.41308      198.5694       117.50627    
      9000   700.01261     -4916794.8      194.13879      197.41308      198.5694      -83.157912    
     10000   698.81739     -4916965.9      194.13879      197.41308      198.5694      -30.275494    
     11000   699.5621      -4916853.6      194.13879      197.41308      198.5694      -135.04028    
     12000   701.19537     -4916771        194.13879      197.41308      198.5694      -20.452013    
     13000   699.79167     -4916852.9      194.13879      197.41308      198.5694       96.359952    
     14000   699.65337     -4916863        194.13879      197.41308      198.5694       61.69838     
     15000   699.95855     -4916865        194.13879      197.41308      198.5694       125.2329     
     16000   698.75083     -4916832.8      194.13879      197.41308      198.5694       117.23756    
     17000   700.33904     -4916787.5      194.13879      197.41308      198.5694       48.815645    
     18000   700.86281     -4916707.2      194.13879      197.41308      198.5694       112.54218    
     19000   701.61779     -4916699.6      194.13879      197.41308      198.5694       92.272675    
     20000   699.77692     -4916861        194.13879      197.41308      198.5694      -40.084171    
     21000   699.95991     -4916852.9      194.13879      197.41308      198.5694      -11.38322     
     22000   700.3114      -4916799.2      194.13879      197.41308      198.5694       43.967662    
     23000   701.53826     -4916782.6      194.13879      197.41308      198.5694       8.5352656    
     24000   701.28755     -4916717.9      194.13879      197.41308      198.5694       8.6426061    
     25000   701.01862     -4916774.9      194.13879      197.41308      198.5694       5.9926342    
     26000   700.46546     -4916784.4      194.13879      197.41308      198.5694       130.28063    
     27000   699.73899     -4916832.7      194.13879      197.41308      198.5694       160.53918    
     28000   699.0667      -4916911.8      194.13879      197.41308      198.5694       86.652412    
     29000   698.41183     -4916955        194.13879      197.41308      198.5694      -54.824519    
     30000   701.26316     -4916760.6      194.13879      197.41308      198.5694      -58.338325    
     31000   700.27971     -4916842.9      194.13879      197.41308      198.5694       112.22812    
     32000   699.24127     -4916855.5      194.13879      197.41308      198.5694      -90.885265    
     33000   700.90267     -4916759.9      194.13879      197.41308      198.5694       36.178998    
     34000   700.23977     -4916843.2      194.13879      197.41308      198.5694       26.84149     
     35000   698.78752     -4916874        194.13879      197.41308      198.5694       239.08455    
     36000   698.47713     -4916855.9      194.13879      197.41308      198.5694       111.5623     
     37000   699.87413     -4916972.6      194.13879      197.41308      198.5694      -1.4382683    
     38000   701.86403     -4916737.4      194.13879      197.41308      198.5694       144.99431    
     39000   699.0139      -4916895.4      194.13879      197.41308      198.5694       24.328273    
     40000   699.74374     -4916888.5      194.13879      197.41308      198.5694       129.2979     
     41000   699.91607     -4916926.3      194.13879      197.41308      198.5694       100.39647    
     42000   700.1679      -4916776.3      194.13879      197.41308      198.5694       144.64216    
     43000   699.09883     -4916838.8      194.13879      197.41308      198.5694       7.6652237    
     44000   698.8874      -4916831.3      194.13879      197.41308      198.5694      -19.568743    
     45000   700.2066      -4916845.9      194.13879      197.41308      198.5694      -43.957879    
     46000   699.55207     -4916891.1      194.13879      197.41308      198.5694      -77.875789    
     47000   699.10672     -4916842.9      194.13879      197.41308      198.5694      -92.04354     
     48000   699.07124     -4916945.1      194.13879      197.41308      198.5694      -100.79027    
     49000   699.87018     -4916828.2      194.13879      197.41308      198.5694       141.59093    
     50000   700.69643     -4916859.6      194.13879      197.41308      198.5694       54.951278    
     51000   699.44266     -4916886.3      194.13879      197.41308      198.5694       43.182059    
     52000   700.37882     -4916988.1      194.13879      197.41308      198.5694      -198.78622    
     53000   701.27027     -4916853.9      194.13879      197.41308      198.5694      -13.480511    
     54000   699.53024     -4916915.4      194.13879      197.41308      198.5694       87.542873    
     55000   700.3231      -4916806.5      194.13879      197.41308      198.5694       61.637502    
     56000   698.37107     -4917019.6      194.13879      197.41308      198.5694       24.594697    
     57000   699.93581     -4916929.6      194.13879      197.41308      198.5694       154.30921    
     58000   698.85234     -4916870.2      194.13879      197.41308      198.5694       103.07528    
     59000   699.99597     -4916827.4      194.13879      197.41308      198.5694       75.166455    
     60000   700.4593      -4916894.2      194.13879      197.41308      198.5694      -44.57394     
     61000   698.99696     -4916890.5      194.13879      197.41308      198.5694      -112.35136    
     62000   699.33864     -4916867.3      194.13879      197.41308      198.5694      -42.750073    
     63000   699.59799     -4916951.9      194.13879      197.41308      198.5694      -60.778537    
     64000   700.85467     -4916782.7      194.13879      197.41308      198.5694      -162.86257    
     65000   699.365       -4916906.4      194.13879      197.41308      198.5694      -151.40722    
     66000   700.46439     -4916873.2      194.13879      197.41308      198.5694       48.885201    
     67000   699.48695     -4916878        194.13879      197.41308      198.5694       11.674318    
     68000   699.83588     -4916937.3      194.13879      197.41308      198.5694      -30.909382    
     69000   698.92288     -4916858.6      194.13879      197.41308      198.5694       97.362614    
     70000   699.22607     -4916943.5      194.13879      197.41308      198.5694       80.059691    
     71000   700.55667     -4916819.1      194.13879      197.41308      198.5694       151.78047    
     72000   700.86774     -4916784.8      194.13879      197.41308      198.5694      -107.85159    
     73000   699.10703     -4916950.3      194.13879      197.41308      198.5694      -45.236577    
     74000   701.66335     -4916707.1      194.13879      197.41308      198.5694      -17.073661    
     75000   699.80319     -4916860.4      194.13879      197.41308      198.5694       73.902484    
     76000   700.61672     -4916823.3      194.13879      197.41308      198.5694      -22.146078    
     77000   699.75018     -4916805.1      194.13879      197.41308      198.5694       22.47516     
     78000   700.98073     -4916790.9      194.13879      197.41308      198.5694       127.98121    
     79000   699.62998     -4916870.6      194.13879      197.41308      198.5694       39.711246    
     80000   698.38421     -4917013.7      194.13879      197.41308      198.5694       5.5242648    
     81000   698.43138     -4917019.7      194.13879      197.41308      198.5694      -52.906123    
     82000   699.81829     -4916916.4      194.13879      197.41308      198.5694       92.987651    
     83000   700.82309     -4916872.5      194.13879      197.41308      198.5694      -51.599312    
     84000   699.96647     -4916862.1      194.13879      197.41308      198.5694       129.32579    
     85000   700.08232     -4916855.4      194.13879      197.41308      198.5694       79.268746    
     86000   699.75613     -4916851.4      194.13879      197.41308      198.5694      -143.54721    
     87000   700.29008     -4916917.8      194.13879      197.41308      198.5694      -64.227763    
     88000   700.74186     -4916867.7      194.13879      197.41308      198.5694      -104.18432    
     89000   701.58061     -4916775.8      194.13879      197.41308      198.5694       19.20904     
     90000   700.99543     -4916741.9      194.13879      197.41308      198.5694       21.424249    
     91000   699.86551     -4916891.4      194.13879      197.41308      198.5694       12.894216    
     92000   701.43557     -4916770.2      194.13879      197.41308      198.5694       14.742081    
     93000   700.23142     -4916853.5      194.13879      197.41308      198.5694       13.07551     
     94000   699.47399     -4916923.3      194.13879      197.41308      198.5694      -63.653435    
     95000   699.3031      -4916909.4      194.13879      197.41308      198.5694      -11.147825    
     96000   698.81529     -4917005.7      194.13879      197.41308      198.5694      -1.762564     
     97000   700.12701     -4916891.7      194.13879      197.41308      198.5694       137.13484    
     98000   699.8028      -4916821.7      194.13879      197.41308      198.5694       83.453496    
     99000   700.22878     -4916860.6      194.13879      197.41308      198.5694       100.02465    
    100000   700.12721     -4916898.2      194.13879      197.41308      198.5694      -9.3728331    
    101000   701.38843     -4916828.9      194.13879      197.41308      198.5694      -66.876038    
    102000   698.63116     -4916974.3      194.13879      197.41308      198.5694       25.96873     
    103000   699.19208     -4916893.2      194.13879      197.41308      198.5694       115.92456    
    104000   702.2087      -4916806        194.13879      197.41308      198.5694       22.303729    
    105000   700.73952     -4916806.7      194.13879      197.41308      198.5694       77.380096    
    106000   700.50088     -4916881.5      194.13879      197.41308      198.5694      -50.289543    
    107000   698.95333     -4916869.4      194.13879      197.41308      198.5694       60.320858    
    108000   699.20231     -4916872        194.13879      197.41308      198.5694       91.574035    
    109000   699.66613     -4916865.7      194.13879      197.41308      198.5694       24.169566    
    110000   700.44977     -4916947.5      194.13879      197.41308      198.5694       173.67751    
    111000   700.31887     -4916914        194.13879      197.41308      198.5694       19.565607    
    112000   699.88209     -4916877.8      194.13879      197.41308      198.5694      -65.398518    
    113000   701.17727     -4916799.7      194.13879      197.41308      198.5694       1.8818758    
    114000   700.98884     -4916839.4      194.13879      197.41308      198.5694      -14.979989    
    115000   699.91178     -4916835.7      194.13879      197.41308      198.5694       2.9148467    
    116000   699.97719     -4916821.1      194.13879      197.41308      198.5694      -9.9232143    
    117000   700.67716     -4916798.8      194.13879      197.41308      198.5694       10.942021    
    118000   699.73467     -4916893.6      194.13879      197.41308      198.5694       33.082762    
    119000   698.36316     -4916943.8      194.13879      197.41308      198.5694      -15.806995    
    120000   701.52605     -4916779.9      194.13879      197.41308      198.5694       18.818627    
    121000   700.04159     -4916837.8      194.13879      197.41308      198.5694       22.445248    
    122000   700.94144     -4916831.7      194.13879      197.41308      198.5694      -74.288448    
    123000   700.85292     -4916823        194.13879      197.41308      198.5694       6.2300637    
    124000   701.13876     -4916795.7      194.13879      197.41308      198.5694       0.23920557   
    125000   700.46653     -4916808.4      194.13879      197.41308      198.5694       94.879775    
    126000   701.44929     -4916881.4      194.13879      197.41308      198.5694      -114.74618    
    127000   698.35863     -4916941.5      194.13879      197.41308      198.5694      -157.60854    
    128000   699.25571     -4916903.8      194.13879      197.41308      198.5694      -84.547831    
    129000   701.65411     -4916771.6      194.13879      197.41308      198.5694       21.536417    
    130000   701.46241     -4916858.8      194.13879      197.41308      198.5694      -165.93307    
    131000   701.00524     -4916800.7      194.13879      197.41308      198.5694      -61.181277    
    132000   700.39409     -4916797.8      194.13879      197.41308      198.5694       76.937435    
    133000   700.01821     -4916888.2      194.13879      197.41308      198.5694      -55.831665    
    134000   700.3673      -4916831.3      194.13879      197.41308      198.5694       62.748466    
    135000   700.73493     -4916906        194.13879      197.41308      198.5694       68.733222    
    136000   698.25619     -4916868.4      194.13879      197.41308      198.5694       96.851721    
    137000   699.52969     -4917056        194.13879      197.41308      198.5694       78.622466    
    138000   699.45296     -4916946        194.13879      197.41308      198.5694       207.08268    
    139000   701.76016     -4916761.8      194.13879      197.41308      198.5694       132.41779    
    140000   700.46464     -4916900        194.13879      197.41308      198.5694       116.0937     
    141000   700.84773     -4916932.9      194.13879      197.41308      198.5694       38.761629    
    142000   700.01317     -4916955.9      194.13879      197.41308      198.5694      -34.405449    
    143000   700.67744     -4916826.7      194.13879      197.41308      198.5694       19.140417    
    144000   698.57421     -4917023.9      194.13879      197.41308      198.5694       44.996234    
    145000   700.97807     -4916869.1      194.13879      197.41308      198.5694       30.553301    
    146000   699.7592      -4916934.2      194.13879      197.41308      198.5694      -52.041919    
    147000   700.27164     -4916880.4      194.13879      197.41308      198.5694      -88.230312    
    148000   698.98961     -4916981.9      194.13879      197.41308      198.5694      -12.149393    
    149000   700.92728     -4916820.6      194.13879      197.41308      198.5694       113.28255    
    150000   699.20208     -4916933.8      194.13879      197.41308      198.5694      -84.214146    
    151000   701.74281     -4916725.9      194.13879      197.41308      198.5694       61.544657    
    152000   700.23106     -4916835.5      194.13879      197.41308      198.5694       114.36805    
    153000   701.00512     -4916904.9      194.13879      197.41308      198.5694      -54.79095     
    154000   700.48087     -4916933.7      194.13879      197.41308      198.5694      -77.562737    
    155000   699.37608     -4916883.4      194.13879      197.41308      198.5694       84.081854    
    156000   699.73874     -4916928        194.13879      197.41308      198.5694       50.539776    
    157000   699.42839     -4916989.9      194.13879      197.41308      198.5694       0.81485073   
    158000   700.53162     -4916900.2      194.13879      197.41308      198.5694       175.67645    
    159000   701.14024     -4916836        194.13879      197.41308      198.5694      -126.5234     
    160000   699.74809     -4916880.8      194.13879      197.41308      198.5694      -3.3357864    
    161000   700.24153     -4916765.3      194.13879      197.41308      198.5694      -19.482802    
    162000   700.24129     -4916868.2      194.13879      197.41308      198.5694       26.637799    
    163000   700.40276     -4916880.2      194.13879      197.41308      198.5694      -50.57211     
    164000   700.28813     -4916929.7      194.13879      197.41308      198.5694       54.649571    
    165000   700.47231     -4916875.6      194.13879      197.41308      198.5694       135.72162    
    166000   700.16129     -4916887        194.13879      197.41308      198.5694       79.428479    
    167000   700.95223     -4916847.9      194.13879      197.41308      198.5694       145.88673    
    168000   698.86144     -4916959.4      194.13879      197.41308      198.5694       23.499151    
    169000   700.03795     -4916818.4      194.13879      197.41308      198.5694      -26.181611    
    170000   700.87358     -4916868.5      194.13879      197.41308      198.5694      -97.169257    
    171000   699.09867     -4916969.1      194.13879      197.41308      198.5694      -113.68563    
    172000   699.17027     -4916930        194.13879      197.41308      198.5694       56.378176    
    173000   699.09307     -4916870.3      194.13879      197.41308      198.5694       116.8167     
    174000   699.00666     -4916970.1      194.13879      197.41308      198.5694       35.207163    
    175000   700.67078     -4916897.5      194.13879      197.41308      198.5694       166.83938    
    176000   699.92904     -4916979.1      194.13879      197.41308      198.5694       84.478615    
    177000   698.54286     -4917003.6      194.13879      197.41308      198.5694      -173.79985    
    178000   700.37867     -4916910.5      194.13879      197.41308      198.5694      -1.9550654    
    179000   699.22443     -4916999.2      194.13879      197.41308      198.5694      -106.25182    
    180000   700.29366     -4916893.9      194.13879      197.41308      198.5694      -72.543759    
    181000   701.33031     -4916766.1      194.13879      197.41308      198.5694       9.9574881    
    182000   700.2526      -4916798.6      194.13879      197.41308      198.5694      -204.92373    
    183000   700.18184     -4916976.3      194.13879      197.41308      198.5694       50.79153     
    184000   700.34059     -4916973.1      194.13879      197.41308      198.5694      -150.4127     
    185000   699.10607     -4916978.5      194.13879      197.41308      198.5694       84.140488    
    186000   699.4204      -4916889.2      194.13879      197.41308      198.5694      -213.08965    
    187000   699.81556     -4916995.5      194.13879      197.41308      198.5694       13.888042    
    188000   699.44387     -4917045.6      194.13879      197.41308      198.5694       68.068833    
    189000   699.52186     -4916902        194.13879      197.41308      198.5694      -74.841139    
    190000   700.8322      -4916885.1      194.13879      197.41308      198.5694      -139.74795    
    191000   699.86093     -4916969        194.13879      197.41308      198.5694      -42.340545    
    192000   699.72624     -4916908.3      194.13879      197.41308      198.5694       62.880951    
    193000   699.20965     -4917025.1      194.13879      197.41308      198.5694      -16.23343     
    194000   699.13178     -4917018.6      194.13879      197.41308      198.5694      -73.531291    
    195000   699.03004     -4916966.7      194.13879      197.41308      198.5694       0.13782679   
    196000   700.63008     -4916920        194.13879      197.41308      198.5694       44.610582    
    197000   699.48626     -4917012        194.13879      197.41308      198.5694      -45.995603    
    198000   700.10498     -4916867.7      194.13879      197.41308      198.5694       146.54007    
    199000   701.06701     -4916892.7      194.13879      197.41308      198.5694       116.16045    
    200000   700.37959     -4916871.8      194.13879      197.41308      198.5694       104.22771    
    201000   699.34659     -4916955.4      194.13879      197.41308      198.5694      -46.401372    
    202000   701.62583     -4916822.3      194.13879      197.41308      198.5694       104.50881    
    203000   699.70133     -4916995.4      194.13879      197.41308      198.5694       90.351378    
    204000   700.58872     -4916862.6      194.13879      197.41308      198.5694       14.30761     
    205000   700.02484     -4916989.7      194.13879      197.41308      198.5694      -2.0647549    
    206000   701.32389     -4916920.3      194.13879      197.41308      198.5694       119.68615    
    207000   700.13499     -4916972.5      194.13879      197.41308      198.5694      -49.749987    
    208000   701.20962     -4916870.5      194.13879      197.41308      198.5694       50.721731    
    209000   700.54976     -4916890.4      194.13879      197.41308      198.5694      -32.925998    
    210000   698.73877     -4917021.9      194.13879      197.41308      198.5694      -22.857502    
    211000   699.71004     -4916911.6      194.13879      197.41308      198.5694      -47.550275    
    212000   699.7684      -4916976.6      194.13879      197.41308      198.5694       7.141558     
    213000   700.73253     -4916848        194.13879      197.41308      198.5694      -18.085273    
    214000   700.88393     -4916905.3      194.13879      197.41308      198.5694       111.5487     
    215000   699.25723     -4916921.3      194.13879      197.41308      198.5694       72.55851     
    216000   701.11791     -4916850        194.13879      197.41308      198.5694       9.5739432    
    217000   701.21101     -4916911.4      194.13879      197.41308      198.5694      -27.122343    
    218000   699.58679     -4916919.5      194.13879      197.41308      198.5694       11.646535    
    219000   700.50634     -4916863.9      194.13879      197.41308      198.5694       21.458154    
    220000   701.40973     -4916764.6      194.13879      197.41308      198.5694      -42.742544    
    221000   698.87004     -4916975.5      194.13879      197.41308      198.5694      -16.115052    
    222000   700.31053     -4916926        194.13879      197.41308      198.5694      -54.557499    
    223000   699.85812     -4916968.9      194.13879      197.41308      198.5694       144.51349    
    224000   699.99174     -4916967.7      194.13879      197.41308      198.5694       70.42162     
    225000   700.04284     -4916945.8      194.13879      197.41308      198.5694       75.761577    
    226000   699.4033      -4917018.7      194.13879      197.41308      198.5694       111.83826    
    227000   700.82418     -4916869.4      194.13879      197.41308      198.5694       88.856339    
    228000   699.30926     -4916940.6      194.13879      197.41308      198.5694       28.330723    
    229000   700.6054      -4916904.7      194.13879      197.41308      198.5694       140.83589    
    230000   698.16763     -4917064.4      194.13879      197.41308      198.5694      -101.41655    
    231000   698.37605     -4916925.9      194.13879      197.41308      198.5694       31.184499    
    232000   699.62316     -4916915.6      194.13879      197.41308      198.5694      -81.514661    
    233000   699.68582     -4916961.9      194.13879      197.41308      198.5694       48.557458    
    234000   700.97901     -4916884.4      194.13879      197.41308      198.5694       57.851571    
    235000   698.82687     -4917000.4      194.13879      197.41308      198.5694       73.559637    
    236000   700.46988     -4916835.4      194.13879      197.41308      198.5694       132.759      
    237000   698.78055     -4916928.3      194.13879      197.41308      198.5694      -77.461803    
    238000   698.71617     -4917104.4      194.13879      197.41308      198.5694       39.423759    
    239000   698.8335      -4916978.6      194.13879      197.41308      198.5694      -32.538292    
    240000   699.45291     -4916889.5      194.13879      197.41308      198.5694      -31.042295    
    241000   700.01155     -4916873.8      194.13879      197.41308      198.5694       115.30835    
    242000   700.46664     -4916968.7      194.13879      197.41308      198.5694      -54.522073    
    243000   700.31025     -4916867.8      194.13879      197.41308      198.5694       113.27445    
    244000   700.745       -4916895.7      194.13879      197.41308      198.5694      -132.43724    
    245000   699.38426     -4916932        194.13879      197.41308      198.5694      -14.367945    
    246000   700.39914     -4916863.6      194.13879      197.41308      198.5694       10.556147    
    247000   699.20396     -4917029.9      194.13879      197.41308      198.5694      -78.31422     
    248000   701.39833     -4916869.5      194.13879      197.41308      198.5694      -23.424848    
    249000   699.98919     -4916951.5      194.13879      197.41308      198.5694      -4.4543186    
    250000   699.45181     -4916937.6      194.13879      197.41308      198.5694      -10.755099    
    251000   701.69167     -4916898.2      194.13879      197.41308      198.5694       58.77399     
    252000   699.71394     -4917023.8      194.13879      197.41308      198.5694      -18.751295    
    253000   701.17907     -4916886.2      194.13879      197.41308      198.5694       99.113675    
    254000   700.62035     -4917002.2      194.13879      197.41308      198.5694      -8.7033038    
    255000   698.6487      -4916957.8      194.13879      197.41308      198.5694      -31.872176    
    256000   700.26225     -4916903.1      194.13879      197.41308      198.5694      -26.677569    
    257000   698.9456      -4916948.7      194.13879      197.41308      198.5694      -30.598596    
    258000   701.16098     -4916770.2      194.13879      197.41308      198.5694       101.94631    
    259000   700.09742     -4916854.7      194.13879      197.41308      198.5694       13.485194    
    260000   699.96619     -4916917.5      194.13879      197.41308      198.5694       14.446884    
    261000   700.31452     -4916930.8      194.13879      197.41308      198.5694       33.885425    
    262000   700.07392     -4916836.6      194.13879      197.41308      198.5694       120.39218    
    263000   700.90623     -4916905.2      194.13879      197.41308      198.5694      -10.906491    
    264000   700.2033      -4916949.2      194.13879      197.41308      198.5694      -54.192664    
    265000   700.03695     -4916958.4      194.13879      197.41308      198.5694      -46.531948    
    266000   699.31807     -4917040.1      194.13879      197.41308      198.5694       6.1999592    
    267000   699.32216     -4916924.4      194.13879      197.41308      198.5694       92.273504    
    268000   699.53899     -4916974.4      194.13879      197.41308      198.5694      -0.60237274   
    269000   699.67809     -4916939.3      194.13879      197.41308      198.5694       5.460231     
    270000   699.91513     -4916898.3      194.13879      197.41308      198.5694      -30.835753    
    271000   698.78882     -4916958.9      194.13879      197.41308      198.5694      -64.311668    
    272000   701.91456     -4916772.7      194.13879      197.41308      198.5694       2.9724797    
    273000   699.46149     -4916943.4      194.13879      197.41308      198.5694      -42.668629    
    274000   701.02801     -4916853.8      194.13879      197.41308      198.5694      -60.958969    
    275000   700.32526     -4917029.6      194.13879      197.41308      198.5694       28.728952    
    276000   701.02508     -4916831.9      194.13879      197.41308      198.5694      -75.740491    
    277000   699.20722     -4916949.2      194.13879      197.41308      198.5694      -45.79652     
    278000   699.61604     -4916875.3      194.13879      197.41308      198.5694       44.570924    
    279000   699.58753     -4916966        194.13879      197.41308      198.5694       64.028546    
    280000   699.26754     -4916947.9      194.13879      197.41308      198.5694       165.91978    
    281000   699.61379     -4916915.7      194.13879      197.41308      198.5694       198.35746    
    282000   699.97167     -4916957.7      194.13879      197.41308      198.5694       197.22109    
    283000   701.06954     -4916887.5      194.13879      197.41308      198.5694       176.90149    
    284000   699.5341      -4917061.6      194.13879      197.41308      198.5694       27.878142    
    285000   699.21187     -4917047.9      194.13879      197.41308      198.5694       5.2013079    
    286000   700.25653     -4916982.8      194.13879      197.41308      198.5694       7.5016885    
    287000   698.97045     -4917003.4      194.13879      197.41308      198.5694      -15.65919     
    288000   699.37943     -4916878.6      194.13879      197.41308      198.5694       133.03495    
    289000   700.36423     -4916925.3      194.13879      197.41308      198.5694      -94.172029    
    290000   698.43431     -4916965.1      194.13879      197.41308      198.5694      -29.214934    
    291000   700.03835     -4916953.7      194.13879      197.41308      198.5694      -12.522615    
    292000   699.53807     -4916964.3      194.13879      197.41308      198.5694      -5.4658715    
    293000   699.46182     -4917010.3      194.13879      197.41308      198.5694       55.969581    
    294000   700.14206     -4916961.5      194.13879      197.41308      198.5694       28.936735    
    295000   699.86582     -4916824.6      194.13879      197.41308      198.5694      -5.5203488    
    296000   699.49482     -4917009.6      194.13879      197.41308      198.5694      -51.951482    
    297000   700.52658     -4916914.1      194.13879      197.41308      198.5694       103.461      
    298000   700.44317     -4916851.2      194.13879      197.41308      198.5694       4.6884645    
    299000   699.65428     -4916951.8      194.13879      197.41308      198.5694       105.16072    
    300000   699.11411     -4916885.1      194.13879      197.41308      198.5694      -4.7896737    
    301000   699.71612     -4916935.7      194.13879      197.41308      198.5694       101.46427    
    302000   699.32558     -4916899.5      194.13879      197.41308      198.5694       75.201413    
    303000   701.40218     -4916910.9      194.13879      197.41308      198.5694      -54.30964     
    304000   700.60741     -4916972.9      194.13879      197.41308      198.5694       32.840755    
    305000   700.08595     -4916909.8      194.13879      197.41308      198.5694       9.4281175    
    306000   699.25611     -4917020        194.13879      197.41308      198.5694      -99.558453    
    307000   699.72988     -4916888.9      194.13879      197.41308      198.5694       53.884509    
    308000   699.30099     -4916920.2      194.13879      197.41308      198.5694       82.811775    
    309000   698.8402      -4917036.5      194.13879      197.41308      198.5694       122.87309    
    310000   699.95428     -4916880.5      194.13879      197.41308      198.5694       41.107126    
    311000   700.3118      -4917002.6      194.13879      197.41308      198.5694       90.740305    
    312000   698.69644     -4916967.1      194.13879      197.41308      198.5694      -59.766829    
    313000   699.94836     -4916823        194.13879      197.41308      198.5694       50.509507    
    314000   700.14767     -4916771.8      194.13879      197.41308      198.5694      -75.667875    
    315000   700.99668     -4916924.5      194.13879      197.41308      198.5694       80.904628    
    316000   700.58407     -4916984        194.13879      197.41308      198.5694       17.211042    
    317000   700.41034     -4916925.6      194.13879      197.41308      198.5694      -156.96966    
    318000   699.69962     -4917002.8      194.13879      197.41308      198.5694       75.834038    
    319000   701.82851     -4916835.9      194.13879      197.41308      198.5694       8.5278233    
    320000   700.4411      -4916885.4      194.13879      197.41308      198.5694       188.54123    
    321000   700.68883     -4916914.7      194.13879      197.41308      198.5694       12.941492    
    322000   699.71161     -4916945        194.13879      197.41308      198.5694       81.911705    
    323000   700.17698     -4916969.7      194.13879      197.41308      198.5694      -106.02511    
    324000   699.74543     -4916958.7      194.13879      197.41308      198.5694       53.868978    
    325000   699.85912     -4917007.4      194.13879      197.41308      198.5694      -53.116401    
    326000   700.32032     -4916866.9      194.13879      197.41308      198.5694       14.013967    
    327000   700.0305      -4916952.2      194.13879      197.41308      198.5694       211.92245    
    328000   700.39288     -4916933.1      194.13879      197.41308      198.5694       185.91537    
    329000   699.62783     -4916955.9      194.13879      197.41308      198.5694       72.758841    
    330000   699.55468     -4916979        194.13879      197.41308      198.5694      -20.800551    
    331000   699.85933     -4916945.6      194.13879      197.41308      198.5694       38.601101    
    332000   699.71387     -4916904.6      194.13879      197.41308      198.5694       122.52619    
    333000   698.92372     -4917098.1      194.13879      197.41308      198.5694       89.890836    
    334000   700.13921     -4916850.6      194.13879      197.41308      198.5694      -6.187617     
    335000   700.13288     -4916969.3      194.13879      197.41308      198.5694      -34.498784    
    336000   700.83893     -4916904.8      194.13879      197.41308      198.5694       70.578124    
    337000   700.36257     -4916844.8      194.13879      197.41308      198.5694       59.848126    
    338000   701.11279     -4916880.1      194.13879      197.41308      198.5694       119.35161    
    339000   701.7639      -4916885.2      194.13879      197.41308      198.5694       60.22286     
    340000   700.33366     -4916932.3      194.13879      197.41308      198.5694       65.551685    
    341000   700.94531     -4916955.4      194.13879      197.41308      198.5694       40.822643    
    342000   698.75171     -4917057.7      194.13879      197.41308      198.5694      -54.248483    
    343000   700.27275     -4916894.5      194.13879      197.41308      198.5694       100.13753    
    344000   701.15614     -4916897.2      194.13879      197.41308      198.5694       141.98111    
    345000   699.72043     -4916946.3      194.13879      197.41308      198.5694       184.74465    
    346000   699.00683     -4917123.4      194.13879      197.41308      198.5694       99.903032    
    347000   700.57629     -4916948.9      194.13879      197.41308      198.5694       171.0327     
    348000   700.39171     -4916958        194.13879      197.41308      198.5694       131.10562    
    349000   700.44718     -4916878.5      194.13879      197.41308      198.5694       14.154537    
    350000   701.10436     -4916863.3      194.13879      197.41308      198.5694       51.78594     
    351000   700.76189     -4916946.4      194.13879      197.41308      198.5694       40.153997    
    352000   701.25999     -4916946.8      194.13879      197.41308      198.5694       114.59068    
    353000   699.58388     -4916970.3      194.13879      197.41308      198.5694       50.376968    
    354000   698.78108     -4916911.4      194.13879      197.41308      198.5694      -52.347242    
    355000   699.85346     -4916905        194.13879      197.41308      198.5694      -72.072772    
    356000   698.34665     -4917007.5      194.13879      197.41308      198.5694      -54.38247     
    357000   700.89376     -4916947.7      194.13879      197.41308      198.5694       99.837972    
    358000   699.1304      -4917011.2      194.13879      197.41308      198.5694       210.31511    
    359000   699.6608      -4916993.2      194.13879      197.41308      198.5694       101.33902    
    360000   699.42003     -4917093.4      194.13879      197.41308      198.5694       101.42501    
    361000   699.38404     -4917063.9      194.13879      197.41308      198.5694       98.516864    
    362000   700.14753     -4916999.4      194.13879      197.41308      198.5694       53.687651    
    363000   699.63507     -4916956.9      194.13879      197.41308      198.5694       81.158823    
    364000   700.22384     -4916942        194.13879      197.41308      198.5694       88.843294    
    365000   699.75825     -4916988        194.13879      197.41308      198.5694      -47.50802     
    366000   698.31359     -4917057        194.13879      197.41308      198.5694       52.940238    
    367000   700.04688     -4916924        194.13879      197.41308      198.5694       9.8367312    
    368000   700.64227     -4916910        194.13879      197.41308      198.5694       70.64635     
    369000   700.42674     -4916921.2      194.13879      197.41308      198.5694      -43.664541    
    370000   700.542       -4916996.4      194.13879      197.41308      198.5694      -49.886349    
    371000   701.10079     -4916948.2      194.13879      197.41308      198.5694      -92.973534    
    372000   699.22447     -4917014        194.13879      197.41308      198.5694      -85.340463    
    373000   700.98434     -4916848        194.13879      197.41308      198.5694       85.842171    
    374000   699.47665     -4916961.4      194.13879      197.41308      198.5694       59.825156    
    375000   699.8635      -4916943.9      194.13879      197.41308      198.5694      -109.56589    
    376000   698.4768      -4917027.9      194.13879      197.41308      198.5694       12.217206    
    377000   700.40416     -4916886        194.13879      197.41308      198.5694      -78.437806    
    378000   700.78117     -4916833.3      194.13879      197.41308      198.5694       6.2748249    
    379000   701.17137     -4916909.1      194.13879      197.41308      198.5694       85.787616    
    380000   698.76877     -4916994.3      194.13879      197.41308      198.5694       109.22846    
    381000   700.04777     -4916979.2      194.13879      197.41308      198.5694      -63.056117    
    382000   699.92027     -4916850.4      194.13879      197.41308      198.5694       72.93327     
    383000   699.31889     -4917118.7      194.13879      197.41308      198.5694       28.776122    
    384000   699.6081      -4916998.1      194.13879      197.41308      198.5694       75.850758    
    385000   700.53677     -4916961.5      194.13879      197.41308      198.5694      -85.370076    
    386000   700.42629     -4916920.5      194.13879      197.41308      198.5694       33.689745    
    387000   700.38869     -4916931.6      194.13879      197.41308      198.5694      -65.74534     
    388000   701.90975     -4916851.8      194.13879      197.41308      198.5694      -26.212491    
    389000   698.49399     -4917026.1      194.13879      197.41308      198.5694       18.628706    
    390000   701.69889     -4916909.6      194.13879      197.41308      198.5694      -0.80251489   
    391000   700.56622     -4916963.2      194.13879      197.41308      198.5694      -34.16748     
    392000   698.474       -4917091.4      194.13879      197.41308      198.5694       37.143036    
    393000   701.28588     -4916939.6      194.13879      197.41308      198.5694       98.70279     
    394000   700.32799     -4916987.7      194.13879      197.41308      198.5694      -24.722126    
    395000   699.32745     -4917129        194.13879      197.41308      198.5694      -19.359591    
    396000   698.97175     -4917034.6      194.13879      197.41308      198.5694       77.066313    
    397000   698.08706     -4917069.8      194.13879      197.41308      198.5694       75.138955    
    398000   700.84231     -4916912.6      194.13879      197.41308      198.5694       68.029284    
    399000   700.66654     -4916928.7      194.13879      197.41308      198.5694      -52.610506    
    400000   700.88409     -4916844.2      194.13879      197.41308      198.5694       49.119864    
    401000   700.30301     -4916880.7      194.13879      197.41308      198.5694       116.93067    
    402000   699.84959     -4917044        194.13879      197.41308      198.5694      -1.1826453    
    403000   701.08363     -4916852.6      194.13879      197.41308      198.5694      -50.601685    
    404000   700.26888     -4916979        194.13879      197.41308      198.5694      -113.71243    
    405000   701.50266     -4916866.6      194.13879      197.41308      198.5694      -57.915083    
    406000   701.26196     -4916902.1      194.13879      197.41308      198.5694      -0.55142697   
    407000   700.18186     -4916935        194.13879      197.41308      198.5694       51.688821    
    408000   698.86378     -4916992.1      194.13879      197.41308      198.5694       17.007087    
    409000   701.91298     -4916921.2      194.13879      197.41308      198.5694      -44.462748    
    410000   700.67339     -4916953.3      194.13879      197.41308      198.5694       13.982023    
    411000   698.09824     -4917041.9      194.13879      197.41308      198.5694       104.65303    
    412000   700.51174     -4917027.6      194.13879      197.41308      198.5694      -25.895761    
    413000   700.50467     -4916942.9      194.13879      197.41308      198.5694       105.9278     
    414000   698.93893     -4917060.2      194.13879      197.41308      198.5694       28.742311    
    415000   699.96556     -4916849        194.13879      197.41308      198.5694       50.712207    
    416000   697.46373     -4917084.2      194.13879      197.41308      198.5694       17.459367    
    417000   699.77769     -4917022.6      194.13879      197.41308      198.5694      -18.952004    
    418000   699.17393     -4916988.3      194.13879      197.41308      198.5694       48.291469    
    419000   700.49463     -4916929.4      194.13879      197.41308      198.5694      -19.980704    
    420000   699.77248     -4916907.8      194.13879      197.41308      198.5694       13.943165    
    421000   699.82649     -4916998.8      194.13879      197.41308      198.5694      -8.3040722    
    422000   699.65077     -4916967        194.13879      197.41308      198.5694      -48.109786    
    423000   700.71348     -4916944.7      194.13879      197.41308      198.5694      -38.754281    
    424000   699.87934     -4916950.5      194.13879      197.41308      198.5694      -16.164221    
    425000   700.24329     -4916956.2      194.13879      197.41308      198.5694      -32.084937    
    426000   700.42321     -4916928.1      194.13879      197.41308      198.5694      -2.6477538    
    427000   699.57608     -4916986.7      194.13879      197.41308      198.5694      -26.765297    
    428000   698.90722     -4917193.2      194.13879      197.41308      198.5694      -106.14267    
    429000   699.26474     -4917089.1      194.13879      197.41308      198.5694      -4.5833599    
    430000   700.13686     -4916979.2      194.13879      197.41308      198.5694      -39.981326    
    431000   700.736       -4916930.9      194.13879      197.41308      198.5694      -129.88027    
    432000   699.76172     -4916965.9      194.13879      197.41308      198.5694       135.08365    
    433000   700.08824     -4916909.9      194.13879      197.41308      198.5694      -29.925014    
    434000   700.34866     -4916946.3      194.13879      197.41308      198.5694      -66.031049    
    435000   701.35274     -4916861.7      194.13879      197.41308      198.5694       22.665051    
    436000   700.10097     -4917025.6      194.13879      197.41308      198.5694      -32.15993     
    437000   699.16204     -4917056        194.13879      197.41308      198.5694      -51.102795    
    438000   700.64971     -4916944.9      194.13879      197.41308      198.5694      -40.388722    
    439000   698.92172     -4917074.8      194.13879      197.41308      198.5694       32.397832    
    440000   699.81739     -4916957.8      194.13879      197.41308      198.5694      -72.363278    
    441000   700.18095     -4917049.5      194.13879      197.41308      198.5694      -54.296       
    442000   700.48203     -4916980.2      194.13879      197.41308      198.5694      -118.17029    
    443000   699.00782     -4916997        194.13879      197.41308      198.5694       77.912562    
    444000   699.76726     -4917043.2      194.13879      197.41308      198.5694       56.32271     
    445000   699.92835     -4917015.9      194.13879      197.41308      198.5694      -45.691731    
    446000   700.24568     -4917011.4      194.13879      197.41308      198.5694      -46.083876    
    447000   700.51989     -4916972.1      194.13879      197.41308      198.5694       78.288126    
    448000   699.73779     -4917099        194.13879      197.41308      198.5694       195.48556    
    449000   698.37792     -4917040.5      194.13879      197.41308      198.5694       31.585676    
    450000   698.81752     -4917045.8      194.13879      197.41308      198.5694      -66.087273    
    451000   701.34492     -4916941.2      194.13879      197.41308      198.5694      -27.959111    
    452000   700.67587     -4916823.4      194.13879      197.41308      198.5694       204.75401    
    453000   700.89136     -4916932        194.13879      197.41308      198.5694       59.149886    
    454000   700.81004     -4916937.8      194.13879      197.41308      198.5694      -36.350281    
    455000   701.73724     -4916837.6      194.13879      197.41308      198.5694      -45.12537     
    456000   700.17121     -4916977.1      194.13879      197.41308      198.5694      -101.85792    
    457000   699.65279     -4917001        194.13879      197.41308      198.5694       3.0385665    
    458000   700.46482     -4916977.9      194.13879      197.41308      198.5694      -43.096593    
    459000   700.35388     -4916922.2      194.13879      197.41308      198.5694       60.276395    
    460000   700.41255     -4917024.1      194.13879      197.41308      198.5694      -10.886765    
    461000   698.90752     -4917075        194.13879      197.41308      198.5694      -40.812616    
    462000   700.48485     -4916934.2      194.13879      197.41308      198.5694       101.27617    
    463000   698.75114     -4917109.4      194.13879      197.41308      198.5694      -139.03964    
    464000   700.36976     -4917014.9      194.13879      197.41308      198.5694       46.291896    
    465000   700.69158     -4916937.3      194.13879      197.41308      198.5694       113.98796    
    466000   698.80297     -4917104.4      194.13879      197.41308      198.5694       92.219914    
    467000   700.42347     -4917008.3      194.13879      197.41308      198.5694       9.6094541    
    468000   700.17397     -4916916.1      194.13879      197.41308      198.5694       128.02526    
    469000   699.87447     -4917069.2      194.13879      197.41308      198.5694      -32.555049    
    470000   699.75486     -4916935.7      194.13879      197.41308      198.5694      -70.147516    
    471000   698.68611     -4917122.8      194.13879      197.41308      198.5694      -69.970584    
    472000   700.8389      -4916924.9      194.13879      197.41308      198.5694      -11.238516    
    473000   701.00386     -4916884.3      194.13879      197.41308      198.5694       181.59878    
    474000   700.2792      -4916922        194.13879      197.41308      198.5694       51.923768    
    475000   698.27821     -4917189.6      194.13879      197.41308      198.5694       40.192317    
    476000   699.85278     -4917039        194.13879      197.41308      198.5694       73.524712    
    477000   699.22627     -4916971.1      194.13879      197.41308      198.5694      -22.899369    
    478000   699.68084     -4916956        194.13879      197.41308      198.5694      -34.381345    
    479000   700.5184      -4916929.8      194.13879      197.41308      198.5694      -62.905199    
    480000   700.79343     -4916921.7      194.13879      197.41308      198.5694      -9.032109     
    481000   700.66899     -4916927.4      194.13879      197.41308      198.5694      -43.570994    
    482000   701.06855     -4916920.8      194.13879      197.41308      198.5694       71.238934    
    483000   699.58478     -4917047.1      194.13879      197.41308      198.5694      -35.665512    
    484000   700.35426     -4916913.3      194.13879      197.41308      198.5694       104.29862    
    485000   699.74543     -4917042.4      194.13879      197.41308      198.5694      -0.67615623   
    486000   700.85921     -4916905.8      194.13879      197.41308      198.5694       122.32561    
    487000   698.7466      -4917112.9      194.13879      197.41308      198.5694       94.113515    
    488000   699.78789     -4917005.7      194.13879      197.41308      198.5694       182.95517    
    489000   698.6596      -4916990.5      194.13879      197.41308      198.5694       100.96626    
    490000   702.34418     -4916821.1      194.13879      197.41308      198.5694       93.276615    
    491000   699.26918     -4917055.8      194.13879      197.41308      198.5694      -11.328202    
    492000   701.29777     -4916881.9      194.13879      197.41308      198.5694       67.637769    
    493000   700.29596     -4916980.5      194.13879      197.41308      198.5694      -8.2697946    
    494000   697.87302     -4917145.1      194.13879      197.41308      198.5694      -8.4412626    
    495000   698.63637     -4917048.8      194.13879      197.41308      198.5694       52.545361    
    496000   700.06456     -4916876.7      194.13879      197.41308      198.5694       94.281822    
    497000   700.11391     -4916919.5      194.13879      197.41308      198.5694       12.572779    
    498000   699.9236      -4917020.9      194.13879      197.41308      198.5694       0.65212395   
    499000   701.13682     -4916881.2      194.13879      197.41308      198.5694      -11.115408    
    500000   699.06851     -4916989.7      194.13879      197.41308      198.5694      -36.903808    
Loop time of 35125.4 on 16384 procs for 500000 steps with 433690 atoms

Performance: 2.460 ns/day, 9.757 hours/ns, 14.235 timesteps/s, 6.173 Matom-step/s
75.6% CPU use with 128 MPI tasks x 128 OpenMP threads

MPI task timing breakdown:
Section |  min time  |  avg time  |  max time  |%varavg| %total
---------------------------------------------------------------
Pair    | 6368.1     | 16924      | 24118      |4303.9 | 48.18
Bond    | 0.040796   | 0.09508    | 0.17588    |   9.8 |  0.00
Kspace  | 6091.3     | 14359      | 26424      |5381.6 | 40.88
Neigh   | 941.18     | 2628.8     | 3826.2     |1812.5 |  7.48
Comm    | 722.68     | 948.64     | 1177       | 310.6 |  2.70
Output  | 0.069199   | 0.073653   | 0.085482   |   0.7 |  0.00
Modify  | 96.446     | 186.76     | 319.12     | 481.7 |  0.53
Other   |            | 78.54      |            |       |  0.22

Nlocal:         3388.2 ave        4771 max        1032 min
Histogram: 16 0 0 8 24 0 16 8 24 32
Nghost:        10571.5 ave       13223 max        7786 min
Histogram: 8 24 16 8 8 0 8 24 24 8
Neighs:         789516 ave 1.16914e+06 max      219678 min
Histogram: 16 0 0 28 4 0 24 8 26 22

Total # of neighbors = 1.0105806e+08
Ave neighs/atom = 233.0191
Ave special neighs/atom = 0
Neighbor list builds = 102536
Dangerous builds = 0
System init for write_data ...
PPPM initialization ...
  using 12-bit tables for long-range coulomb (src/src/kspace.cpp:342)
  G vector (1/distance) = 0.2754834
  grid = 128 135 135
  stencil order = 5
  estimated absolute RMS force accuracy = 0.0016811367
  estimated relative force accuracy = 0.00011674848
  using double precision MKL FFT
  3d grid and FFT values/proc = 34040 34560
Generated 0 of 10 mixed pair_coeff terms from geometric mixing rule
Total wall time: 21:10:37
