LAMMPS (8 Feb 2023)
WARNING: Using I/O redirection is unreliable with parallel runs. Better to use the -in switch to read input files. (src/src/lammps.cpp:531)
  using 128 OpenMP thread(s) per MPI task
Reading data file ...
  orthogonal box = (-2.8683986 -2.8830447 -5.888217) to (195.51795 198.78176 202.93438)
  4 by 8 by 8 MPI processor grid
  reading atoms ...
WARNING: Non-zero imageflag(s) in z direction for non-periodic boundary reset to zero (src/src/read_data.cpp:1415)
  634500 atoms
  reading velocities ...
  634500 velocities
Finding 1-2 1-3 1-4 neighbors ...
  special bond factors lj:    0        0        0       
  special bond factors coul:  0        0        0       
     0 = max # of 1-2 neighbors
     0 = max # of 1-3 neighbors
     0 = max # of 1-4 neighbors
     1 = max # of special neighbors
  special bonds CPU = 0.915 seconds
  read_data CPU = 4.346 seconds
6750 atoms in group Al
81000 atoms in group La
54000 atoms in group Zr
168750 atoms in group Li
324000 atoms in group O
34997 atoms in group bottom
168750 atoms in group Li
8977 atoms in group bottom_Li
PPPM initialization ...
  using 12-bit tables for long-range coulomb (src/src/kspace.cpp:342)
  G vector (1/distance) = 0.27888062
  grid = 135 144 360
  stencil order = 5
  estimated absolute RMS force accuracy = 0.0015751582
  estimated relative force accuracy = 0.00010938869
  using double precision MKL FFT
  3d grid and FFT values/proc = 236440 156060
Generated 0 of 10 mixed pair_coeff terms from geometric mixing rule
Neighbor list info ...
  update: every = 1 steps, delay = 0 steps, check = yes
  max neighbors/atom: 5000, page size: 100000
  master list distance cutoff = 11.5
  ghost atom cutoff = 11.5
  binsize = 5.75, bins = 35 36 37
  3 neighbor lists, perpetual/occasional/extra = 3 0 0
  (1) pair buck/coul/long, perpetual
      attributes: half, newton on
      pair build: half/bin/newton
      stencil: half/bin/3d
      bin: standard
  (2) pair lennard/mdf, perpetual, skip from (3)
      attributes: half, newton on, cut 4
      pair build: skip
      stencil: none
      bin: none
  (3) neighbor class addition, perpetual, trim from (1)
      attributes: half, newton on, cut 4
      pair build: trim
      stencil: none
      bin: none
Setting up cg style minimization ...
  Unit style    : metal
  Current step  : 0
Per MPI rank memory allocation (min/avg/max) = 224.6 | 228.7 | 245.6 Mbytes
   Step          Temp          E_pair         E_mol          TotEng         Press     
         0   699.62829     -7166070.1      0             -7108689.8     -3362.2138    
     10806   699.62829     -7304272.9      0             -7246892.6     -823.60507    
Loop time of 1618.75 on 32768 procs for 10806 steps with 634500 atoms

76.8% CPU use with 256 MPI tasks x 128 OpenMP threads

Minimization stats:
  Stopping criterion = linesearch alpha is zero
  Energy initial, next-to-last, final = 
     -7166070.10466293  -7304272.93289934  -7304272.93289934
  Force two-norm initial, final = 1760.0355 0.47889215
  Force max component initial, final = 19.119494 0.13809975
  Final line search alpha, max atom move = 3.523764e-08 4.8663092e-09
  Iterations, force evaluations = 10806 18474

MPI task timing breakdown:
Section |  min time  |  avg time  |  max time  |%varavg| %total
---------------------------------------------------------------
Pair    | 339.29     | 682.37     | 850.74     | 532.8 | 42.15
Bond    | 0.0019756  | 0.0031323  | 0.004991   |   0.9 |  0.00
Kspace  | 700.49     | 876.06     | 1238.1     | 495.1 | 54.12
Neigh   | 13.768     | 31.113     | 38.495     | 124.4 |  1.92
Comm    | 13.617     | 21.193     | 25.347     |  48.0 |  1.31
Output  | 0          | 0          | 0          |   0.0 |  0.00
Modify  | 0          | 0          | 0          |   0.0 |  0.00
Other   |            | 8.013      |            |       |  0.50

Nlocal:        2478.52 ave        2851 max        1633 min
Histogram: 16 0 48 0 0 18 30 0 9 135
Nghost:        10193.4 ave       11943 max        5876 min
Histogram: 16 46 2 0 0 0 26 22 0 144
Neighs:         643072 ave      790434 max      302503 min
Histogram: 8 5 27 2 24 28 18 0 36 108

Total # of neighbors = 1.6462646e+08
Ave neighs/atom = 259.45857
Ave special neighs/atom = 0
Neighbor list builds = 1558
Dangerous builds = 0
PPPM initialization ...
  using 12-bit tables for long-range coulomb (src/src/kspace.cpp:342)
  G vector (1/distance) = 0.27888062
  grid = 135 144 360
  stencil order = 5
  estimated absolute RMS force accuracy = 0.0015751582
  estimated relative force accuracy = 0.00010938869
  using double precision MKL FFT
  3d grid and FFT values/proc = 236440 156060
Generated 0 of 10 mixed pair_coeff terms from geometric mixing rule
Setting up Verlet run ...
  Unit style    : metal
  Current step  : 0
  Time step     : 0.002
Per MPI rank memory allocation (min/avg/max) = 224.9 | 229.1 | 245.8 Mbytes
   Step          Temp          TotEng           Lx             Ly             Lz           Press     
         0   699.62829     -7246892.6      198.38635      201.66481      208.8226      -823.60507    
      1000   701.21688     -7187804.3      198.38635      201.66481      208.8226      -11293.318    
      2000   699.46678     -7186422.6      198.38635      201.66481      208.8226      -19114.82     
      3000   701.08257     -7190886        198.38635      201.66481      208.8226      -1125.6968    
      4000   701.83537     -7191172.1      198.38635      201.66481      208.8226      -5433.6191    
      5000   701.30046     -7187212.1      198.38635      201.66481      208.8226      -20095.2      
      6000   699.997       -7190290.3      198.38635      201.66481      208.8226      -12624.301    
      7000   700.39414     -7191978.1      198.38635      201.66481      208.8226       778.31058    
      8000   700.17852     -7190877.9      198.38635      201.66481      208.8226      -12467.28     
      9000   700.76464     -7187799.6      198.38635      201.66481      208.8226      -20200.123    
     10000   700.97164     -7191942.6      198.38635      201.66481      208.8226      -6907.7549    
Loop time of 804.408 on 32768 procs for 10000 steps with 634500 atoms

Performance: 2.148 ns/day, 11.172 hours/ns, 12.432 timesteps/s, 7.888 Matom-step/s
76.3% CPU use with 256 MPI tasks x 128 OpenMP threads

MPI task timing breakdown:
Section |  min time  |  avg time  |  max time  |%varavg| %total
---------------------------------------------------------------
Pair    | 184.43     | 302.35     | 364.18     | 300.5 | 37.59
Bond    | 0.001318   | 0.0019035  | 0.0040107  |   0.8 |  0.00
Kspace  | 384.38     | 450.45     | 585.2      | 279.0 | 56.00
Neigh   | 18.751     | 35.201     | 41.16      | 116.1 |  4.38
Comm    | 9.3886     | 12.796     | 14.995     |  32.6 |  1.59
Output  | 0.0013633  | 0.0013902  | 0.0015786  |   0.0 |  0.00
Modify  | 1.2788     | 2.6266     | 4.9554     |  47.7 |  0.33
Other   |            | 0.9734     |            |       |  0.12

Nlocal:        2478.52 ave        2740 max        1830 min
Histogram: 63 1 0 0 0 0 0 0 34 158
Nghost:        10196.5 ave       11524 max        6569 min
Histogram: 64 0 0 0 0 0 0 0 0 192
Neighs:         633491 ave      736170 max      366436 min
Histogram: 32 0 20 12 0 0 0 5 81 106

Total # of neighbors = 1.6217361e+08
Ave neighs/atom = 255.59276
Ave special neighs/atom = 0
Neighbor list builds = 1703
Dangerous builds = 0
PPPM initialization ...
  using 12-bit tables for long-range coulomb (src/src/kspace.cpp:342)
  G vector (1/distance) = 0.27888062
  grid = 135 144 360
  stencil order = 5
  estimated absolute RMS force accuracy = 0.0015751582
  estimated relative force accuracy = 0.00010938869
  using double precision MKL FFT
  3d grid and FFT values/proc = 236440 156060
Generated 0 of 10 mixed pair_coeff terms from geometric mixing rule
Setting up Verlet run ...
  Unit style    : metal
  Current step  : 10000
  Time step     : 0.002
Per MPI rank memory allocation (min/avg/max) = 225.6 | 229.6 | 246.2 Mbytes
   Step          Temp          TotEng           Lx             Ly             Lz           Press     
     10000   700.97164     -7191942.6      198.38635      201.66481      208.8226      -6907.7549    
     11000   699.64983     -7192285.5      198.38635      201.66481      208.8226      -3272.93      
     12000   700.456       -7189194        198.38635      201.66481      208.8226      -17696.028    
     13000   699.94981     -7189885.4      198.38635      201.66481      208.8226      -15428.89     
     14000   698.84055     -7192453.2      198.38635      201.66481      208.8226      -2100.2976    
     15000   700.69514     -7191835.8      198.38635      201.66481      208.8226      -9366.3122    
     16000   699.4636      -7188631.9      198.38635      201.66481      208.8226      -19161.458    
     17000   699.76593     -7191557.8      198.38635      201.66481      208.8226      -10053.465    
     18000   699.32691     -7192329.5      198.38635      201.66481      208.8226      -3045.6039    
     19000   698.95019     -7190524.2      198.38635      201.66481      208.8226      -14898.714    
     20000   700.37491     -7189650.8      198.38635      201.66481      208.8226      -16472.081    
     21000   699.72011     -7192275.9      198.38635      201.66481      208.8226      -4886.2481    
     22000   700.31552     -7192091.2      198.38635      201.66481      208.8226      -7555.3793    
     23000   700.40064     -7189401.9      198.38635      201.66481      208.8226      -17610.48     
     24000   700.8118      -7191119.3      198.38635      201.66481      208.8226      -12198.897    
     25000   699.32468     -7192427.4      198.38635      201.66481      208.8226      -3763.5596    
     26000   701.511       -7191081.4      198.38635      201.66481      208.8226      -12597.538    
     27000   700.22396     -7189621.8      198.38635      201.66481      208.8226      -16460.483    
     28000   700.58297     -7191921        198.38635      201.66481      208.8226      -7224.7925    
     29000   700.13855     -7192098.3      198.38635      201.66481      208.8226      -6453.7524    
     30000   700.41749     -7190054.9      198.38635      201.66481      208.8226      -15949.518    
     31000   700.34525     -7190796.3      198.38635      201.66481      208.8226      -13430.786    
     32000   699.39858     -7192288.6      198.38635      201.66481      208.8226      -4986.688     
     33000   701.30577     -7191573.3      198.38635      201.66481      208.8226      -10585.189    
     34000   699.17878     -7190044.5      198.38635      201.66481      208.8226      -16167.388    
     35000   700.38248     -7191817.7      198.38635      201.66481      208.8226      -9345.3734    
     36000   698.50855     -7192426.5      198.38635      201.66481      208.8226      -6325.3192    
     37000   699.81943     -7190697.2      198.38635      201.66481      208.8226      -14392.574    
     38000   700.55141     -7190640.4      198.38635      201.66481      208.8226      -14015.687    
     39000   700.72802     -7192287.5      198.38635      201.66481      208.8226      -6354.2395    
     40000   699.82343     -7191940.6      198.38635      201.66481      208.8226      -9315.8496    
     41000   700.11496     -7190144.4      198.38635      201.66481      208.8226      -15615.791    
     42000   698.45788     -7191654.8      198.38635      201.66481      208.8226      -10881.293    
     43000   700.18769     -7192289.5      198.38635      201.66481      208.8226      -6446.4071    
     44000   699.52488     -7191135.4      198.38635      201.66481      208.8226      -12936.599    
     45000   700.8732      -7190615.1      198.38635      201.66481      208.8226      -14477.161    
     46000   699.84471     -7192153.8      198.38635      201.66481      208.8226      -7787.805     
     47000   699.02152     -7192276.9      198.38635      201.66481      208.8226      -8555.8827    
     48000   700.67785     -7190556.6      198.38635      201.66481      208.8226      -14704.279    
     49000   700.79466     -7191264.7      198.38635      201.66481      208.8226      -11689.375    
     50000   699.79717     -7192260.1      198.38635      201.66481      208.8226      -6809.5608    
     51000   698.84927     -7191612.1      198.38635      201.66481      208.8226      -11789.32     
     52000   700.08206     -7190648.1      198.38635      201.66481      208.8226      -14350.699    
     53000   700.19029     -7191991        198.38635      201.66481      208.8226      -8724.1138    
     54000   700.63927     -7191962.6      198.38635      201.66481      208.8226      -8027.4804    
     55000   700.08057     -7190833.6      198.38635      201.66481      208.8226      -13805.33     
     56000   700.31172     -7191277.2      198.38635      201.66481      208.8226      -12423        
     57000   699.08288     -7192225.1      198.38635      201.66481      208.8226      -7470.4774    
     58000   699.88477     -7191708.6      198.38635      201.66481      208.8226      -10549.372    
     59000   700.80685     -7190791.9      198.38635      201.66481      208.8226      -14184.859    
     60000   700.42251     -7191810.6      198.38635      201.66481      208.8226      -10056.846    
     61000   699.91381     -7192324.8      198.38635      201.66481      208.8226      -8046.0535    
     62000   700.38568     -7191142.8      198.38635      201.66481      208.8226      -12934.722    
     63000   698.55438     -7191234        198.38635      201.66481      208.8226      -12770.915    
     64000   701.00581     -7192033.9      198.38635      201.66481      208.8226      -8282.8551    
     65000   701.15434     -7191788.2      198.38635      201.66481      208.8226      -9951.3625    
     66000   699.79876     -7191049.7      198.38635      201.66481      208.8226      -13605.843    
     67000   699.87026     -7191681        198.38635      201.66481      208.8226      -10716.134    
     68000   701.05053     -7192102.1      198.38635      201.66481      208.8226      -8142.269     
     69000   699.51922     -7191493.5      198.38635      201.66481      208.8226      -12041.453    
     70000   700.78275     -7191085.6      198.38635      201.66481      208.8226      -12973.808    
     71000   701.62044     -7192029.6      198.38635      201.66481      208.8226      -9153.5669    
     72000   697.46653     -7192182.6      198.38635      201.66481      208.8226      -9515.5912    
     73000   701.11673     -7191115.4      198.38635      201.66481      208.8226      -13162.275    
     74000   699.79555     -7191680.1      198.38635      201.66481      208.8226      -11356.887    
     75000   699.16205     -7192203.2      198.38635      201.66481      208.8226      -8529.1792    
     76000   700.22932     -7191592.5      198.38635      201.66481      208.8226      -11451.695    
     77000   699.42407     -7191235        198.38635      201.66481      208.8226      -12749.508    
     78000   698.66022     -7192017.1      198.38635      201.66481      208.8226      -9529.6365    
     79000   700.19785     -7192080.2      198.38635      201.66481      208.8226      -9385.2047    
     80000   699.63694     -7191357.4      198.38635      201.66481      208.8226      -12517.005    
     81000   700.83013     -7191466.6      198.38635      201.66481      208.8226      -11680.877    
     82000   700.16315     -7192109.8      198.38635      201.66481      208.8226      -8892.4516    
     83000   698.96481     -7191942.9      198.38635      201.66481      208.8226      -10873.647    
     84000   699.0336      -7191398.1      198.38635      201.66481      208.8226      -12832.258    
     85000   699.24409     -7191905.8      198.38635      201.66481      208.8226      -10095.277    
     86000   700.37056     -7192043.6      198.38635      201.66481      208.8226      -9323.7051    
     87000   699.7021      -7191504.5      198.38635      201.66481      208.8226      -12094.189    
     88000   700.34538     -7191503.3      198.38635      201.66481      208.8226      -11800.845    
     89000   699.97486     -7192127.2      198.38635      201.66481      208.8226      -9384.091     
     90000   700.20439     -7191815.9      198.38635      201.66481      208.8226      -10437.98     
     91000   699.24583     -7191472.9      198.38635      201.66481      208.8226      -12438.513    
     92000   701.02491     -7191683.6      198.38635      201.66481      208.8226      -10775.362    
     93000   700.50507     -7192075.5      198.38635      201.66481      208.8226      -9300.2418    
     94000   698.91502     -7191779.1      198.38635      201.66481      208.8226      -11630.613    
     95000   699.67145     -7191517.1      198.38635      201.66481      208.8226      -11936.011    
     96000   701.07408     -7191945.4      198.38635      201.66481      208.8226      -9704.1602    
     97000   699.83385     -7192074.9      198.38635      201.66481      208.8226      -10225.212    
     98000   698.90537     -7191674.2      198.38635      201.66481      208.8226      -12263.328    
     99000   701.75564     -7191610.2      198.38635      201.66481      208.8226      -10976.734    
    100000   700.09234     -7192006.7      198.38635      201.66481      208.8226      -9647.1004    
    101000   701.1337      -7191553.1      198.38635      201.66481      208.8226      -11325.467    
    102000   700.32394     -7191634.3      198.38635      201.66481      208.8226      -12021.95     
    103000   699.24099     -7191987.1      198.38635      201.66481      208.8226      -10187.982    
    104000   700.52496     -7191983.5      198.38635      201.66481      208.8226      -10122.143    
    105000   700.1501      -7191506.2      198.38635      201.66481      208.8226      -11873.599    
    106000   700.15088     -7191755.7      198.38635      201.66481      208.8226      -11222.42     
    107000   700.61408     -7191938.4      198.38635      201.66481      208.8226      -9807.9764    
    108000   700.46791     -7191719.3      198.38635      201.66481      208.8226      -10845.249    
    109000   699.65273     -7191678.5      198.38635      201.66481      208.8226      -11784.22     
    110000   699.97705     -7191922.2      198.38635      201.66481      208.8226      -10335.911    
    111000   700.01292     -7191948.2      198.38635      201.66481      208.8226      -10011.335    
    112000   700.77944     -7191653.4      198.38635      201.66481      208.8226      -11547.271    
    113000   699.83863     -7191704.9      198.38635      201.66481      208.8226      -11381.347    
    114000   700.46092     -7191961.1      198.38635      201.66481      208.8226      -9940.4041    
    115000   699.33769     -7192005.3      198.38635      201.66481      208.8226      -10721.465    
    116000   700.43592     -7191618.6      198.38635      201.66481      208.8226      -11716.791    
    117000   700.47086     -7191780.1      198.38635      201.66481      208.8226      -10605.068    
    118000   700.20779     -7192032.6      198.38635      201.66481      208.8226      -10102.436    
    119000   699.62215     -7191763.2      198.38635      201.66481      208.8226      -11277.557    
    120000   700.85489     -7191574.4      198.38635      201.66481      208.8226      -11440.002    
    121000   699.5698      -7192078.4      198.38635      201.66481      208.8226      -10122.095    
    122000   700.13422     -7191874.9      198.38635      201.66481      208.8226      -10570.709    
    123000   701.01445     -7191716.1      198.38635      201.66481      208.8226      -11671.9      
    124000   700.00441     -7191832        198.38635      201.66481      208.8226      -11015.592    
    125000   700.46992     -7191970.4      198.38635      201.66481      208.8226      -10168.245    
    126000   700.09517     -7191953        198.38635      201.66481      208.8226      -11136.384    
    127000   700.37425     -7191656        198.38635      201.66481      208.8226      -11320.576    
    128000   700.83894     -7191892.7      198.38635      201.66481      208.8226      -10573.014    
    129000   698.74298     -7192126.4      198.38635      201.66481      208.8226      -10501.203    
    130000   698.99615     -7191803.2      198.38635      201.66481      208.8226      -11317.17     
    131000   700.93003     -7191740.1      198.38635      201.66481      208.8226      -11135.914    
    132000   699.52494     -7192114        198.38635      201.66481      208.8226      -10377        
    133000   700.18823     -7191872.2      198.38635      201.66481      208.8226      -10960.776    
    134000   700.44143     -7191566.8      198.38635      201.66481      208.8226      -11435.842    
    135000   700.99997     -7191787.5      198.38635      201.66481      208.8226      -10695.076    
    136000   700.0455      -7191976.6      198.38635      201.66481      208.8226      -10449.408    
    137000   699.99133     -7191923.8      198.38635      201.66481      208.8226      -11322.31     
    138000   699.46057     -7191991.9      198.38635      201.66481      208.8226      -11152.231    
    139000   699.71168     -7192094.3      198.38635      201.66481      208.8226      -10359.338    
    140000   698.75563     -7192108.5      198.38635      201.66481      208.8226      -10846.773    
    141000   699.80785     -7191845.9      198.38635      201.66481      208.8226      -11325.663    
    142000   699.60077     -7191983.3      198.38635      201.66481      208.8226      -10856.127    
    143000   699.56135     -7191993.2      198.38635      201.66481      208.8226      -10323.377    
    144000   697.658       -7192149.7      198.38635      201.66481      208.8226      -11279.255    
    145000   699.88689     -7191721.6      198.38635      201.66481      208.8226      -11238.476    
    146000   699.46056     -7192050.1      198.38635      201.66481      208.8226      -10550.787    
    147000   700.45537     -7191910.8      198.38635      201.66481      208.8226      -10748.514    
    148000   700.50044     -7191769        198.38635      201.66481      208.8226      -11219.956    
    149000   702.44872     -7191771.5      198.38635      201.66481      208.8226      -10864.404    
    150000   698.14373     -7192246.4      198.38635      201.66481      208.8226      -10534.22     
    151000   699.40677     -7191927.6      198.38635      201.66481      208.8226      -11124.593    
    152000   700.11302     -7191789.7      198.38635      201.66481      208.8226      -11185.135    
    153000   700.35823     -7191857.4      198.38635      201.66481      208.8226      -10795.297    
    154000   699.55046     -7192075.6      198.38635      201.66481      208.8226      -10664.232    
    155000   699.63052     -7191910.6      198.38635      201.66481      208.8226      -11123.414    
    156000   699.65509     -7191879.3      198.38635      201.66481      208.8226      -10833.076    
    157000   700.18794     -7191996.3      198.38635      201.66481      208.8226      -10609.785    
    158000   700.86394     -7191879.6      198.38635      201.66481      208.8226      -10946.226    
    159000   701.40499     -7191869.8      198.38635      201.66481      208.8226      -11016.934    
    160000   700.08595     -7192025.3      198.38635      201.66481      208.8226      -10799.868    
    161000   700.25715     -7192035.8      198.38635      201.66481      208.8226      -10765.348    
    162000   698.55262     -7192152.3      198.38635      201.66481      208.8226      -11145.812    
    163000   700.49665     -7191970.2      198.38635      201.66481      208.8226      -10949.799    
    164000   699.24471     -7192057.5      198.38635      201.66481      208.8226      -10653.086    
    165000   700.70988     -7191987.3      198.38635      201.66481      208.8226      -10937.235    
    166000   701.32253     -7191819.3      198.38635      201.66481      208.8226      -11060.393    
    167000   700.08151     -7191923.1      198.38635      201.66481      208.8226      -10916.931    
    168000   700.8908      -7192006.6      198.38635      201.66481      208.8226      -10717.142    
    169000   699.73215     -7192073.9      198.38635      201.66481      208.8226      -11053.246    
    170000   700.9297      -7191970.4      198.38635      201.66481      208.8226      -11045.923    
    171000   699.52448     -7192020.5      198.38635      201.66481      208.8226      -10838.055    
    172000   699.50952     -7191998.3      198.38635      201.66481      208.8226      -10822.585    
    173000   700.34284     -7191999.7      198.38635      201.66481      208.8226      -11065.409    
    174000   699.08954     -7192184        198.38635      201.66481      208.8226      -11026.889    
    175000   700.60484     -7191993.5      198.38635      201.66481      208.8226      -10821.447    
    176000   699.49521     -7192081.4      198.38635      201.66481      208.8226      -11011.816    
    177000   700.35871     -7191976.8      198.38635      201.66481      208.8226      -11057.738    
    178000   699.65197     -7192070.2      198.38635      201.66481      208.8226      -10912.577    
    179000   701.36041     -7191854.7      198.38635      201.66481      208.8226      -10716.73     
    180000   699.54754     -7191978.8      198.38635      201.66481      208.8226      -11059.512    
    181000   699.74468     -7191955.9      198.38635      201.66481      208.8226      -10856.573    
    182000   699.76057     -7192128.4      198.38635      201.66481      208.8226      -10690.529    
    183000   699.84158     -7192024.7      198.38635      201.66481      208.8226      -10954.138    
    184000   699.99847     -7191867.2      198.38635      201.66481      208.8226      -10954.113    
    185000   698.80568     -7192212.1      198.38635      201.66481      208.8226      -10893.009    
    186000   699.84639     -7191988.5      198.38635      201.66481      208.8226      -10836.274    
    187000   698.91676     -7192051        198.38635      201.66481      208.8226      -10996.758    
    188000   699.93807     -7192058        198.38635      201.66481      208.8226      -10928.667    
    189000   699.45798     -7192072.8      198.38635      201.66481      208.8226      -10748.944    
    190000   699.76849     -7192079.7      198.38635      201.66481      208.8226      -10921.094    
    191000   700.44518     -7191969.2      198.38635      201.66481      208.8226      -11078.635    
    192000   699.01804     -7192199.2      198.38635      201.66481      208.8226      -11000.271    
    193000   699.21216     -7192163.7      198.38635      201.66481      208.8226      -10828.77     
    194000   699.97499     -7192076        198.38635      201.66481      208.8226      -10899.838    
    195000   700.54474     -7192084.2      198.38635      201.66481      208.8226      -11054.891    
    196000   701.94336     -7191950        198.38635      201.66481      208.8226      -10779.58     
    197000   698.95097     -7192134.9      198.38635      201.66481      208.8226      -10843.142    
    198000   699.57259     -7192081.5      198.38635      201.66481      208.8226      -11232.435    
    199000   700.17275     -7192011.9      198.38635      201.66481      208.8226      -10988.044    
    200000   699.63383     -7192127.9      198.38635      201.66481      208.8226      -10717.819    
    201000   700.65125     -7191966.4      198.38635      201.66481      208.8226      -10789.779    
    202000   700.40962     -7192067.3      198.38635      201.66481      208.8226      -11047.491    
    203000   700.0168      -7192098.6      198.38635      201.66481      208.8226      -10757.465    
    204000   699.2922      -7192146.9      198.38635      201.66481      208.8226      -10883.33     
    205000   700.508       -7191965.9      198.38635      201.66481      208.8226      -10958.137    
    206000   700.97536     -7191976.9      198.38635      201.66481      208.8226      -10828.829    
    207000   701.15257     -7191936.9      198.38635      201.66481      208.8226      -10709.031    
    208000   699.66732     -7192188.8      198.38635      201.66481      208.8226      -10997.692    
    209000   701.10793     -7191924.7      198.38635      201.66481      208.8226      -11014.471    
    210000   700.2317      -7192141.8      198.38635      201.66481      208.8226      -10935.509    
    211000   701.31474     -7191981.1      198.38635      201.66481      208.8226      -10868.182    
    212000   700.75487     -7192034        198.38635      201.66481      208.8226      -10921.959    
    213000   699.81942     -7192050.1      198.38635      201.66481      208.8226      -10890.408    
    214000   700.13102     -7192119.3      198.38635      201.66481      208.8226      -10756.984    
    215000   698.92356     -7192146.5      198.38635      201.66481      208.8226      -10956.63     
    216000   700.7553      -7191891.8      198.38635      201.66481      208.8226      -10991.602    
    217000   700.14927     -7191954.5      198.38635      201.66481      208.8226      -10769.239    
    218000   699.52766     -7192139.3      198.38635      201.66481      208.8226      -10714.27     
    219000   700.4175      -7192077.9      198.38635      201.66481      208.8226      -10954.611    
    220000   699.63212     -7192023.4      198.38635      201.66481      208.8226      -10921.022    
    221000   700.22597     -7192126.9      198.38635      201.66481      208.8226      -10843.348    
    222000   699.74999     -7192095.5      198.38635      201.66481      208.8226      -10790.9      
    223000   700.07329     -7191995.2      198.38635      201.66481      208.8226      -11036.443    
    224000   700.50186     -7192045.8      198.38635      201.66481      208.8226      -10968.835    
    225000   699.32366     -7192272.7      198.38635      201.66481      208.8226      -10788.134    
    226000   700.62855     -7191923.9      198.38635      201.66481      208.8226      -10918.785    
    227000   700.39472     -7192061.9      198.38635      201.66481      208.8226      -10921.93     
    228000   699.45495     -7192298.8      198.38635      201.66481      208.8226      -10880.626    
    229000   699.61509     -7192150.6      198.38635      201.66481      208.8226      -10858.749    
    230000   700.79542     -7192073.8      198.38635      201.66481      208.8226      -11083.964    
    231000   700.66616     -7192127.1      198.38635      201.66481      208.8226      -10882.48     
    232000   699.03749     -7192218.9      198.38635      201.66481      208.8226      -10998.159    
    233000   699.73708     -7192086.7      198.38635      201.66481      208.8226      -10916.932    
    234000   700.32601     -7192075.5      198.38635      201.66481      208.8226      -11023.074    
    235000   700.26244     -7192090.6      198.38635      201.66481      208.8226      -10828.323    
    236000   699.20827     -7192205.4      198.38635      201.66481      208.8226      -10706.737    
    237000   698.65174     -7192168.3      198.38635      201.66481      208.8226      -10974.052    
    238000   699.77635     -7192089.7      198.38635      201.66481      208.8226      -10978.547    
    239000   699.51679     -7192189.9      198.38635      201.66481      208.8226      -10865.911    
    240000   699.98381     -7192143.5      198.38635      201.66481      208.8226      -11030.392    
    241000   700.62717     -7192015.8      198.38635      201.66481      208.8226      -11092.437    
    242000   699.66643     -7192137.3      198.38635      201.66481      208.8226      -10854.255    
    243000   699.56649     -7192129        198.38635      201.66481      208.8226      -10840.644    
    244000   700.70162     -7191960        198.38635      201.66481      208.8226      -11148.559    
    245000   698.7719      -7192118.7      198.38635      201.66481      208.8226      -10823.281    
    246000   699.60951     -7192249.1      198.38635      201.66481      208.8226      -10771.325    
    247000   698.80449     -7192125.2      198.38635      201.66481      208.8226      -10944.646    
    248000   699.98485     -7192166.7      198.38635      201.66481      208.8226      -10934.492    
    249000   699.58986     -7192291.1      198.38635      201.66481      208.8226      -10772.207    
    250000   700.87912     -7192067.4      198.38635      201.66481      208.8226      -10857.449    
    251000   700.52609     -7192031.2      198.38635      201.66481      208.8226      -11048.103    
    252000   701.00339     -7192061.2      198.38635      201.66481      208.8226      -10809.575    
    253000   698.3588      -7192232        198.38635      201.66481      208.8226      -10713.872    
    254000   700.61656     -7192044.6      198.38635      201.66481      208.8226      -10911.675    
    255000   699.80196     -7192204.7      198.38635      201.66481      208.8226      -11002.851    
    256000   699.5355      -7192130.3      198.38635      201.66481      208.8226      -10840.129    
    257000   700.47851     -7192117.5      198.38635      201.66481      208.8226      -10932.411    
    258000   700.84202     -7191934.1      198.38635      201.66481      208.8226      -11181.046    
    259000   698.90979     -7192248.1      198.38635      201.66481      208.8226      -10866.113    
    260000   700.77616     -7192084.1      198.38635      201.66481      208.8226      -10954.831    
    261000   699.58839     -7192131.5      198.38635      201.66481      208.8226      -10979.963    
    262000   699.98576     -7192116.1      198.38635      201.66481      208.8226      -10866.412    
    263000   699.37101     -7192319.8      198.38635      201.66481      208.8226      -10846.82     
    264000   699.75465     -7192169.1      198.38635      201.66481      208.8226      -10826.444    
    265000   699.34975     -7192189.8      198.38635      201.66481      208.8226      -11057.16     
    266000   700.68847     -7192144.3      198.38635      201.66481      208.8226      -10807.723    
    267000   699.92353     -7192160.6      198.38635      201.66481      208.8226      -10738.361    
    268000   699.71398     -7192352.2      198.38635      201.66481      208.8226      -11040.346    
    269000   700.02168     -7192177.8      198.38635      201.66481      208.8226      -10965.663    
    270000   699.80043     -7192047.9      198.38635      201.66481      208.8226      -10835.185    
    271000   698.94745     -7192257.2      198.38635      201.66481      208.8226      -10860.108    
    272000   699.96483     -7192119.3      198.38635      201.66481      208.8226      -10874.892    
    273000   700.2188      -7192199        198.38635      201.66481      208.8226      -10894.069    
    274000   699.75331     -7192331.9      198.38635      201.66481      208.8226      -10805.053    
    275000   699.79967     -7192264.1      198.38635      201.66481      208.8226      -11078.33     
    276000   699.53855     -7192208.7      198.38635      201.66481      208.8226      -11115.857    
    277000   699.97542     -7192031.2      198.38635      201.66481      208.8226      -10838.971    
    278000   699.17691     -7192184.8      198.38635      201.66481      208.8226      -10866.902    
    279000   699.7434      -7192035.2      198.38635      201.66481      208.8226      -10841.61     
    280000   700.2573      -7192116        198.38635      201.66481      208.8226      -11032.367    
    281000   699.85928     -7192156.4      198.38635      201.66481      208.8226      -10686.322    
    282000   697.43621     -7192311.1      198.38635      201.66481      208.8226      -10984.041    
    283000   700.52799     -7192021.7      198.38635      201.66481      208.8226      -10867.171    
    284000   700.20954     -7192063.1      198.38635      201.66481      208.8226      -10960.421    
    285000   699.45549     -7192240.3      198.38635      201.66481      208.8226      -10855.722    
    286000   701.21196     -7192050.4      198.38635      201.66481      208.8226      -10931.915    
    287000   699.48208     -7192260.5      198.38635      201.66481      208.8226      -11046.59     
    288000   699.56672     -7192287.9      198.38635      201.66481      208.8226      -10864.71     
    289000   701.44154     -7192091        198.38635      201.66481      208.8226      -10943.561    
    290000   700.43682     -7192059.6      198.38635      201.66481      208.8226      -10990.394    
    291000   699.22129     -7192282.5      198.38635      201.66481      208.8226      -11003.753    
    292000   701.04295     -7192204        198.38635      201.66481      208.8226      -10945.534    
    293000   699.40543     -7192220        198.38635      201.66481      208.8226      -10907.012    
    294000   700.18086     -7192076        198.38635      201.66481      208.8226      -10992.045    
    295000   698.91458     -7192342.6      198.38635      201.66481      208.8226      -10798.872    
    296000   699.93045     -7192205.3      198.38635      201.66481      208.8226      -10972.635    
    297000   699.43491     -7192215.4      198.38635      201.66481      208.8226      -10892.617    
    298000   700.13687     -7192221.2      198.38635      201.66481      208.8226      -10923.236    
    299000   700.00414     -7192261.2      198.38635      201.66481      208.8226      -10791.078    
    300000   698.54777     -7192404        198.38635      201.66481      208.8226      -11062.57     
    301000   699.84503     -7192044.9      198.38635      201.66481      208.8226      -10933.398    
    302000   700.49254     -7192169.6      198.38635      201.66481      208.8226      -10932.788    
    303000   699.2743      -7192349.3      198.38635      201.66481      208.8226      -10907.904    
    304000   698.95306     -7192315.5      198.38635      201.66481      208.8226      -10916.777    
    305000   700.47609     -7192125.1      198.38635      201.66481      208.8226      -10993.414    
    306000   699.85801     -7192256.4      198.38635      201.66481      208.8226      -10982.221    
    307000   700.13886     -7192074.7      198.38635      201.66481      208.8226      -10826.243    
    308000   701.15083     -7192103.9      198.38635      201.66481      208.8226      -10969.666    
    309000   699.56148     -7192206.6      198.38635      201.66481      208.8226      -10914.925    
    310000   699.37651     -7192239        198.38635      201.66481      208.8226      -10902.747    
    311000   700.57407     -7192116.4      198.38635      201.66481      208.8226      -10920.004    
    312000   699.79781     -7192295.1      198.38635      201.66481      208.8226      -11049.53     
    313000   701.16363     -7192108.9      198.38635      201.66481      208.8226      -10892.201    
    314000   700.97706     -7192156.8      198.38635      201.66481      208.8226      -10855.766    
    315000   698.63679     -7192321.2      198.38635      201.66481      208.8226      -11108.459    
    316000   699.70903     -7192122.3      198.38635      201.66481      208.8226      -10666.071    
    317000   700.72741     -7192099.1      198.38635      201.66481      208.8226      -10821.451    
    318000   699.50049     -7192211.4      198.38635      201.66481      208.8226      -11153.967    
    319000   700.01693     -7192235.3      198.38635      201.66481      208.8226      -10918.349    
    320000   698.66712     -7192352.3      198.38635      201.66481      208.8226      -10985.845    
    321000   698.91132     -7192256.3      198.38635      201.66481      208.8226      -10937.171    
    322000   699.7796      -7192199.9      198.38635      201.66481      208.8226      -10980.867    
    323000   701.14168     -7191949.3      198.38635      201.66481      208.8226      -10836.186    
    324000   700.19781     -7192319.2      198.38635      201.66481      208.8226      -11034.158    
    325000   699.47134     -7192196.8      198.38635      201.66481      208.8226      -10932.78     
    326000   699.87515     -7192329.9      198.38635      201.66481      208.8226      -10993.075    
    327000   699.72944     -7192205        198.38635      201.66481      208.8226      -10868.423    
    328000   700.15429     -7192207        198.38635      201.66481      208.8226      -10837.798    
    329000   700.58243     -7192286.2      198.38635      201.66481      208.8226      -11006.093    
    330000   700.66516     -7192219.9      198.38635      201.66481      208.8226      -11010.307    
    331000   700.44069     -7192288        198.38635      201.66481      208.8226      -11101.372    
    332000   698.70769     -7192372.6      198.38635      201.66481      208.8226      -10853.582    
    333000   699.03632     -7192105.1      198.38635      201.66481      208.8226      -10877.223    
    334000   700.64379     -7192138.6      198.38635      201.66481      208.8226      -10951.291    
    335000   699.5254      -7192263.3      198.38635      201.66481      208.8226      -10906.145    
    336000   701.52845     -7192216.9      198.38635      201.66481      208.8226      -10908.226    
    337000   699.47972     -7192305.8      198.38635      201.66481      208.8226      -11060.911    
    338000   699.65859     -7192245.5      198.38635      201.66481      208.8226      -10914.62     
    339000   701.53662     -7192187.4      198.38635      201.66481      208.8226      -11150.685    
    340000   699.22915     -7192373.4      198.38635      201.66481      208.8226      -10874.013    
    341000   699.75749     -7192372.9      198.38635      201.66481      208.8226      -10937.886    
    342000   700.08084     -7192321        198.38635      201.66481      208.8226      -10950.381    
    343000   699.31922     -7192280.1      198.38635      201.66481      208.8226      -10937.125    
    344000   699.44353     -7192348.9      198.38635      201.66481      208.8226      -11043.207    
    345000   699.43995     -7192270.3      198.38635      201.66481      208.8226      -10744.48     
    346000   699.99507     -7192273.9      198.38635      201.66481      208.8226      -10996.336    
    347000   701.41987     -7192116.8      198.38635      201.66481      208.8226      -10959.439    
    348000   700.8683      -7192172.4      198.38635      201.66481      208.8226      -10763.973    
    349000   699.95645     -7192355.4      198.38635      201.66481      208.8226      -10813.633    
    350000   701.39611     -7192098.9      198.38635      201.66481      208.8226      -10982.871    
    351000   699.83155     -7192260.9      198.38635      201.66481      208.8226      -11001.052    
    352000   701.19712     -7192168.4      198.38635      201.66481      208.8226      -10750.189    
    353000   700.01962     -7192273.5      198.38635      201.66481      208.8226      -10989.5      
    354000   698.8336      -7192235.1      198.38635      201.66481      208.8226      -10985.242    
    355000   700.29054     -7192157        198.38635      201.66481      208.8226      -10789.278    
    356000   700.05528     -7192257.2      198.38635      201.66481      208.8226      -10709.211    
    357000   699.62861     -7192226.2      198.38635      201.66481      208.8226      -11026.618    
    358000   701.39385     -7192136.7      198.38635      201.66481      208.8226      -11151.826    
    359000   699.49792     -7192323.2      198.38635      201.66481      208.8226      -10778.512    
    360000   701.46743     -7192078.5      198.38635      201.66481      208.8226      -10833.7      
    361000   700.46992     -7192157.9      198.38635      201.66481      208.8226      -11091.696    
    362000   698.06529     -7192407.2      198.38635      201.66481      208.8226      -10841.85     
    363000   700.60739     -7192220.1      198.38635      201.66481      208.8226      -10795.739    
    364000   700.18153     -7192278        198.38635      201.66481      208.8226      -10853.983    
    365000   701.15549     -7192281.3      198.38635      201.66481      208.8226      -10958.164    
    366000   699.16362     -7192367.5      198.38635      201.66481      208.8226      -10831.797    
    367000   701.1353      -7192182.3      198.38635      201.66481      208.8226      -10932.612    
    368000   700.19531     -7192203.9      198.38635      201.66481      208.8226      -10975.047    
    369000   699.645       -7192393        198.38635      201.66481      208.8226      -10938.133    
    370000   699.37298     -7192301.1      198.38635      201.66481      208.8226      -10838.866    
    371000   700.87399     -7192236.5      198.38635      201.66481      208.8226      -10790.855    
    372000   699.58636     -7192275.4      198.38635      201.66481      208.8226      -10949.064    
    373000   700.5328      -7192183.5      198.38635      201.66481      208.8226      -10867.388    
    374000   699.8154      -7192224.8      198.38635      201.66481      208.8226      -10937.661    
    375000   699.70175     -7192328.6      198.38635      201.66481      208.8226      -11048.145    
    376000   700.07541     -7192165.9      198.38635      201.66481      208.8226      -10945.244    
    377000   700.98164     -7192157.4      198.38635      201.66481      208.8226      -10923.161    
    378000   699.96829     -7192237.7      198.38635      201.66481      208.8226      -10837.89     
    379000   699.09867     -7192257.2      198.38635      201.66481      208.8226      -10857.295    
    380000   700.8342      -7192113.9      198.38635      201.66481      208.8226      -10833.593    
    381000   700.5304      -7192274.9      198.38635      201.66481      208.8226      -10835.488    
    382000   700.95896     -7192105.4      198.38635      201.66481      208.8226      -11098.028    
    383000   699.95212     -7192310.5      198.38635      201.66481      208.8226      -10957.931    
    384000   700.66675     -7192262.6      198.38635      201.66481      208.8226      -10774.96     
    385000   699.84524     -7192232.8      198.38635      201.66481      208.8226      -11021.708    
    386000   700.01021     -7192271.9      198.38635      201.66481      208.8226      -10981.241    
    387000   699.45174     -7192250        198.38635      201.66481      208.8226      -10642.995    
    388000   700.37102     -7192292.5      198.38635      201.66481      208.8226      -10925.135    
    389000   699.59975     -7192243.1      198.38635      201.66481      208.8226      -10998.218    
    390000   700.65731     -7192100.5      198.38635      201.66481      208.8226      -10933.719    
    391000   698.84915     -7192321.8      198.38635      201.66481      208.8226      -10866.864    
    392000   699.57301     -7192286.7      198.38635      201.66481      208.8226      -10963.141    
    393000   700.62905     -7192151.9      198.38635      201.66481      208.8226      -10984.097    
    394000   698.8492      -7192410.9      198.38635      201.66481      208.8226      -10818.081    
    395000   699.25257     -7192408.9      198.38635      201.66481      208.8226      -11145.272    
    396000   698.65377     -7192334.6      198.38635      201.66481      208.8226      -10930.917    
    397000   698.9599      -7192386.1      198.38635      201.66481      208.8226      -11019.667    
    398000   699.22473     -7192370.2      198.38635      201.66481      208.8226      -10913.445    
    399000   700.3664      -7192337.9      198.38635      201.66481      208.8226      -10923.611    
    400000   700.25176     -7192340.4      198.38635      201.66481      208.8226      -10916.852    
    401000   699.91025     -7192352.9      198.38635      201.66481      208.8226      -10809.798    
    402000   700.20826     -7192251.7      198.38635      201.66481      208.8226      -10942.998    
    403000   701.19369     -7192133.2      198.38635      201.66481      208.8226      -10993.882    
    404000   700.83737     -7192295.2      198.38635      201.66481      208.8226      -10920.056    
    405000   699.94616     -7192416.7      198.38635      201.66481      208.8226      -10917.561    
    406000   698.77956     -7192380.2      198.38635      201.66481      208.8226      -10844.153    
    407000   699.83578     -7192338.4      198.38635      201.66481      208.8226      -10882.813    
    408000   700.07664     -7192257.7      198.38635      201.66481      208.8226      -10900.446    
    409000   700.23743     -7192262.7      198.38635      201.66481      208.8226      -10863.737    
    410000   700.41188     -7192292.9      198.38635      201.66481      208.8226      -10986.701    
    411000   699.2235      -7192322.6      198.38635      201.66481      208.8226      -11109.438    
    412000   699.7925      -7192406.6      198.38635      201.66481      208.8226      -10958.722    
    413000   699.32042     -7192453.4      198.38635      201.66481      208.8226      -11008.4      
    414000   699.02458     -7192409.1      198.38635      201.66481      208.8226      -10928.455    
    415000   699.89554     -7192318.6      198.38635      201.66481      208.8226      -10861.673    
    416000   701.4572      -7192204.7      198.38635      201.66481      208.8226      -10777.772    
    417000   700.14152     -7192168.4      198.38635      201.66481      208.8226      -10892.49     
    418000   699.47289     -7192240.9      198.38635      201.66481      208.8226      -10977.466    
    419000   699.96056     -7192279.4      198.38635      201.66481      208.8226      -10967.708    
    420000   700.69451     -7192178.5      198.38635      201.66481      208.8226      -10955.908    
    421000   697.94351     -7192401.7      198.38635      201.66481      208.8226      -10994.521    
    422000   699.9733      -7192311.1      198.38635      201.66481      208.8226      -10932.424    
    423000   700.0745      -7192219.5      198.38635      201.66481      208.8226      -10754.423    
    424000   699.2497      -7192313        198.38635      201.66481      208.8226      -10976.025    
    425000   701.49062     -7192176        198.38635      201.66481      208.8226      -10824.311    
    426000   699.64314     -7192419.9      198.38635      201.66481      208.8226      -10913.859    
    427000   701.22825     -7192166.8      198.38635      201.66481      208.8226      -10998.828    
    428000   700.22056     -7192300.8      198.38635      201.66481      208.8226      -10990.7      
    429000   700.34459     -7192311.2      198.38635      201.66481      208.8226      -10895.058    
    430000   700.56302     -7192259        198.38635      201.66481      208.8226      -10924.059    
    431000   701.47853     -7192177.3      198.38635      201.66481      208.8226      -10959.455    
    432000   699.58001     -7192282.8      198.38635      201.66481      208.8226      -10906.422    
    433000   701.08428     -7192222.4      198.38635      201.66481      208.8226      -10741.174    
    434000   700.24332     -7192133.3      198.38635      201.66481      208.8226      -10812.569    
    435000   699.42792     -7192348.9      198.38635      201.66481      208.8226      -10990.972    
    436000   700.11798     -7192330.2      198.38635      201.66481      208.8226      -10975.549    
    437000   700.25442     -7192282.6      198.38635      201.66481      208.8226      -10911.464    
    438000   699.29248     -7192411.2      198.38635      201.66481      208.8226      -10958.955    
    439000   698.97079     -7192476.3      198.38635      201.66481      208.8226      -10885.026    
    440000   700.05017     -7192262.2      198.38635      201.66481      208.8226      -10968.861    
    441000   700.12347     -7192322.8      198.38635      201.66481      208.8226      -10780.84     
    442000   700.52559     -7192432.3      198.38635      201.66481      208.8226      -10888.551    
    443000   699.73536     -7192235.1      198.38635      201.66481      208.8226      -10947.318    
    444000   699.78113     -7192347.4      198.38635      201.66481      208.8226      -11006.411    
    445000   700.03077     -7192381.1      198.38635      201.66481      208.8226      -10783.207    
    446000   699.63568     -7192282.3      198.38635      201.66481      208.8226      -10918.397    
    447000   700.84386     -7192277.9      198.38635      201.66481      208.8226      -10931.965    
    448000   700.14465     -7192379.8      198.38635      201.66481      208.8226      -10891.555    
    449000   700.73908     -7192226.9      198.38635      201.66481      208.8226      -10759.135    
    450000   699.87778     -7192247.4      198.38635      201.66481      208.8226      -10919.562    
    451000   699.14003     -7192478.9      198.38635      201.66481      208.8226      -11120.994    
    452000   699.42235     -7192388.6      198.38635      201.66481      208.8226      -10877.975    
    453000   700.71142     -7192355.7      198.38635      201.66481      208.8226      -11008.216    
    454000   699.26469     -7192269.5      198.38635      201.66481      208.8226      -11085.117    
    455000   699.99339     -7192349.9      198.38635      201.66481      208.8226      -11013.277    
    456000   700.05367     -7192495.2      198.38635      201.66481      208.8226      -10863.224    
    457000   701.91794     -7192143.6      198.38635      201.66481      208.8226      -11021.634    
    458000   700.48165     -7192281.4      198.38635      201.66481      208.8226      -11009.035    
    459000   699.98875     -7192346.1      198.38635      201.66481      208.8226      -10894.53     
    460000   701.35347     -7192214.5      198.38635      201.66481      208.8226      -10856.488    
    461000   699.94863     -7192343.1      198.38635      201.66481      208.8226      -10976.3      
    462000   699.19326     -7192280.2      198.38635      201.66481      208.8226      -10919.876    
    463000   699.78967     -7192350.6      198.38635      201.66481      208.8226      -10910.364    
    464000   701.0559      -7192285.8      198.38635      201.66481      208.8226      -11092.569    
    465000   700.8938      -7192211.9      198.38635      201.66481      208.8226      -11073.922    
    466000   699.95433     -7192341.9      198.38635      201.66481      208.8226      -10920.121    
    467000   700.21149     -7192308.5      198.38635      201.66481      208.8226      -10975.839    
    468000   699.90377     -7192312.7      198.38635      201.66481      208.8226      -10856.589    
    469000   700.09482     -7192274.1      198.38635      201.66481      208.8226      -10918.076    
    470000   699.36424     -7192367.2      198.38635      201.66481      208.8226      -10695.947    
    471000   700.13342     -7192509.1      198.38635      201.66481      208.8226      -10939.236    
    472000   699.18975     -7192524.6      198.38635      201.66481      208.8226      -10865.364    
    473000   699.77719     -7192283.7      198.38635      201.66481      208.8226      -10931.973    
    474000   701.06622     -7192244.5      198.38635      201.66481      208.8226      -10821.695    
    475000   700.60833     -7192369.3      198.38635      201.66481      208.8226      -10963.204    
    476000   700.01563     -7192275.8      198.38635      201.66481      208.8226      -10893.644    
    477000   698.46017     -7192474.2      198.38635      201.66481      208.8226      -10995.068    
    478000   699.64398     -7192335.3      198.38635      201.66481      208.8226      -10860.077    
    479000   700.79195     -7192313.4      198.38635      201.66481      208.8226      -10864.733    
    480000   700.72652     -7192236.3      198.38635      201.66481      208.8226      -10892.564    
    481000   700.36623     -7192258        198.38635      201.66481      208.8226      -10907.704    
    482000   700.39917     -7192312.4      198.38635      201.66481      208.8226      -10914.185    
    483000   699.00159     -7192374.3      198.38635      201.66481      208.8226      -11005.428    
    484000   700.97092     -7192293        198.38635      201.66481      208.8226      -10941.031    
    485000   699.7031      -7192334.4      198.38635      201.66481      208.8226      -10990.742    
    486000   700.04594     -7192347.3      198.38635      201.66481      208.8226      -10980.413    
    487000   700.16228     -7192342.4      198.38635      201.66481      208.8226      -10875.36     
    488000   699.31049     -7192416.1      198.38635      201.66481      208.8226      -11077.624    
    489000   699.78052     -7192394.3      198.38635      201.66481      208.8226      -10875.828    
    490000   701.34901     -7192220.7      198.38635      201.66481      208.8226      -10899.21     
    491000   699.79964     -7192359.7      198.38635      201.66481      208.8226      -11013.718    
    492000   701.00351     -7192289.8      198.38635      201.66481      208.8226      -10867.573    
    493000   700.78882     -7192255.5      198.38635      201.66481      208.8226      -10777.786    
    494000   699.07348     -7192404.7      198.38635      201.66481      208.8226      -10780.203    
    495000   699.07889     -7192487.3      198.38635      201.66481      208.8226      -10984.639    
    496000   700.72146     -7192212.8      198.38635      201.66481      208.8226      -10835.144    
    497000   700.93192     -7192371.4      198.38635      201.66481      208.8226      -10927.655    
    498000   699.01846     -7192413.6      198.38635      201.66481      208.8226      -10915.982    
    499000   700.84559     -7192324.7      198.38635      201.66481      208.8226      -10973.093    
    500000   699.92095     -7192331.4      198.38635      201.66481      208.8226      -10878.068    
    501000   702.07898     -7192199        198.38635      201.66481      208.8226      -10976.238    
    502000   700.31539     -7192306        198.38635      201.66481      208.8226      -10986.619    
    503000   700.50347     -7192360.4      198.38635      201.66481      208.8226      -10841.222    
    504000   700.92394     -7192390        198.38635      201.66481      208.8226      -10814.877    
    505000   699.21033     -7192424.7      198.38635      201.66481      208.8226      -11078.738    
    506000   700.16032     -7192279.8      198.38635      201.66481      208.8226      -10980.036    
    507000   701.35984     -7192307.5      198.38635      201.66481      208.8226      -10813.356    
    508000   699.57937     -7192421.9      198.38635      201.66481      208.8226      -10929.035    
    509000   699.16032     -7192437.7      198.38635      201.66481      208.8226      -10983.057    
    510000   699.9502      -7192352.1      198.38635      201.66481      208.8226      -10953.808    
    511000   698.74292     -7192426.8      198.38635      201.66481      208.8226      -10765.918    
    512000   699.93616     -7192414.3      198.38635      201.66481      208.8226      -10872.038    
    513000   700.48462     -7192321.5      198.38635      201.66481      208.8226      -11003.991    
    514000   699.43502     -7192394.7      198.38635      201.66481      208.8226      -10797.942    
    515000   701.02492     -7192227.8      198.38635      201.66481      208.8226      -10951.345    
    516000   700.99048     -7192287.8      198.38635      201.66481      208.8226      -10884.13     
    517000   699.11265     -7192422.6      198.38635      201.66481      208.8226      -10944.878    
    518000   700.35723     -7192355.4      198.38635      201.66481      208.8226      -10800.476    
    519000   700.7984      -7192378.6      198.38635      201.66481      208.8226      -10854.94     
    520000   699.43536     -7192318.7      198.38635      201.66481      208.8226      -10904.304    
    521000   700.6927      -7192252.7      198.38635      201.66481      208.8226      -10797.026    
    522000   701.40695     -7192352.7      198.38635      201.66481      208.8226      -10881.4      
    523000   698.38917     -7192516.1      198.38635      201.66481      208.8226      -11072.599    
    524000   700.80085     -7192216.4      198.38635      201.66481      208.8226      -10956.096    
    525000   700.06628     -7192309.8      198.38635      201.66481      208.8226      -10846.376    
    526000   698.56978     -7192512.6      198.38635      201.66481      208.8226      -10823.096    
    527000   701.58856     -7192210.5      198.38635      201.66481      208.8226      -11021.889    
    528000   700.98652     -7192278.6      198.38635      201.66481      208.8226      -10947.482    
    529000   700.03461     -7192610.4      198.38635      201.66481      208.8226      -10828.852    
    530000   700.5533      -7192305.7      198.38635      201.66481      208.8226      -10899.484    
    531000   700.76543     -7192367        198.38635      201.66481      208.8226      -10955.51     
    532000   699.82421     -7192486.6      198.38635      201.66481      208.8226      -10968.892    
    533000   700.0802      -7192406.8      198.38635      201.66481      208.8226      -10952.982    
    534000   699.97026     -7192351.4      198.38635      201.66481      208.8226      -11040.164    
    535000   699.58408     -7192363.1      198.38635      201.66481      208.8226      -10959.127    
    536000   699.93442     -7192472.8      198.38635      201.66481      208.8226      -10742.899    
    537000   699.69133     -7192361.2      198.38635      201.66481      208.8226      -10833.546    
    538000   699.25409     -7192351.9      198.38635      201.66481      208.8226      -10810.146    
    539000   700.37666     -7192423.7      198.38635      201.66481      208.8226      -10869.497    
    540000   700.7445      -7192318.7      198.38635      201.66481      208.8226      -10839.506    
    541000   700.36598     -7192390.4      198.38635      201.66481      208.8226      -11022.02     
    542000   700.86087     -7192303.1      198.38635      201.66481      208.8226      -11008.011    
    543000   699.38763     -7192547        198.38635      201.66481      208.8226      -10926.395    
    544000   700.64484     -7192389.8      198.38635      201.66481      208.8226      -10956.301    
    545000   700.82541     -7192359.1      198.38635      201.66481      208.8226      -10938.78     
    546000   700.36789     -7192364.1      198.38635      201.66481      208.8226      -11002.362    
    547000   701.0113      -7192377.9      198.38635      201.66481      208.8226      -10606.505    
    548000   699.54189     -7192457.5      198.38635      201.66481      208.8226      -10910.816    
    549000   701.14305     -7192282.9      198.38635      201.66481      208.8226      -11089.583    
    550000   699.51364     -7192486.5      198.38635      201.66481      208.8226      -10843.067    
    551000   700.85053     -7192228.4      198.38635      201.66481      208.8226      -10753.967    
    552000   699.77412     -7192445.4      198.38635      201.66481      208.8226      -10953.494    
    553000   700.99799     -7192318        198.38635      201.66481      208.8226      -10913.74     
    554000   700.17289     -7192464.6      198.38635      201.66481      208.8226      -10798.754    
    555000   699.00516     -7192462.9      198.38635      201.66481      208.8226      -10982.33     
    556000   700.72537     -7192301.7      198.38635      201.66481      208.8226      -10978.588    
    557000   700.22981     -7192445.8      198.38635      201.66481      208.8226      -10864.685    
    558000   700.19402     -7192368.1      198.38635      201.66481      208.8226      -10671.445    
    559000   700.00863     -7192443.4      198.38635      201.66481      208.8226      -11042.383    
    560000   701.07527     -7192315.2      198.38635      201.66481      208.8226      -10903.164    
    561000   700.78855     -7192375.1      198.38635      201.66481      208.8226      -10808.441    
    562000   699.37317     -7192497        198.38635      201.66481      208.8226      -10960.867    
    563000   700.36074     -7192353.5      198.38635      201.66481      208.8226      -10888.786    
    564000   701.79057     -7192167.1      198.38635      201.66481      208.8226      -10921.619    
    565000   699.14278     -7192643.2      198.38635      201.66481      208.8226      -10766.409    
    566000   699.60423     -7192520.8      198.38635      201.66481      208.8226      -10957.154    
    567000   699.95808     -7192375.5      198.38635      201.66481      208.8226      -11041.967    
    568000   699.95899     -7192457.9      198.38635      201.66481      208.8226      -10821.087    
    569000   698.98536     -7192447.9      198.38635      201.66481      208.8226      -10855.442    
    570000   700.55815     -7192318.9      198.38635      201.66481      208.8226      -10946.928    
    571000   699.74567     -7192379.3      198.38635      201.66481      208.8226      -10866.547    
    572000   701.02554     -7192331.7      198.38635      201.66481      208.8226      -10865.756    
    573000   698.51116     -7192573.2      198.38635      201.66481      208.8226      -10982.172    
    574000   700.20223     -7192368.9      198.38635      201.66481      208.8226      -10957.956    
    575000   699.53429     -7192389.2      198.38635      201.66481      208.8226      -10764.552    
    576000   700.14282     -7192341        198.38635      201.66481      208.8226      -10937.607    
    577000   701.31207     -7192183.1      198.38635      201.66481      208.8226      -10870.864    
    578000   699.14266     -7192522.6      198.38635      201.66481      208.8226      -11044.541    
    579000   699.36068     -7192512.4      198.38635      201.66481      208.8226      -10836.336    
    580000   699.93748     -7192280.8      198.38635      201.66481      208.8226      -10952.234    
    581000   698.96734     -7192403.6      198.38635      201.66481      208.8226      -11037.822    
    582000   699.66409     -7192399.5      198.38635      201.66481      208.8226      -10935.976    
    583000   699.94644     -7192408.8      198.38635      201.66481      208.8226      -11008.891    
    584000   698.74911     -7192498.5      198.38635      201.66481      208.8226      -11096.551    
    585000   700.69576     -7192323.2      198.38635      201.66481      208.8226      -10930.882    
    586000   699.52006     -7192426.6      198.38635      201.66481      208.8226      -10889.791    
    587000   700.1628      -7192458.1      198.38635      201.66481      208.8226      -10983.295    
    588000   699.81608     -7192440.8      198.38635      201.66481      208.8226      -10832.565    
    589000   698.70531     -7192442.4      198.38635      201.66481      208.8226      -10916.734    
    590000   699.5927      -7192415.4      198.38635      201.66481      208.8226      -11004.52     
    591000   699.58127     -7192410.4      198.38635      201.66481      208.8226      -10990.008    
    592000   700.40956     -7192414.8      198.38635      201.66481      208.8226      -10991.073    
    593000   698.90915     -7192491.6      198.38635      201.66481      208.8226      -10996.022    
    594000   699.26207     -7192320.6      198.38635      201.66481      208.8226      -10881.147    
    595000   699.95399     -7192392.4      198.38635      201.66481      208.8226      -10907.582    
    596000   699.52096     -7192516        198.38635      201.66481      208.8226      -10957.438    
    597000   700.99191     -7192335.8      198.38635      201.66481      208.8226      -10971.825    
    598000   699.78292     -7192544.6      198.38635      201.66481      208.8226      -11048.47     
    599000   700.3679      -7192444.3      198.38635      201.66481      208.8226      -10998.478    
    600000   701.98773     -7192242.7      198.38635      201.66481      208.8226      -10764.799    
    601000   700.43604     -7192364.3      198.38635      201.66481      208.8226      -10970.861    
    602000   699.37077     -7192418.5      198.38635      201.66481      208.8226      -10969.383    
    603000   699.59823     -7192401        198.38635      201.66481      208.8226      -10883.711    
    604000   698.85259     -7192349.7      198.38635      201.66481      208.8226      -10823.279    
    605000   699.41009     -7192447.3      198.38635      201.66481      208.8226      -11061.743    
    606000   699.56603     -7192378.1      198.38635      201.66481      208.8226      -10871.717    
    607000   700.09882     -7192375.5      198.38635      201.66481      208.8226      -10793.528    
    608000   700.33384     -7192358.8      198.38635      201.66481      208.8226      -10911.199    
    609000   700.17449     -7192346.3      198.38635      201.66481      208.8226      -10899.278    
    610000   699.13225     -7192508.5      198.38635      201.66481      208.8226      -10956.231    
    611000   699.58418     -7192343.5      198.38635      201.66481      208.8226      -10847.415    
    612000   699.44436     -7192451.2      198.38635      201.66481      208.8226      -11006.861    
    613000   700.12431     -7192477.1      198.38635      201.66481      208.8226      -10757.281    
    614000   699.90182     -7192399.4      198.38635      201.66481      208.8226      -10724.481    
    615000   699.95382     -7192395.5      198.38635      201.66481      208.8226      -10970.18     
    616000   699.9369      -7192442.5      198.38635      201.66481      208.8226      -10988.943    
    617000   699.32378     -7192531.4      198.38635      201.66481      208.8226      -10985.558    
    618000   701.06728     -7192297.9      198.38635      201.66481      208.8226      -10809.657    
    619000   700.62829     -7192300        198.38635      201.66481      208.8226      -11049.504    
    620000   699.22095     -7192464.2      198.38635      201.66481      208.8226      -10915.351    
    621000   700.64842     -7192404.9      198.38635      201.66481      208.8226      -10712.592    
    622000   699.32471     -7192546.6      198.38635      201.66481      208.8226      -10962.825    
    623000   700.36141     -7192380.4      198.38635      201.66481      208.8226      -11183.852    
    624000   699.96325     -7192417.6      198.38635      201.66481      208.8226      -10944.096    
    625000   699.64486     -7192549.4      198.38635      201.66481      208.8226      -10904.805    
    626000   699.47603     -7192589        198.38635      201.66481      208.8226      -10826.04     
    627000   699.90979     -7192369.2      198.38635      201.66481      208.8226      -10968.196    
    628000   700.75846     -7192364.9      198.38635      201.66481      208.8226      -10847.917    
    629000   699.25355     -7192503.1      198.38635      201.66481      208.8226      -10812.574    
    630000   699.52117     -7192547.2      198.38635      201.66481      208.8226      -11211.288    
    631000   698.41777     -7192438.4      198.38635      201.66481      208.8226      -11095.055    
    632000   699.19627     -7192405.6      198.38635      201.66481      208.8226      -10861.91     
    633000   699.73879     -7192438.5      198.38635      201.66481      208.8226      -11031.492    
    634000   699.19307     -7192457.4      198.38635      201.66481      208.8226      -11160.298    
    635000   700.55717     -7192323.2      198.38635      201.66481      208.8226      -10791.022    
    636000   700.323       -7192407.1      198.38635      201.66481      208.8226      -11016.507    
    637000   700.59508     -7192393.4      198.38635      201.66481      208.8226      -10871.674    
    638000   700.13353     -7192408.2      198.38635      201.66481      208.8226      -10982.097    
    639000   700.5268      -7192310.6      198.38635      201.66481      208.8226      -10807.599    
    640000   698.61336     -7192561.8      198.38635      201.66481      208.8226      -10887.701    
    641000   701.09508     -7192335.5      198.38635      201.66481      208.8226      -10968.826    
    642000   699.20975     -7192630.7      198.38635      201.66481      208.8226      -10950.07     
    643000   700.95857     -7192460.5      198.38635      201.66481      208.8226      -10801.129    
    644000   698.91729     -7192561.9      198.38635      201.66481      208.8226      -11096.299    
    645000   699.73167     -7192427.1      198.38635      201.66481      208.8226      -11033.284    
    646000   702.06262     -7192262        198.38635      201.66481      208.8226      -10688.316    
    647000   700.68049     -7192424.7      198.38635      201.66481      208.8226      -10925.092    
    648000   701.3258      -7192324.7      198.38635      201.66481      208.8226      -11103.408    
    649000   700.66826     -7192417.9      198.38635      201.66481      208.8226      -10915.744    
    650000   699.79582     -7192316.4      198.38635      201.66481      208.8226      -10824.396    
    651000   700.78076     -7192309        198.38635      201.66481      208.8226      -11031.263    
    652000   699.92641     -7192452.7      198.38635      201.66481      208.8226      -11022.401    
    653000   699.06931     -7192525.5      198.38635      201.66481      208.8226      -10927.73     
    654000   701.03127     -7192353.9      198.38635      201.66481      208.8226      -10893.623    
    655000   699.50554     -7192416.8      198.38635      201.66481      208.8226      -11079.386    
    656000   699.61132     -7192447.8      198.38635      201.66481      208.8226      -10911.913    
    657000   700.16679     -7192390.5      198.38635      201.66481      208.8226      -10794.991    
    658000   700.29753     -7192363.2      198.38635      201.66481      208.8226      -10895.767    
    659000   698.77735     -7192529        198.38635      201.66481      208.8226      -11023.518    
    660000   700.49943     -7192500.4      198.38635      201.66481      208.8226      -10827.175    
    661000   700.93311     -7192298.8      198.38635      201.66481      208.8226      -10848.957    
    662000   700.41692     -7192368.7      198.38635      201.66481      208.8226      -11108.161    
    663000   699.37458     -7192450.5      198.38635      201.66481      208.8226      -11055.415    
    664000   699.8946      -7192506.6      198.38635      201.66481      208.8226      -10812.023    
    665000   700.96045     -7192430        198.38635      201.66481      208.8226      -11004.783    
    666000   699.19406     -7192509.1      198.38635      201.66481      208.8226      -11103.347    
    667000   699.02673     -7192584.9      198.38635      201.66481      208.8226      -10798.481    
    668000   700.07491     -7192437.7      198.38635      201.66481      208.8226      -10812.073    
    669000   699.99983     -7192504.8      198.38635      201.66481      208.8226      -11086.352    
    670000   700.51421     -7192371.1      198.38635      201.66481      208.8226      -10973.187    
    671000   699.21426     -7192558.5      198.38635      201.66481      208.8226      -10967.794    
    672000   700.28124     -7192427.3      198.38635      201.66481      208.8226      -10807.808    
    673000   700.10967     -7192461.5      198.38635      201.66481      208.8226      -11027.567    
    674000   699.61858     -7192491.5      198.38635      201.66481      208.8226      -10993.695    
    675000   700.42663     -7192461.6      198.38635      201.66481      208.8226      -10872.661    
    676000   700.45578     -7192501.5      198.38635      201.66481      208.8226      -10980.494    
    677000   700.58475     -7192453.3      198.38635      201.66481      208.8226      -10874.728    
    678000   700.81184     -7192430.5      198.38635      201.66481      208.8226      -10985.981    
    679000   698.56727     -7192558.2      198.38635      201.66481      208.8226      -10915.848    
    680000   700.45219     -7192421        198.38635      201.66481      208.8226      -10849.243    
    681000   699.36881     -7192521.2      198.38635      201.66481      208.8226      -10790.727    
    682000   699.94458     -7192498.4      198.38635      201.66481      208.8226      -10993.766    
    683000   700.57471     -7192350.4      198.38635      201.66481      208.8226      -10900.67     
    684000   700.45801     -7192353.9      198.38635      201.66481      208.8226      -11014.825    
    685000   701.44443     -7192375.3      198.38635      201.66481      208.8226      -10824.543    
    686000   700.65621     -7192446.2      198.38635      201.66481      208.8226      -10951.431    
    687000   699.57363     -7192401.1      198.38635      201.66481      208.8226      -10949.019    
    688000   699.52258     -7192555.8      198.38635      201.66481      208.8226      -11015.011    
    689000   700.28931     -7192435.1      198.38635      201.66481      208.8226      -10914.507    
    690000   701.06393     -7192396.5      198.38635      201.66481      208.8226      -11054.506    
    691000   699.88515     -7192469.5      198.38635      201.66481      208.8226      -10906        
    692000   699.17203     -7192646.8      198.38635      201.66481      208.8226      -10904.896    
    693000   698.94222     -7192638.9      198.38635      201.66481      208.8226      -10860.036    
    694000   699.70018     -7192525.2      198.38635      201.66481      208.8226      -10990.885    
    695000   700.07567     -7192414.8      198.38635      201.66481      208.8226      -10836.536    
    696000   699.43523     -7192523.1      198.38635      201.66481      208.8226      -10949.068    
    697000   700.02731     -7192524.2      198.38635      201.66481      208.8226      -10960.079    
    698000   700.50579     -7192374.6      198.38635      201.66481      208.8226      -10956.558    
    699000   701.26471     -7192453.5      198.38635      201.66481      208.8226      -10910.209    
    700000   699.92299     -7192460.6      198.38635      201.66481      208.8226      -10896.982    
    701000   700.83686     -7192264.5      198.38635      201.66481      208.8226      -11011.148    
    702000   698.94963     -7192390.7      198.38635      201.66481      208.8226      -10888.017    
    703000   700.48788     -7192412.9      198.38635      201.66481      208.8226      -10954.078    
    704000   699.66675     -7192503.4      198.38635      201.66481      208.8226      -10990.129    
    705000   699.20659     -7192472.9      198.38635      201.66481      208.8226      -10991.212    
    706000   699.99787     -7192514.5      198.38635      201.66481      208.8226      -10764.005    
    707000   700.31633     -7192401.7      198.38635      201.66481      208.8226      -10857.347    
    708000   699.28766     -7192543.5      198.38635      201.66481      208.8226      -11130.761    
    709000   699.0294      -7192487.7      198.38635      201.66481      208.8226      -10918.324    
    710000   700.03919     -7192463.5      198.38635      201.66481      208.8226      -10822.986    
    711000   699.35137     -7192570.4      198.38635      201.66481      208.8226      -10954.841    
    712000   700.09142     -7192469.3      198.38635      201.66481      208.8226      -10989.733    
    713000   700.38309     -7192576.4      198.38635      201.66481      208.8226      -10940.821    
    714000   700.29108     -7192527        198.38635      201.66481      208.8226      -10951.652    
    715000   700.03846     -7192512.9      198.38635      201.66481      208.8226      -11126.023    
    716000   700.79618     -7192302.4      198.38635      201.66481      208.8226      -10947.149    
    717000   700.24967     -7192493.4      198.38635      201.66481      208.8226      -10923.607    
    718000   699.65784     -7192684.2      198.38635      201.66481      208.8226      -10882.441    
    719000   699.95015     -7192516.1      198.38635      201.66481      208.8226      -11047.502    
    720000   700.10036     -7192548.7      198.38635      201.66481      208.8226      -10770.909    
    721000   699.39043     -7192468.9      198.38635      201.66481      208.8226      -10776.865    
    722000   700.06866     -7192389.5      198.38635      201.66481      208.8226      -11074.956    
    723000   700.59279     -7192439.1      198.38635      201.66481      208.8226      -10994.409    
    724000   700.11035     -7192420.4      198.38635      201.66481      208.8226      -10894.037    
    725000   699.53182     -7192518.3      198.38635      201.66481      208.8226      -10919.599    
    726000   700.22667     -7192497.2      198.38635      201.66481      208.8226      -10981.291    
    727000   699.5558      -7192413.9      198.38635      201.66481      208.8226      -11017.494    
    728000   698.99213     -7192568.9      198.38635      201.66481      208.8226      -10979.732    
    729000   700.95957     -7192446.3      198.38635      201.66481      208.8226      -10977.411    
    730000   699.803       -7192386.9      198.38635      201.66481      208.8226      -10885.794    
    731000   701.2184      -7192279        198.38635      201.66481      208.8226      -10961.281    
    732000   700.90408     -7192363.3      198.38635      201.66481      208.8226      -10942.033    
    733000   700.07082     -7192530.7      198.38635      201.66481      208.8226      -10825.451    
    734000   701.61569     -7192371.3      198.38635      201.66481      208.8226      -10984.174    
    735000   699.62727     -7192519.4      198.38635      201.66481      208.8226      -11028.676    
    736000   697.92387     -7192737.2      198.38635      201.66481      208.8226      -10958.625    
    737000   700.22609     -7192494.6      198.38635      201.66481      208.8226      -11001.982    
    738000   700.2332      -7192452.4      198.38635      201.66481      208.8226      -10782.679    
    739000   700.3417      -7192545.2      198.38635      201.66481      208.8226      -10979.548    
    740000   701.30517     -7192453.1      198.38635      201.66481      208.8226      -11074.082    
    741000   700.62056     -7192435.1      198.38635      201.66481      208.8226      -10955.94     
    742000   700.358       -7192515.7      198.38635      201.66481      208.8226      -10986.14     
    743000   700.39883     -7192470.6      198.38635      201.66481      208.8226      -10845.408    
    744000   698.69871     -7192588.3      198.38635      201.66481      208.8226      -11021.313    
    745000   700.48421     -7192408.4      198.38635      201.66481      208.8226      -10913.76     
    746000   700.16699     -7192364.7      198.38635      201.66481      208.8226      -10838.273    
    747000   698.95184     -7192602.7      198.38635      201.66481      208.8226      -10863.941    
    748000   699.08241     -7192584.5      198.38635      201.66481      208.8226      -11159.473    
    749000   700.45234     -7192503.4      198.38635      201.66481      208.8226      -10994.288    
    750000   698.75226     -7192682.6      198.38635      201.66481      208.8226      -10875.364    
    751000   698.57693     -7192676.6      198.38635      201.66481      208.8226      -10963.46     
    752000   698.92751     -7192521        198.38635      201.66481      208.8226      -11005.398    
    753000   700.54669     -7192314.9      198.38635      201.66481      208.8226      -10940.327    
    754000   700.12701     -7192583.6      198.38635      201.66481      208.8226      -10985.412    
    755000   699.7663      -7192464.5      198.38635      201.66481      208.8226      -11008.06     
    756000   699.40013     -7192506.9      198.38635      201.66481      208.8226      -10976.047    
    757000   699.62582     -7192530.9      198.38635      201.66481      208.8226      -10983.554    
    758000   700.46989     -7192388        198.38635      201.66481      208.8226      -10917.504    
    759000   699.63451     -7192588.7      198.38635      201.66481      208.8226      -11034.321    
    760000   699.65429     -7192637.2      198.38635      201.66481      208.8226      -10969.287    
    761000   700.62152     -7192443.7      198.38635      201.66481      208.8226      -10934.851    
    762000   700.5621      -7192435.2      198.38635      201.66481      208.8226      -10975.648    
    763000   700.64297     -7192372.5      198.38635      201.66481      208.8226      -10960.104    
    764000   699.82844     -7192484.6      198.38635      201.66481      208.8226      -10966.401    
    765000   700.72448     -7192486.9      198.38635      201.66481      208.8226      -10927.388    
    766000   699.96793     -7192473        198.38635      201.66481      208.8226      -10778.903    
    767000   699.8654      -7192524.8      198.38635      201.66481      208.8226      -10991.514    
    768000   698.10059     -7192714.9      198.38635      201.66481      208.8226      -11052.969    
    769000   699.16051     -7192510.7      198.38635      201.66481      208.8226      -10972.945    
    770000   698.87041     -7192583.1      198.38635      201.66481      208.8226      -11108.797    
    771000   700.63869     -7192417.8      198.38635      201.66481      208.8226      -10893.753    
    772000   700.2181      -7192555.2      198.38635      201.66481      208.8226      -10844.706    
    773000   699.91708     -7192545.1      198.38635      201.66481      208.8226      -10915.937    
    774000   700.73146     -7192527.6      198.38635      201.66481      208.8226      -10979.911    
    775000   699.55714     -7192430.1      198.38635      201.66481      208.8226      -10870.195    
    776000   700.1605      -7192656.8      198.38635      201.66481      208.8226      -11038.278    
    777000   701.09088     -7192390.4      198.38635      201.66481      208.8226      -10829.708    
    778000   699.38436     -7192575.4      198.38635      201.66481      208.8226      -10927.725    
    779000   700.1635      -7192459.3      198.38635      201.66481      208.8226      -10992.172    
    780000   699.67968     -7192539.8      198.38635      201.66481      208.8226      -10873.655    
    781000   700.60177     -7192411.4      198.38635      201.66481      208.8226      -11019.868    
    782000   700.31163     -7192407        198.38635      201.66481      208.8226      -11049.258    
    783000   699.53511     -7192563.8      198.38635      201.66481      208.8226      -10966.993    
    784000   700.7971      -7192420.6      198.38635      201.66481      208.8226      -10942.478    
    785000   699.43895     -7192616.8      198.38635      201.66481      208.8226      -11100.625    
    786000   698.56661     -7192575.5      198.38635      201.66481      208.8226      -10889.105    
    787000   699.58505     -7192607.6      198.38635      201.66481      208.8226      -10808.836    
    788000   700.51501     -7192412.3      198.38635      201.66481      208.8226      -11164.917    
    789000   700.6456      -7192460        198.38635      201.66481      208.8226      -10909.297    
    790000   700.50639     -7192533.4      198.38635      201.66481      208.8226      -10945.588    
    791000   699.45066     -7192552.6      198.38635      201.66481      208.8226      -10908.923    
    792000   699.62156     -7192637.4      198.38635      201.66481      208.8226      -11061.789    
    793000   701.61007     -7192341.8      198.38635      201.66481      208.8226      -10869.667    
    794000   698.96299     -7192587.2      198.38635      201.66481      208.8226      -10705.191    
    795000   699.03434     -7192549.4      198.38635      201.66481      208.8226      -10901.033    
    796000   696.94412     -7192668.9      198.38635      201.66481      208.8226      -11005.085    
    797000   701.01081     -7192403.5      198.38635      201.66481      208.8226      -11036.416    
    798000   701.06454     -7192388.7      198.38635      201.66481      208.8226      -10847.99     
    799000   701.17533     -7192387.9      198.38635      201.66481      208.8226      -11003.841    
    800000   700.28882     -7192451.6      198.38635      201.66481      208.8226      -10908.983    
    801000   698.50608     -7192775.2      198.38635      201.66481      208.8226      -10842.578    
    802000   699.99703     -7192563.5      198.38635      201.66481      208.8226      -11007.077    
    803000   701.81088     -7192291.1      198.38635      201.66481      208.8226      -11090.343    
    804000   700.22914     -7192562.6      198.38635      201.66481      208.8226      -10861.373    
    805000   700.96258     -7192465.5      198.38635      201.66481      208.8226      -11022.661    
    806000   700.86158     -7192380.7      198.38635      201.66481      208.8226      -10986.864    
    807000   699.67919     -7192652.1      198.38635      201.66481      208.8226      -11056.648    
    808000   699.93608     -7192528.9      198.38635      201.66481      208.8226      -10782.081    
    809000   700.30211     -7192499.7      198.38635      201.66481      208.8226      -10946.863    
    810000   699.88787     -7192523.1      198.38635      201.66481      208.8226      -11145.673    
    811000   700.05936     -7192459.6      198.38635      201.66481      208.8226      -10980.542    
    812000   699.23488     -7192662.3      198.38635      201.66481      208.8226      -10928.765    
    813000   700.84487     -7192461.1      198.38635      201.66481      208.8226      -10968.484    
    814000   700.02973     -7192468.6      198.38635      201.66481      208.8226      -11054.539    
    815000   699.90409     -7192563.1      198.38635      201.66481      208.8226      -10790.523    
    816000   700.11565     -7192618.3      198.38635      201.66481      208.8226      -11111.617    
    817000   699.51295     -7192440.8      198.38635      201.66481      208.8226      -11022.684    
    818000   699.73509     -7192508.4      198.38635      201.66481      208.8226      -10932.824    
    819000   699.38498     -7192553.1      198.38635      201.66481      208.8226      -10856.28     
    820000   700.98853     -7192384.8      198.38635      201.66481      208.8226      -10939.78     
    821000   698.85308     -7192692.6      198.38635      201.66481      208.8226      -11022.613    
    822000   700.75021     -7192481        198.38635      201.66481      208.8226      -10751.641    
    823000   700.30567     -7192541.5      198.38635      201.66481      208.8226      -10956.828    
    824000   700.10297     -7192505.6      198.38635      201.66481      208.8226      -11151.161    
    825000   700.36679     -7192467.7      198.38635      201.66481      208.8226      -10989.324    
    826000   700.01846     -7192524.2      198.38635      201.66481      208.8226      -10861.146    
    827000   700.40748     -7192469        198.38635      201.66481      208.8226      -10898.799    
    828000   700.39222     -7192438.9      198.38635      201.66481      208.8226      -11115.231    
    829000   700.93263     -7192417.8      198.38635      201.66481      208.8226      -10850.681    
    830000   701.34455     -7192451.6      198.38635      201.66481      208.8226      -10865.291    
    831000   699.89421     -7192484.5      198.38635      201.66481      208.8226      -11003.224    
    832000   699.25604     -7192624.8      198.38635      201.66481      208.8226      -10993.79     
    833000   699.77616     -7192536.3      198.38635      201.66481      208.8226      -10888.543    
    834000   699.32287     -7192550.5      198.38635      201.66481      208.8226      -10953.349    
    835000   700.51572     -7192405.2      198.38635      201.66481      208.8226      -11085.598    
    836000   699.65464     -7192444.7      198.38635      201.66481      208.8226      -10865.253    
    837000   698.48677     -7192748        198.38635      201.66481      208.8226      -10858.474    
    838000   700.64615     -7192471.8      198.38635      201.66481      208.8226      -10974.291    
    839000   699.67522     -7192528.5      198.38635      201.66481      208.8226      -10934.772    
    840000   700.43288     -7192527.9      198.38635      201.66481      208.8226      -10970.5      
    841000   701.46155     -7192406.4      198.38635      201.66481      208.8226      -10860.974    
    842000   699.3867      -7192547.6      198.38635      201.66481      208.8226      -11062.838    
    843000   699.73494     -7192584.6      198.38635      201.66481      208.8226      -10972.615    
    844000   699.43878     -7192622.7      198.38635      201.66481      208.8226      -10989.918    
    845000   699.42609     -7192577.9      198.38635      201.66481      208.8226      -10996.713    
    846000   700.44392     -7192445.2      198.38635      201.66481      208.8226      -10965.498    
    847000   699.5612      -7192564.1      198.38635      201.66481      208.8226      -10937.641    
    848000   700.55011     -7192490.7      198.38635      201.66481      208.8226      -11016.522    
    849000   699.58832     -7192488.7      198.38635      201.66481      208.8226      -11072.21     
    850000   700.30807     -7192534.1      198.38635      201.66481      208.8226      -11074.925    
    851000   700.04151     -7192564.2      198.38635      201.66481      208.8226      -10910.152    
    852000   699.53053     -7192556.9      198.38635      201.66481      208.8226      -10905.342    
    853000   698.47801     -7192630.6      198.38635      201.66481      208.8226      -10927.5      
    854000   699.71193     -7192539        198.38635      201.66481      208.8226      -10909.038    
    855000   698.74989     -7192692.7      198.38635      201.66481      208.8226      -10915.586    
    856000   699.76979     -7192514.4      198.38635      201.66481      208.8226      -11076.782    
    857000   700.98695     -7192457.9      198.38635      201.66481      208.8226      -10964.955    
    858000   700.6828      -7192495.1      198.38635      201.66481      208.8226      -10918.959    
    859000   699.59734     -7192629.2      198.38635      201.66481      208.8226      -10894.752    
    860000   699.40846     -7192534.7      198.38635      201.66481      208.8226      -11084.959    
    861000   700.74743     -7192482.2      198.38635      201.66481      208.8226      -10856.979    
    862000   700.14189     -7192619.3      198.38635      201.66481      208.8226      -11090.105    
    863000   699.4851      -7192599.3      198.38635      201.66481      208.8226      -11062.164    
    864000   700.1717      -7192544        198.38635      201.66481      208.8226      -11003.27     
    865000   701.20445     -7192477.5      198.38635      201.66481      208.8226      -10834.519    
    866000   700.73458     -7192430        198.38635      201.66481      208.8226      -10841.342    
    867000   700.43667     -7192419        198.38635      201.66481      208.8226      -11085.823    
    868000   700.29426     -7192564.7      198.38635      201.66481      208.8226      -10964.152    
    869000   701.50489     -7192425.9      198.38635      201.66481      208.8226      -10786.816    
    870000   699.79759     -7192558.4      198.38635      201.66481      208.8226      -11033.491    
    871000   699.58442     -7192641.1      198.38635      201.66481      208.8226      -11149.841    
    872000   698.82844     -7192712.1      198.38635      201.66481      208.8226      -10765.498    
    873000   699.94409     -7192576.1      198.38635      201.66481      208.8226      -10903.882    
    874000   700.05271     -7192532.2      198.38635      201.66481      208.8226      -11052.163    
    875000   699.23429     -7192533.8      198.38635      201.66481      208.8226      -10886.526    
    876000   699.00139     -7192559.6      198.38635      201.66481      208.8226      -10925.937    
    877000   699.60148     -7192531.3      198.38635      201.66481      208.8226      -11022.029    
    878000   700.37467     -7192499.3      198.38635      201.66481      208.8226      -10944.475    
    879000   700.18772     -7192550.4      198.38635      201.66481      208.8226      -10780.268    
    880000   699.90239     -7192530.8      198.38635      201.66481      208.8226      -10848.094    
    881000   700.39943     -7192458.7      198.38635      201.66481      208.8226      -11013.68     
    882000   701.42428     -7192509.5      198.38635      201.66481      208.8226      -10875.473    
    883000   699.23527     -7192697        198.38635      201.66481      208.8226      -11057.546    
    884000   701.61602     -7192426.4      198.38635      201.66481      208.8226      -10847.147    
    885000   699.8681      -7192519.2      198.38635      201.66481      208.8226      -10957.545    
    886000   699.28137     -7192562.7      198.38635      201.66481      208.8226      -10885.569    
    887000   699.70229     -7192698.5      198.38635      201.66481      208.8226      -10874.643    
    888000   698.86939     -7192666.1      198.38635      201.66481      208.8226      -10971.428    
    889000   699.83781     -7192532.4      198.38635      201.66481      208.8226      -10915.65     
    890000   698.96005     -7192538.8      198.38635      201.66481      208.8226      -10928.646    
    891000   700.85461     -7192474.3      198.38635      201.66481      208.8226      -10968.405    
    892000   700.27071     -7192593.6      198.38635      201.66481      208.8226      -11009.52     
    893000   698.67677     -7192667.7      198.38635      201.66481      208.8226      -11036.576    
    894000   701.23309     -7192414.9      198.38635      201.66481      208.8226      -10997.418    
    895000   700.23267     -7192552.2      198.38635      201.66481      208.8226      -11079.707    
    896000   699.44262     -7192527.9      198.38635      201.66481      208.8226      -10909.16     
    897000   699.18333     -7192729.7      198.38635      201.66481      208.8226      -10994.094    
    898000   701.17106     -7192301.6      198.38635      201.66481      208.8226      -10929.769    
    899000   698.88007     -7192564.7      198.38635      201.66481      208.8226      -10902.269    
    900000   700.21268     -7192673.7      198.38635      201.66481      208.8226      -11012.012    
    901000   699.45082     -7192615.4      198.38635      201.66481      208.8226      -11035.927    
    902000   699.97621     -7192524.3      198.38635      201.66481      208.8226      -10953.624    
    903000   699.84269     -7192460.9      198.38635      201.66481      208.8226      -10943.828    
    904000   698.83676     -7192690.9      198.38635      201.66481      208.8226      -10866.474    
    905000   699.55442     -7192536.2      198.38635      201.66481      208.8226      -10934.761    
    906000   700.99066     -7192491        198.38635      201.66481      208.8226      -10986.951    
    907000   699.07805     -7192708.2      198.38635      201.66481      208.8226      -11089.168    
    908000   700.45271     -7192513.1      198.38635      201.66481      208.8226      -10946.703    
    909000   699.98445     -7192579        198.38635      201.66481      208.8226      -10965.998    
    910000   700.33127     -7192513.8      198.38635      201.66481      208.8226      -10898.077    
    911000   700.12515     -7192470.4      198.38635      201.66481      208.8226      -10935.157    
    912000   700.54848     -7192537.7      198.38635      201.66481      208.8226      -11021.163    
    913000   700.97323     -7192434.5      198.38635      201.66481      208.8226      -10939.096    
    914000   698.78602     -7192692        198.38635      201.66481      208.8226      -10916.257    
    915000   699.60764     -7192659.4      198.38635      201.66481      208.8226      -10907.469    
    916000   700.36196     -7192611.1      198.38635      201.66481      208.8226      -11123.034    
    917000   699.21718     -7192684.7      198.38635      201.66481      208.8226      -10870.696    
    918000   698.52945     -7192681.7      198.38635      201.66481      208.8226      -10899.207    
    919000   699.61551     -7192589.5      198.38635      201.66481      208.8226      -10943.884    
    920000   700.41984     -7192542        198.38635      201.66481      208.8226      -10895.515    
    921000   700.45097     -7192601.6      198.38635      201.66481      208.8226      -11012.799    
    922000   700.77513     -7192489.4      198.38635      201.66481      208.8226      -10912.071    
    923000   698.63885     -7192597.1      198.38635      201.66481      208.8226      -11002.004    
    924000   700.52908     -7192537.4      198.38635      201.66481      208.8226      -10976.573    
    925000   699.56595     -7192625        198.38635      201.66481      208.8226      -10882.551    
    926000   699.55135     -7192591.3      198.38635      201.66481      208.8226      -10978.256    
    927000   698.78894     -7192613.8      198.38635      201.66481      208.8226      -10934.237    
    928000   699.73098     -7192575.7      198.38635      201.66481      208.8226      -10935.988    
    929000   698.9213      -7192688.3      198.38635      201.66481      208.8226      -10924.052    
    930000   700.74318     -7192544.3      198.38635      201.66481      208.8226      -10931.528    
    931000   699.74757     -7192564        198.38635      201.66481      208.8226      -10951.217    
    932000   699.79296     -7192489.1      198.38635      201.66481      208.8226      -10725.805    
    933000   700.55852     -7192614.1      198.38635      201.66481      208.8226      -11014.02     
    934000   700.92388     -7192490.4      198.38635      201.66481      208.8226      -11128.298    
    935000   700.93049     -7192541.3      198.38635      201.66481      208.8226      -11057.017    
    936000   699.71849     -7192689.8      198.38635      201.66481      208.8226      -10931.932    
    937000   699.79472     -7192588.5      198.38635      201.66481      208.8226      -10950.353    
    938000   701.13977     -7192546.9      198.38635      201.66481      208.8226      -10881.466    
    939000   699.8835      -7192665.5      198.38635      201.66481      208.8226      -10807.332    
    940000   700.09829     -7192580.2      198.38635      201.66481      208.8226      -10953.385    
    941000   701.0701      -7192481.5      198.38635      201.66481      208.8226      -11032.815    
    942000   699.17746     -7192767.4      198.38635      201.66481      208.8226      -10967.489    
    943000   700.34948     -7192612.3      198.38635      201.66481      208.8226      -11036.556    
    944000   700.14459     -7192620.1      198.38635      201.66481      208.8226      -10932.167    
    945000   701.05006     -7192462.7      198.38635      201.66481      208.8226      -10843.262    
    946000   699.94102     -7192550.8      198.38635      201.66481      208.8226      -10812.153    
    947000   699.90788     -7192537.2      198.38635      201.66481      208.8226      -10980.752    
    948000   699.89603     -7192607        198.38635      201.66481      208.8226      -11069.103    
    949000   701.13191     -7192436.7      198.38635      201.66481      208.8226      -10936.631    
    950000   700.05118     -7192532.5      198.38635      201.66481      208.8226      -10798.306    
    951000   700.36769     -7192552.3      198.38635      201.66481      208.8226      -11027.824    
    952000   699.67683     -7192562.9      198.38635      201.66481      208.8226      -10872.709    
    953000   700.12251     -7192597.3      198.38635      201.66481      208.8226      -10918.797    
    954000   699.98817     -7192577        198.38635      201.66481      208.8226      -11033.51     
    955000   700.53881     -7192535        198.38635      201.66481      208.8226      -10907.241    
    956000   698.77104     -7192632.9      198.38635      201.66481      208.8226      -10883.568    
    957000   700.21657     -7192539.8      198.38635      201.66481      208.8226      -10795.075    
    958000   699.51701     -7192635.4      198.38635      201.66481      208.8226      -11251.544    
    959000   699.94685     -7192614.5      198.38635      201.66481      208.8226      -10892.734    
    960000   699.81057     -7192647.7      198.38635      201.66481      208.8226      -10889.727    
    961000   700.22662     -7192615.8      198.38635      201.66481      208.8226      -11031.509    
    962000   700.33265     -7192553.2      198.38635      201.66481      208.8226      -11046.125    
    963000   700.38704     -7192492.4      198.38635      201.66481      208.8226      -10907.519    
    964000   699.35046     -7192653.1      198.38635      201.66481      208.8226      -10794.161    
    965000   698.4489      -7192627.9      198.38635      201.66481      208.8226      -10963.99     
    966000   700.04378     -7192593.3      198.38635      201.66481      208.8226      -11052.513    
    967000   699.68137     -7192618.1      198.38635      201.66481      208.8226      -10746.058    
    968000   699.25068     -7192522.2      198.38635      201.66481      208.8226      -10890.397    
    969000   700.1293      -7192535.2      198.38635      201.66481      208.8226      -11169.391    
    970000   699.26279     -7192657.3      198.38635      201.66481      208.8226      -10947.432    
    971000   700.22746     -7192596.5      198.38635      201.66481      208.8226      -10820.435    
    972000   699.23881     -7192637.1      198.38635      201.66481      208.8226      -11079.46     
    973000   698.48908     -7192652.8      198.38635      201.66481      208.8226      -11110.354    
    974000   699.08094     -7192668.9      198.38635      201.66481      208.8226      -10827.88     
    975000   698.98569     -7192660.7      198.38635      201.66481      208.8226      -10825.066    
    976000   699.85516     -7192507.3      198.38635      201.66481      208.8226      -11020.821    
    977000   701.56782     -7192461.3      198.38635      201.66481      208.8226      -10905.738    
    978000   700.36627     -7192598.7      198.38635      201.66481      208.8226      -10907.11     
    979000   699.47401     -7192707.7      198.38635      201.66481      208.8226      -11118.339    
    980000   700.69075     -7192592.6      198.38635      201.66481      208.8226      -10985.2      
    981000   699.02722     -7192687.2      198.38635      201.66481      208.8226      -10876.233    
    982000   700.06652     -7192657.1      198.38635      201.66481      208.8226      -10940.393    
    983000   699.41311     -7192691.2      198.38635      201.66481      208.8226      -11061.234    
    984000   700.01225     -7192468.4      198.38635      201.66481      208.8226      -10821.764    
    985000   699.90948     -7192602.1      198.38635      201.66481      208.8226      -10854.731    
    986000   699.78886     -7192653.8      198.38635      201.66481      208.8226      -11138.413    
    987000   699.39876     -7192763.9      198.38635      201.66481      208.8226      -11017.188    
    988000   698.35698     -7192650        198.38635      201.66481      208.8226      -10833.145    
    989000   700.15651     -7192544.5      198.38635      201.66481      208.8226      -10967.828    
    990000   699.533       -7192542        198.38635      201.66481      208.8226      -11022.462    
    991000   700.84913     -7192514.1      198.38635      201.66481      208.8226      -10903.576    
    992000   700.42564     -7192602.4      198.38635      201.66481      208.8226      -10922.095    
    993000   700.01573     -7192531        198.38635      201.66481      208.8226      -10880.58     
    994000   698.94575     -7192549.8      198.38635      201.66481      208.8226      -10883.222    
    995000   699.76418     -7192680.9      198.38635      201.66481      208.8226      -10849.809    
    996000   700.09546     -7192566.9      198.38635      201.66481      208.8226      -11017.236    
    997000   700.29132     -7192554.5      198.38635      201.66481      208.8226      -11065.998    
    998000   699.58688     -7192602.5      198.38635      201.66481      208.8226      -10953.174    
    999000   698.6449      -7192688.3      198.38635      201.66481      208.8226      -10796.331    
   1000000   699.31898     -7192587.5      198.38635      201.66481      208.8226      -11091.527    
   1001000   699.98675     -7192550.8      198.38635      201.66481      208.8226      -10898.88     
   1002000   699.73607     -7192663.1      198.38635      201.66481      208.8226      -10815.692    
   1003000   699.77266     -7192676.7      198.38635      201.66481      208.8226      -11060.612    
   1004000   699.94343     -7192560.6      198.38635      201.66481      208.8226      -11087.998    
   1005000   699.94015     -7192424.5      198.38635      201.66481      208.8226      -10826.51     
   1006000   700.74826     -7192491.4      198.38635      201.66481      208.8226      -10710.253    
   1007000   699.15472     -7192753.4      198.38635      201.66481      208.8226      -11001.569    
   1008000   700.84037     -7192451        198.38635      201.66481      208.8226      -10878.152    
   1009000   700.79194     -7192597.6      198.38635      201.66481      208.8226      -10851.878    
   1010000   700.236       -7192637.7      198.38635      201.66481      208.8226      -10924.468    
   1011000   698.80924     -7192705.8      198.38635      201.66481      208.8226      -11080.022    
   1012000   699.79333     -7192683.2      198.38635      201.66481      208.8226      -11060.86     
   1013000   700.52147     -7192482.3      198.38635      201.66481      208.8226      -10990.143    
   1014000   699.21498     -7192710.8      198.38635      201.66481      208.8226      -11010.64     
   1015000   700.28807     -7192735.7      198.38635      201.66481      208.8226      -10924.041    
   1016000   699.24316     -7192651.3      198.38635      201.66481      208.8226      -11041.152    
   1017000   700.3773      -7192585.8      198.38635      201.66481      208.8226      -11083.3      
   1018000   699.7394      -7192641.9      198.38635      201.66481      208.8226      -10895.496    
   1019000   700.32336     -7192573.1      198.38635      201.66481      208.8226      -10817.764    
   1020000   700.03883     -7192710.3      198.38635      201.66481      208.8226      -10879.778    
   1021000   699.04543     -7192751.7      198.38635      201.66481      208.8226      -10966.204    
   1022000   699.46088     -7192569.8      198.38635      201.66481      208.8226      -10846.964    
   1023000   700.90227     -7192565.1      198.38635      201.66481      208.8226      -10988.401    
   1024000   700.2579      -7192542.6      198.38635      201.66481      208.8226      -11029.887    
   1025000   699.68541     -7192720.2      198.38635      201.66481      208.8226      -10932.291    
   1026000   699.29653     -7192794.4      198.38635      201.66481      208.8226      -10981.432    
   1027000   699.51917     -7192685.8      198.38635      201.66481      208.8226      -10952.327    
   1028000   699.86876     -7192619.2      198.38635      201.66481      208.8226      -10915.653    
   1029000   699.77785     -7192731.6      198.38635      201.66481      208.8226      -11012.035    
   1030000   699.46094     -7192676.9      198.38635      201.66481      208.8226      -10933.855    
   1031000   699.67107     -7192630        198.38635      201.66481      208.8226      -10965.338    
   1032000   699.52291     -7192647.6      198.38635      201.66481      208.8226      -10998.888    
   1033000   701.72619     -7192494.4      198.38635      201.66481      208.8226      -10906.461    
   1034000   699.24931     -7192746.9      198.38635      201.66481      208.8226      -11008.358    
   1035000   699.4611      -7192646.5      198.38635      201.66481      208.8226      -10936.364    
   1036000   699.92321     -7192574.1      198.38635      201.66481      208.8226      -10879.702    
   1037000   699.33341     -7192668.5      198.38635      201.66481      208.8226      -10902.747    
   1038000   701.10521     -7192496        198.38635      201.66481      208.8226      -11018.686    
   1039000   699.45804     -7192545.7      198.38635      201.66481      208.8226      -10881.211    
   1040000   699.4681      -7192547.2      198.38635      201.66481      208.8226      -10806.206    
   1041000   700.95136     -7192528.5      198.38635      201.66481      208.8226      -11014.947    
   1042000   698.75868     -7192730.6      198.38635      201.66481      208.8226      -10855.875    
   1043000   701.37624     -7192613.4      198.38635      201.66481      208.8226      -10985.367    
   1044000   699.37459     -7192600.4      198.38635      201.66481      208.8226      -10995.836    
   1045000   700.64243     -7192597.2      198.38635      201.66481      208.8226      -10928.884    
   1046000   699.9372      -7192692.9      198.38635      201.66481      208.8226      -10967.514    
   1047000   701.26602     -7192472        198.38635      201.66481      208.8226      -10938.953    
   1048000   700.62377     -7192631        198.38635      201.66481      208.8226      -10953.073    
   1049000   699.83058     -7192682.3      198.38635      201.66481      208.8226      -10879.687    
   1050000   699.36413     -7192658        198.38635      201.66481      208.8226      -10899.834    
   1051000   699.4739      -7192662.8      198.38635      201.66481      208.8226      -11062.067    
   1052000   699.01475     -7192579.6      198.38635      201.66481      208.8226      -11038.845    
   1053000   699.91223     -7192590.6      198.38635      201.66481      208.8226      -10840.715    
   1054000   699.61871     -7192651.5      198.38635      201.66481      208.8226      -11082.696    
   1055000   700.12842     -7192664        198.38635      201.66481      208.8226      -10965.585    
   1056000   699.51864     -7192605.8      198.38635      201.66481      208.8226      -10873.173    
   1057000   701.10048     -7192573.6      198.38635      201.66481      208.8226      -11038.779    
   1058000   699.76022     -7192634.6      198.38635      201.66481      208.8226      -11102.71     
   1059000   700.19893     -7192673.2      198.38635      201.66481      208.8226      -10896.408    
   1060000   697.93763     -7192787.7      198.38635      201.66481      208.8226      -10942.259    
   1061000   699.61313     -7192637.2      198.38635      201.66481      208.8226      -10948.022    
   1062000   700.6126      -7192445.9      198.38635      201.66481      208.8226      -10954.085    
   1063000   699.72806     -7192676.1      198.38635      201.66481      208.8226      -10969.758    
   1064000   699.85912     -7192709.6      198.38635      201.66481      208.8226      -10952.288    
   1065000   699.27366     -7192706.3      198.38635      201.66481      208.8226      -11113.681    
   1066000   699.59621     -7192684.9      198.38635      201.66481      208.8226      -10883.066    
   1067000   700.13823     -7192542.9      198.38635      201.66481      208.8226      -10874.785    
   1068000   700.48791     -7192607.3      198.38635      201.66481      208.8226      -11053.425    
   1069000   699.66933     -7192634.7      198.38635      201.66481      208.8226      -11063.482    
   1070000   700.16622     -7192588.5      198.38635      201.66481      208.8226      -10911.275    
   1071000   701.16502     -7192614        198.38635      201.66481      208.8226      -10884.033    
   1072000   700.23335     -7192586.1      198.38635      201.66481      208.8226      -10941.206    
   1073000   700.15653     -7192647.1      198.38635      201.66481      208.8226      -10991.333    
   1074000   699.04701     -7192764.6      198.38635      201.66481      208.8226      -10953.191    
   1075000   699.09128     -7192802.4      198.38635      201.66481      208.8226      -11086.268    
   1076000   700.21046     -7192669.6      198.38635      201.66481      208.8226      -11167.175    
   1077000   699.10833     -7192635.1      198.38635      201.66481      208.8226      -11014.176    
   1078000   698.44314     -7192828        198.38635      201.66481      208.8226      -10884.025    
   1079000   699.84184     -7192618.7      198.38635      201.66481      208.8226      -10959.012    
   1080000   700.91684     -7192562.3      198.38635      201.66481      208.8226      -11054.91     
   1081000   699.53251     -7192714.3      198.38635      201.66481      208.8226      -11063.427    
   1082000   700.96692     -7192415        198.38635      201.66481      208.8226      -10857.463    
   1083000   699.51534     -7192693.7      198.38635      201.66481      208.8226      -10843.11     
   1084000   698.83735     -7192687.6      198.38635      201.66481      208.8226      -11105.452    
   1085000   699.82181     -7192611.4      198.38635      201.66481      208.8226      -10929.476    
   1086000   699.50112     -7192710        198.38635      201.66481      208.8226      -10935.146    
   1087000   699.60818     -7192700.2      198.38635      201.66481      208.8226      -10946.567    
   1088000   701.44559     -7192489.2      198.38635      201.66481      208.8226      -10785.794    
   1089000   701.521       -7192469.5      198.38635      201.66481      208.8226      -10894.438    
   1090000   700.86054     -7192577.3      198.38635      201.66481      208.8226      -10660.686    
   1091000   699.025       -7192672        198.38635      201.66481      208.8226      -11076.212    
   1092000   700.4371      -7192609.1      198.38635      201.66481      208.8226      -11048.488    
   1093000   700.55462     -7192616.9      198.38635      201.66481      208.8226      -10873.022    
   1094000   701.40798     -7192516.7      198.38635      201.66481      208.8226      -10978.027    
   1095000   699.57177     -7192640        198.38635      201.66481      208.8226      -10976.85     
   1096000   700.65209     -7192616.4      198.38635      201.66481      208.8226      -11124.42     
   1097000   699.37551     -7192668.1      198.38635      201.66481      208.8226      -10864.744    
   1098000   701.20455     -7192626.5      198.38635      201.66481      208.8226      -11017.479    
   1099000   701.00021     -7192606.6      198.38635      201.66481      208.8226      -11054.51     
   1100000   700.39483     -7192574.6      198.38635      201.66481      208.8226      -10819.344    
   1101000   700.89196     -7192540        198.38635      201.66481      208.8226      -11013.423    
   1102000   698.75699     -7192834.8      198.38635      201.66481      208.8226      -10988.454    
   1103000   700.23689     -7192532        198.38635      201.66481      208.8226      -11001.078    
   1104000   699.90029     -7192710.5      198.38635      201.66481      208.8226      -10861.802    
   1105000   701.39882     -7192522.2      198.38635      201.66481      208.8226      -10961.31     
   1106000   701.19828     -7192545.1      198.38635      201.66481      208.8226      -11053.61     
   1107000   700.0283      -7192574.8      198.38635      201.66481      208.8226      -10995.621    
   1108000   700.63829     -7192486.9      198.38635      201.66481      208.8226      -10893.862    
   1109000   699.76047     -7192703.6      198.38635      201.66481      208.8226      -11080.878    
   1110000   699.66605     -7192559.9      198.38635      201.66481      208.8226      -10928.581    
   1111000   700.20484     -7192677        198.38635      201.66481      208.8226      -10966.997    
   1112000   700.4462      -7192579.6      198.38635      201.66481      208.8226      -10890.051    
   1113000   699.48872     -7192585.2      198.38635      201.66481      208.8226      -11020.294    
   1114000   700.55486     -7192585.3      198.38635      201.66481      208.8226      -10971.602    
   1115000   699.31446     -7192816.7      198.38635      201.66481      208.8226      -11040.917    
   1116000   701.04002     -7192607.8      198.38635      201.66481      208.8226      -10986.811    
   1117000   700.06868     -7192620.3      198.38635      201.66481      208.8226      -11013.73     
   1118000   700.12445     -7192517.9      198.38635      201.66481      208.8226      -10812.781    
   1119000   698.65345     -7192743.4      198.38635      201.66481      208.8226      -10959.982    
   1120000   699.89953     -7192560.7      198.38635      201.66481      208.8226      -11016.85     
   1121000   701.56304     -7192634.6      198.38635      201.66481      208.8226      -11118.669    
   1122000   700.56318     -7192606.4      198.38635      201.66481      208.8226      -10850.682    
   1123000   701.20929     -7192498.7      198.38635      201.66481      208.8226      -10977.625    
   1124000   699.71699     -7192619.6      198.38635      201.66481      208.8226      -11038.308    
   1125000   700.26139     -7192748.7      198.38635      201.66481      208.8226      -10947.08     
   1126000   699.31135     -7192599.3      198.38635      201.66481      208.8226      -10757.947    
   1127000   700.4898      -7192580.1      198.38635      201.66481      208.8226      -10972.794    
   1128000   699.4956      -7192717.7      198.38635      201.66481      208.8226      -10967.184    
   1129000   700.96489     -7192573.2      198.38635      201.66481      208.8226      -10906.413    
   1130000   699.67845     -7192634.7      198.38635      201.66481      208.8226      -10873.229    
   1131000   699.21883     -7192757.4      198.38635      201.66481      208.8226      -11016.853    
   1132000   699.61607     -7192659.8      198.38635      201.66481      208.8226      -10923.037    
   1133000   700.39772     -7192662.9      198.38635      201.66481      208.8226      -11087.077    
   1134000   699.37401     -7192819.3      198.38635      201.66481      208.8226      -11129.396    
   1135000   699.96739     -7192590.8      198.38635      201.66481      208.8226      -10950.209    
   1136000   700.12144     -7192599.8      198.38635      201.66481      208.8226      -10864.374    
   1137000   701.0325      -7192632.2      198.38635      201.66481      208.8226      -11101.644    
   1138000   701.03749     -7192583.7      198.38635      201.66481      208.8226      -10951.741    
   1139000   698.4081      -7192791.2      198.38635      201.66481      208.8226      -10840.962    
   1140000   700.14341     -7192672.9      198.38635      201.66481      208.8226      -11053.496    
   1141000   699.98826     -7192631.5      198.38635      201.66481      208.8226      -11159.474    
   1142000   699.82878     -7192711.9      198.38635      201.66481      208.8226      -10944.127    
   1143000   700.0161      -7192762.8      198.38635      201.66481      208.8226      -10828.221    
   1144000   700.62796     -7192638.7      198.38635      201.66481      208.8226      -11091.073    
   1145000   700.36327     -7192589.6      198.38635      201.66481      208.8226      -11211.615    
   1146000   700.42274     -7192585.5      198.38635      201.66481      208.8226      -10891.335    
   1147000   699.66468     -7192631.4      198.38635      201.66481      208.8226      -10916.337    
   1148000   698.98647     -7192686.1      198.38635      201.66481      208.8226      -11066.44     
   1149000   700.26448     -7192669.9      198.38635      201.66481      208.8226      -10999.715    
   1150000   700.42812     -7192608.7      198.38635      201.66481      208.8226      -10885.037    
   1151000   700.25718     -7192731.5      198.38635      201.66481      208.8226      -10965.289    
   1152000   699.71501     -7192691.4      198.38635      201.66481      208.8226      -11069.957    
   1153000   699.85864     -7192678.9      198.38635      201.66481      208.8226      -10875.297    
   1154000   700.48494     -7192537.8      198.38635      201.66481      208.8226      -10884.347    
   1155000   700.02452     -7192583.3      198.38635      201.66481      208.8226      -10982.759    
   1156000   699.14944     -7192691        198.38635      201.66481      208.8226      -11067.793    
   1157000   699.86097     -7192651.6      198.38635      201.66481      208.8226      -10772.752    
   1158000   699.94106     -7192573.5      198.38635      201.66481      208.8226      -10946.621    
   1159000   700.03833     -7192613.1      198.38635      201.66481      208.8226      -11163.399    
   1160000   700.99071     -7192645.4      198.38635      201.66481      208.8226      -10921.347    
   1161000   700.751       -7192610.9      198.38635      201.66481      208.8226      -10839.481    
   1162000   700.20802     -7192643.5      198.38635      201.66481      208.8226      -10969.391    
   1163000   699.32695     -7192768.2      198.38635      201.66481      208.8226      -11081.109    
   1164000   700.12669     -7192765.9      198.38635      201.66481      208.8226      -10882.622    
   1165000   698.84594     -7192695.2      198.38635      201.66481      208.8226      -10962.297    
   1166000   699.70585     -7192504.8      198.38635      201.66481      208.8226      -10995.379    
   1167000   700.00989     -7192672.3      198.38635      201.66481      208.8226      -10987.381    
   1168000   698.139       -7192903.6      198.38635      201.66481      208.8226      -10842.499    
   1169000   700.70484     -7192585.6      198.38635      201.66481      208.8226      -10843.19     
   1170000   699.06379     -7192714.9      198.38635      201.66481      208.8226      -11091.148    
   1171000   700.82644     -7192642.1      198.38635      201.66481      208.8226      -10836.608    
   1172000   699.65561     -7192668        198.38635      201.66481      208.8226      -10948.184    
   1173000   700.69743     -7192454.7      198.38635      201.66481      208.8226      -11001.002    
   1174000   700.15407     -7192629.2      198.38635      201.66481      208.8226      -10901.971    
   1175000   700.36647     -7192601.1      198.38635      201.66481      208.8226      -10651.034    
   1176000   699.80744     -7192700        198.38635      201.66481      208.8226      -10885.692    
   1177000   698.97684     -7192824.2      198.38635      201.66481      208.8226      -11086.666    
   1178000   699.17871     -7192808.9      198.38635      201.66481      208.8226      -11037.099    
   1179000   700.11997     -7192637.4      198.38635      201.66481      208.8226      -10946.442    
   1180000   700.1424      -7192652.4      198.38635      201.66481      208.8226      -10900.387    
   1181000   699.38914     -7192651        198.38635      201.66481      208.8226      -10982.177    
   1182000   699.50523     -7192623.3      198.38635      201.66481      208.8226      -10712.857    
   1183000   699.33939     -7192812.4      198.38635      201.66481      208.8226      -10795.266    
   1184000   700.04739     -7192595.9      198.38635      201.66481      208.8226      -10938.104    
   1185000   699.80712     -7192631.1      198.38635      201.66481      208.8226      -11001.076    
   1186000   700.38794     -7192672.8      198.38635      201.66481      208.8226      -10934.323    
   1187000   699.07497     -7192818        198.38635      201.66481      208.8226      -11024.443    
   1188000   699.15708     -7192636.5      198.38635      201.66481      208.8226      -11075.763    
   1189000   699.68924     -7192672.6      198.38635      201.66481      208.8226      -10991.446    
   1190000   700.58364     -7192620.1      198.38635      201.66481      208.8226      -10844.698    
   1191000   700.14798     -7192676.2      198.38635      201.66481      208.8226      -11046.129    
   1192000   699.59404     -7192592.6      198.38635      201.66481      208.8226      -10968.996    
   1193000   700.64053     -7192583.9      198.38635      201.66481      208.8226      -10812.405    
   1194000   701.64012     -7192500.6      198.38635      201.66481      208.8226      -11037.114    
   1195000   700.04573     -7192586.4      198.38635      201.66481      208.8226      -11078.115    
   1196000   699.87564     -7192777.4      198.38635      201.66481      208.8226      -11030.466    
   1197000   701.26857     -7192502.2      198.38635      201.66481      208.8226      -10947.284    
   1198000   698.49611     -7192684.3      198.38635      201.66481      208.8226      -10969.976    
   1199000   698.94998     -7192665.7      198.38635      201.66481      208.8226      -11016.545    
   1200000   700.38813     -7192756.1      198.38635      201.66481      208.8226      -10836.37     
   1201000   699.36525     -7192726.5      198.38635      201.66481      208.8226      -11018.429    
   1202000   700.47852     -7192579.9      198.38635      201.66481      208.8226      -10995.376    
   1203000   700.15511     -7192749.8      198.38635      201.66481      208.8226      -10900.058    
   1204000   700.6167      -7192683.9      198.38635      201.66481      208.8226      -10854.967    
   1205000   699.42095     -7192728.4      198.38635      201.66481      208.8226      -10997.797    
   1206000   700.14023     -7192677.5      198.38635      201.66481      208.8226      -11049.659    
   1207000   698.74985     -7192738.7      198.38635      201.66481      208.8226      -10948.418    
   1208000   699.78285     -7192631.6      198.38635      201.66481      208.8226      -10883.096    
   1209000   699.59833     -7192798        198.38635      201.66481      208.8226      -11046.572    
   1210000   700.7223      -7192661.6      198.38635      201.66481      208.8226      -10929.998    
   1211000   700.22719     -7192588        198.38635      201.66481      208.8226      -10760.471    
   1212000   700.43715     -7192512.7      198.38635      201.66481      208.8226      -10960.099    
   1213000   699.85114     -7192628.6      198.38635      201.66481      208.8226      -10838.262    
   1214000   700.17236     -7192596.5      198.38635      201.66481      208.8226      -10808.087    
   1215000   700.94776     -7192654.1      198.38635      201.66481      208.8226      -10877.306    
   1216000   699.7911      -7192725        198.38635      201.66481      208.8226      -11179.395    
   1217000   700.24259     -7192620.9      198.38635      201.66481      208.8226      -10902.301    
   1218000   699.37955     -7192667.4      198.38635      201.66481      208.8226      -10805.305    
   1219000   700.08972     -7192732.6      198.38635      201.66481      208.8226      -11071.196    
   1220000   701.20751     -7192521.8      198.38635      201.66481      208.8226      -10883.643    
   1221000   699.30925     -7192717.3      198.38635      201.66481      208.8226      -10857.738    
   1222000   700.49585     -7192603.7      198.38635      201.66481      208.8226      -10993.391    
   1223000   700.56027     -7192582.6      198.38635      201.66481      208.8226      -11058.116    
   1224000   699.48288     -7192783.2      198.38635      201.66481      208.8226      -11078.433    
   1225000   699.94724     -7192758.4      198.38635      201.66481      208.8226      -10788.03     
   1226000   700.48881     -7192560.8      198.38635      201.66481      208.8226      -10879.223    
   1227000   700.36477     -7192634.6      198.38635      201.66481      208.8226      -10866.278    
   1228000   700.93605     -7192557.9      198.38635      201.66481      208.8226      -10749.547    
   1229000   701.20108     -7192459.4      198.38635      201.66481      208.8226      -10903.198    
   1230000   699.19879     -7192708.5      198.38635      201.66481      208.8226      -11088.416    
   1231000   699.33955     -7192692.9      198.38635      201.66481      208.8226      -10832.597    
   1232000   699.98085     -7192696        198.38635      201.66481      208.8226      -10883.939    
   1233000   699.18334     -7192753        198.38635      201.66481      208.8226      -10970.603    
   1234000   700.38544     -7192628.7      198.38635      201.66481      208.8226      -10985.478    
   1235000   699.30147     -7192710.7      198.38635      201.66481      208.8226      -10652.439    
   1236000   700.35683     -7192645.6      198.38635      201.66481      208.8226      -10780.271    
   1237000   700.82405     -7192588.1      198.38635      201.66481      208.8226      -11134.911    
   1238000   700.17014     -7192744.5      198.38635      201.66481      208.8226      -11056.21     
   1239000   699.62412     -7192697.7      198.38635      201.66481      208.8226      -10810.709    
   1240000   699.67228     -7192656.7      198.38635      201.66481      208.8226      -11056.318    
   1241000   700.44626     -7192657.9      198.38635      201.66481      208.8226      -10869.741    
   1242000   700.40799     -7192694        198.38635      201.66481      208.8226      -10931.181    
   1243000   699.63387     -7192654.7      198.38635      201.66481      208.8226      -11003.03     
   1244000   699.87678     -7192675.4      198.38635      201.66481      208.8226      -11047.785    
   1245000   700.15954     -7192747.8      198.38635      201.66481      208.8226      -10926.39     
   1246000   699.91976     -7192764.9      198.38635      201.66481      208.8226      -10863.6      
   1247000   699.31226     -7192749.7      198.38635      201.66481      208.8226      -11116.629    
   1248000   700.43556     -7192714.7      198.38635      201.66481      208.8226      -10956.603    
   1249000   699.87408     -7192774.7      198.38635      201.66481      208.8226      -10893.172    
   1250000   699.185       -7192808.2      198.38635      201.66481      208.8226      -11033.373    
   1251000   701.22707     -7192693.8      198.38635      201.66481      208.8226      -11096.522    
   1252000   700.88287     -7192692.9      198.38635      201.66481      208.8226      -10982.348    
   1253000   701.1093      -7192591.7      198.38635      201.66481      208.8226      -10858.226    
   1254000   702.13331     -7192461.3      198.38635      201.66481      208.8226      -10958.779    
   1255000   700.08425     -7192674.2      198.38635      201.66481      208.8226      -11013.621    
   1256000   698.83609     -7192853        198.38635      201.66481      208.8226      -10964.875    
   1257000   700.83478     -7192685.2      198.38635      201.66481      208.8226      -10923.471    
   1258000   699.38731     -7192779.8      198.38635      201.66481      208.8226      -10994.645    
   1259000   700.37507     -7192784.7      198.38635      201.66481      208.8226      -10966.272    
   1260000   699.66475     -7192814.6      198.38635      201.66481      208.8226      -10860.985    
   1261000   698.70618     -7192835.7      198.38635      201.66481      208.8226      -10974.905    
   1262000   699.75439     -7192757.1      198.38635      201.66481      208.8226      -10909.821    
   1263000   697.93815     -7192829.8      198.38635      201.66481      208.8226      -10835.224    
   1264000   700.26311     -7192695.6      198.38635      201.66481      208.8226      -10880.497    
   1265000   700.88623     -7192642.8      198.38635      201.66481      208.8226      -11072.834    
   1266000   700.12564     -7192640.1      198.38635      201.66481      208.8226      -10924.346    
   1267000   699.10652     -7192765.4      198.38635      201.66481      208.8226      -10867.381    
   1268000   699.31407     -7192727.7      198.38635      201.66481      208.8226      -10891.784    
   1269000   699.61144     -7192742.6      198.38635      201.66481      208.8226      -10853.089    
   1270000   700.35891     -7192634.1      198.38635      201.66481      208.8226      -10935.664    
   1271000   700.45905     -7192700.1      198.38635      201.66481      208.8226      -10934.356    
   1272000   700.44912     -7192693.8      198.38635      201.66481      208.8226      -11030.672    
   1273000   700.27343     -7192625.8      198.38635      201.66481      208.8226      -10977.725    
   1274000   700.22074     -7192725.5      198.38635      201.66481      208.8226      -10894.848    
   1275000   700.49588     -7192724.8      198.38635      201.66481      208.8226      -10918.011    
   1276000   700.57836     -7192695.6      198.38635      201.66481      208.8226      -10992.146    
   1277000   700.94185     -7192716.5      198.38635      201.66481      208.8226      -11067.855    
   1278000   700.66263     -7192721.8      198.38635      201.66481      208.8226      -10976.814    
   1279000   698.98324     -7192705.2      198.38635      201.66481      208.8226      -10987.474    
   1280000   699.5776      -7192695.5      198.38635      201.66481      208.8226      -10940.654    
   1281000   700.44039     -7192565.6      198.38635      201.66481      208.8226      -10971.492    
   1282000   699.35068     -7192812.6      198.38635      201.66481      208.8226      -11034.334    
   1283000   700.4829      -7192592.6      198.38635      201.66481      208.8226      -10968.281    
   1284000   699.55087     -7192761.9      198.38635      201.66481      208.8226      -11043.515    
   1285000   699.48466     -7192699.2      198.38635      201.66481      208.8226      -10897.749    
   1286000   700.72051     -7192613.3      198.38635      201.66481      208.8226      -11081.026    
   1287000   700.87735     -7192651.8      198.38635      201.66481      208.8226      -10986.743    
   1288000   700.22354     -7192620.1      198.38635      201.66481      208.8226      -10749.663    
   1289000   699.9503      -7192575.6      198.38635      201.66481      208.8226      -10967.543    
   1290000   699.89044     -7192753.1      198.38635      201.66481      208.8226      -11058.26     
   1291000   699.50979     -7192758        198.38635      201.66481      208.8226      -10895.599    
   1292000   698.54011     -7192810.6      198.38635      201.66481      208.8226      -10884.464    
   1293000   698.75141     -7192781.8      198.38635      201.66481      208.8226      -11149.941    
   1294000   700.09194     -7192700.4      198.38635      201.66481      208.8226      -11047.204    
   1295000   701.43314     -7192556.5      198.38635      201.66481      208.8226      -10838.892    
   1296000   698.79852     -7192695.5      198.38635      201.66481      208.8226      -10987.675    
   1297000   699.84425     -7192673.6      198.38635      201.66481      208.8226      -11039.138    
   1298000   699.52819     -7192757        198.38635      201.66481      208.8226      -10831.161    
   1299000   699.92779     -7192623.2      198.38635      201.66481      208.8226      -10723.724    
   1300000   699.83894     -7192657.8      198.38635      201.66481      208.8226      -11039.053    
   1301000   699.48608     -7192770.2      198.38635      201.66481      208.8226      -10896.933    
   1302000   699.98483     -7192690.8      198.38635      201.66481      208.8226      -10833.053    
   1303000   700.19512     -7192655.4      198.38635      201.66481      208.8226      -10909.842    
   1304000   699.81539     -7192676.7      198.38635      201.66481      208.8226      -11062.29     
   1305000   700.27533     -7192805.1      198.38635      201.66481      208.8226      -10833.362    
   1306000   700.40966     -7192706.5      198.38635      201.66481      208.8226      -10759.515    
   1307000   700.63442     -7192590.1      198.38635      201.66481      208.8226      -11014.302    
   1308000   699.45275     -7192770.3      198.38635      201.66481      208.8226      -11144.334    
   1309000   699.04792     -7192739.4      198.38635      201.66481      208.8226      -10854.584    
   1310000   699.79337     -7192724.2      198.38635      201.66481      208.8226      -11100.847    
   1311000   700.29316     -7192618.9      198.38635      201.66481      208.8226      -11181.306    
   1312000   700.26404     -7192716.5      198.38635      201.66481      208.8226      -10948.027    
   1313000   697.41858     -7192957.3      198.38635      201.66481      208.8226      -10930.232    
   1314000   700.78912     -7192726.8      198.38635      201.66481      208.8226      -11107.947    
   1315000   700.7456      -7192630.3      198.38635      201.66481      208.8226      -11000.96     
   1316000   700.69524     -7192639.7      198.38635      201.66481      208.8226      -11003.314    
   1317000   700.0293      -7192763.8      198.38635      201.66481      208.8226      -10916.569    
   1318000   700.61349     -7192551.8      198.38635      201.66481      208.8226      -11046.035    
   1319000   700.8758      -7192532.6      198.38635      201.66481      208.8226      -10906.021    
   1320000   700.02134     -7192712.9      198.38635      201.66481      208.8226      -10665.584    
   1321000   699.99358     -7192700.9      198.38635      201.66481      208.8226      -10956.339    
   1322000   699.40055     -7192627.1      198.38635      201.66481      208.8226      -11093.703    
   1323000   700.80376     -7192685.9      198.38635      201.66481      208.8226      -10998.89     
   1324000   699.84433     -7192617.1      198.38635      201.66481      208.8226      -10803.604    
   1325000   699.60888     -7192749.1      198.38635      201.66481      208.8226      -11048.634    
   1326000   699.30728     -7192667.1      198.38635      201.66481      208.8226      -11043.167    
   1327000   700.15599     -7192860.6      198.38635      201.66481      208.8226      -11047.656    
   1328000   700.23083     -7192608.9      198.38635      201.66481      208.8226      -10851.575    
   1329000   701.77075     -7192496.9      198.38635      201.66481      208.8226      -11005.254    
   1330000   699.03392     -7192678.3      198.38635      201.66481      208.8226      -10881.19     
   1331000   699.70235     -7192894        198.38635      201.66481      208.8226      -10883.197    
   1332000   699.02079     -7192765.2      198.38635      201.66481      208.8226      -10971.156    
   1333000   699.43812     -7192855.8      198.38635      201.66481      208.8226      -11069.72     
   1334000   698.3493      -7192961.4      198.38635      201.66481      208.8226      -10871.472    
   1335000   698.68937     -7192789.1      198.38635      201.66481      208.8226      -10850.982    
   1336000   699.52854     -7192707.3      198.38635      201.66481      208.8226      -11188.545    
   1337000   700.80459     -7192620.7      198.38635      201.66481      208.8226      -10964.751    
   1338000   699.47686     -7192842.9      198.38635      201.66481      208.8226      -10712.039    
   1339000   700.05379     -7192741.2      198.38635      201.66481      208.8226      -10993.71     
   1340000   700.00301     -7192648.9      198.38635      201.66481      208.8226      -11072.916    
   1341000   700.43076     -7192714.9      198.38635      201.66481      208.8226      -10974.211    
   1342000   699.54107     -7192732.9      198.38635      201.66481      208.8226      -10993.781    
   1343000   700.01381     -7192634.2      198.38635      201.66481      208.8226      -10989.025    
   1344000   699.80861     -7192638.6      198.38635      201.66481      208.8226      -10905.041    
   1345000   699.90497     -7192714.9      198.38635      201.66481      208.8226      -10909.814    
   1346000   700.07416     -7192660        198.38635      201.66481      208.8226      -10918.306    
   1347000   700.42261     -7192509.6      198.38635      201.66481      208.8226      -11026.258    
   1348000   700.72338     -7192567.5      198.38635      201.66481      208.8226      -10895.392    
   1349000   700.00862     -7192626.7      198.38635      201.66481      208.8226      -10901.904    
   1350000   700.21183     -7192637.3      198.38635      201.66481      208.8226      -10890.724    
   1351000   700.70607     -7192522.9      198.38635      201.66481      208.8226      -11010.198    
   1352000   700.32997     -7192705.8      198.38635      201.66481      208.8226      -10905.589    
   1353000   699.96951     -7192828.4      198.38635      201.66481      208.8226      -10975.119    
   1354000   698.76702     -7192897.9      198.38635      201.66481      208.8226      -11044.978    
   1355000   700.69062     -7192627.9      198.38635      201.66481      208.8226      -10969.037    
   1356000   699.44256     -7192724.1      198.38635      201.66481      208.8226      -10763.442    
   1357000   700.40664     -7192777.8      198.38635      201.66481      208.8226      -10999.963    
   1358000   700.93158     -7192617.5      198.38635      201.66481      208.8226      -10991.363    
   1359000   699.22698     -7192679        198.38635      201.66481      208.8226      -10996.602    
   1360000   699.44029     -7192790.4      198.38635      201.66481      208.8226      -10851.649    
   1361000   699.91203     -7192648.8      198.38635      201.66481      208.8226      -10785.793    
   1362000   700.41489     -7192657.2      198.38635      201.66481      208.8226      -10949.757    
   1363000   699.49729     -7192874.3      198.38635      201.66481      208.8226      -10990.258    
   1364000   701.64777     -7192470.1      198.38635      201.66481      208.8226      -10861.655    
   1365000   700.65934     -7192588.5      198.38635      201.66481      208.8226      -11074.318    
   1366000   700.50095     -7192603.3      198.38635      201.66481      208.8226      -10923.01     
   1367000   699.2548      -7192764.5      198.38635      201.66481      208.8226      -10828.556    
   1368000   699.47877     -7192787.6      198.38635      201.66481      208.8226      -11023.773    
   1369000   699.84569     -7192762.3      198.38635      201.66481      208.8226      -10952.686    
   1370000   701.03737     -7192616.3      198.38635      201.66481      208.8226      -11102.836    
   1371000   700.28801     -7192801.6      198.38635      201.66481      208.8226      -10763.424    
   1372000   699.95776     -7192735.9      198.38635      201.66481      208.8226      -11058.204    
   1373000   699.39638     -7192652.7      198.38635      201.66481      208.8226      -11020.539    
   1374000   701.0185      -7192614.8      198.38635      201.66481      208.8226      -10772.849    
   1375000   699.11573     -7192841.8      198.38635      201.66481      208.8226      -10915.667    
   1376000   701.57583     -7192611.2      198.38635      201.66481      208.8226      -11143.084    
   1377000   699.12606     -7192799.9      198.38635      201.66481      208.8226      -10795.668    
   1378000   699.57928     -7192782        198.38635      201.66481      208.8226      -10937.674    
   1379000   699.68472     -7192691.9      198.38635      201.66481      208.8226      -11135.859    
   1380000   699.58521     -7192724        198.38635      201.66481      208.8226      -11000.32     
   1381000   700.52085     -7192520        198.38635      201.66481      208.8226      -10836.525    
   1382000   700.02171     -7192656.6      198.38635      201.66481      208.8226      -10933.94     
   1383000   700.55823     -7192697.5      198.38635      201.66481      208.8226      -11144.769    
   1384000   699.86974     -7192785.7      198.38635      201.66481      208.8226      -10886.318    
   1385000   700.61226     -7192534.3      198.38635      201.66481      208.8226      -10839.316    
   1386000   699.95458     -7192750.4      198.38635      201.66481      208.8226      -11082.088    
   1387000   700.66815     -7192504.9      198.38635      201.66481      208.8226      -10919.551    
   1388000   699.817       -7192623.6      198.38635      201.66481      208.8226      -10789.84     
   1389000   699.36837     -7192772.8      198.38635      201.66481      208.8226      -10899.098    
   1390000   700.46781     -7192768.5      198.38635      201.66481      208.8226      -10912.108    
   1391000   699.99762     -7192707        198.38635      201.66481      208.8226      -10830.994    
   1392000   700.86509     -7192673.8      198.38635      201.66481      208.8226      -10763.535    
   1393000   699.19974     -7192837.3      198.38635      201.66481      208.8226      -11013.053    
   1394000   700.50433     -7192640.1      198.38635      201.66481      208.8226      -11040.453    
   1395000   699.47136     -7192859.7      198.38635      201.66481      208.8226      -10872.224    
   1396000   699.49193     -7192725.6      198.38635      201.66481      208.8226      -11039.495    
   1397000   700.56927     -7192669.3      198.38635      201.66481      208.8226      -11071.522    
   1398000   699.95248     -7192750.3      198.38635      201.66481      208.8226      -10879.491    
   1399000   700.59103     -7192625.4      198.38635      201.66481      208.8226      -10766.706    
   1400000   700.34465     -7192591.7      198.38635      201.66481      208.8226      -10880.65     
   1401000   698.45633     -7192826.1      198.38635      201.66481      208.8226      -11014.73     
   1402000   698.93158     -7192957.9      198.38635      201.66481      208.8226      -11067.219    
   1403000   699.95228     -7192757.5      198.38635      201.66481      208.8226      -10830.771    
   1404000   699.93308     -7192757.5      198.38635      201.66481      208.8226      -11084.372    
   1405000   699.76418     -7192696.2      198.38635      201.66481      208.8226      -11018.39     
   1406000   700.488       -7192585.7      198.38635      201.66481      208.8226      -10875.47     
   1407000   700.83973     -7192679.8      198.38635      201.66481      208.8226      -10833.862    
   1408000   701.09915     -7192674        198.38635      201.66481      208.8226      -11109.238    
   1409000   699.87868     -7192799        198.38635      201.66481      208.8226      -10997.779    
   1410000   700.99261     -7192689.2      198.38635      201.66481      208.8226      -10906.159    
   1411000   699.74797     -7192726.1      198.38635      201.66481      208.8226      -10984.994    
   1412000   699.35402     -7192788.7      198.38635      201.66481      208.8226      -10900.508    
   1413000   699.19671     -7192795.6      198.38635      201.66481      208.8226      -10889.098    
   1414000   699.34495     -7192770.4      198.38635      201.66481      208.8226      -11023.267    
   1415000   699.49472     -7192704.9      198.38635      201.66481      208.8226      -10955.584    
   1416000   699.68696     -7192769.4      198.38635      201.66481      208.8226      -10958.488    
   1417000   699.4831      -7192778.5      198.38635      201.66481      208.8226      -10855.053    
   1418000   698.84652     -7192902.7      198.38635      201.66481      208.8226      -11026.41     
   1419000   700.85663     -7192605.8      198.38635      201.66481      208.8226      -10999.818    
   1420000   700.02861     -7192695.7      198.38635      201.66481      208.8226      -10977.513    
   1421000   699.11628     -7192785.9      198.38635      201.66481      208.8226      -10927.932    
   1422000   700.02783     -7192703        198.38635      201.66481      208.8226      -11170.038    
   1423000   699.60934     -7192755        198.38635      201.66481      208.8226      -10831.343    
   1424000   699.13114     -7192818.8      198.38635      201.66481      208.8226      -10871.461    
   1425000   700.2241      -7192698.3      198.38635      201.66481      208.8226      -10831.548    
   1426000   699.16199     -7192788        198.38635      201.66481      208.8226      -10864.87     
   1427000   700.52362     -7192664.3      198.38635      201.66481      208.8226      -10972.743    
   1428000   700.44205     -7192616.6      198.38635      201.66481      208.8226      -10773.975    
   1429000   700.35059     -7192637.4      198.38635      201.66481      208.8226      -11002.404    
   1430000   700.11225     -7192720.9      198.38635      201.66481      208.8226      -10891.054    
   1431000   700.87538     -7192610.9      198.38635      201.66481      208.8226      -10842.584    
   1432000   699.99364     -7192792.4      198.38635      201.66481      208.8226      -10855.682    
   1433000   699.40091     -7192842        198.38635      201.66481      208.8226      -11087.624    
   1434000   699.66942     -7192788.4      198.38635      201.66481      208.8226      -11128.68     
   1435000   700.6025      -7192623.1      198.38635      201.66481      208.8226      -10863.716    
   1436000   700.41574     -7192703.1      198.38635      201.66481      208.8226      -10944.77     
   1437000   700.90628     -7192605.9      198.38635      201.66481      208.8226      -11050.565    
   1438000   699.71093     -7192680        198.38635      201.66481      208.8226      -10843.758    
   1439000   700.13424     -7192711.8      198.38635      201.66481      208.8226      -10987.527    
   1440000   698.28461     -7192769.6      198.38635      201.66481      208.8226      -10931.015    
   1441000   699.88352     -7192824.3      198.38635      201.66481      208.8226      -10895.207    
   1442000   700.38163     -7192813.2      198.38635      201.66481      208.8226      -11002.839    
   1443000   698.97067     -7192855.3      198.38635      201.66481      208.8226      -11017.378    
   1444000   700.2211      -7192659        198.38635      201.66481      208.8226      -10917.554    
   1445000   699.49348     -7192705        198.38635      201.66481      208.8226      -10860.17     
   1446000   700.62694     -7192668.6      198.38635      201.66481      208.8226      -10962.648    
   1447000   700.3847      -7192665.7      198.38635      201.66481      208.8226      -10990.555    
   1448000   698.97109     -7192764.7      198.38635      201.66481      208.8226      -10870.262    
   1449000   700.21714     -7192768.1      198.38635      201.66481      208.8226      -10956.259    
   1450000   698.86095     -7192771.3      198.38635      201.66481      208.8226      -11083.039    
   1451000   700.51705     -7192821.7      198.38635      201.66481      208.8226      -10964.536    
   1452000   700.32327     -7192767.3      198.38635      201.66481      208.8226      -10935.785    
   1453000   699.21983     -7192876.9      198.38635      201.66481      208.8226      -11109.265    
   1454000   700.0591      -7192653        198.38635      201.66481      208.8226      -11050.908    
   1455000   699.80039     -7192772.4      198.38635      201.66481      208.8226      -10825.977    
   1456000   699.54507     -7192770.6      198.38635      201.66481      208.8226      -10951.82     
   1457000   700.10846     -7192657.8      198.38635      201.66481      208.8226      -10977.138    
   1458000   700.36201     -7192632.9      198.38635      201.66481      208.8226      -10881.094    
   1459000   699.54221     -7192610        198.38635      201.66481      208.8226      -10818.696    
   1460000   700.09841     -7192656.6      198.38635      201.66481      208.8226      -10993.942    
   1461000   701.84351     -7192449.6      198.38635      201.66481      208.8226      -11046.215    
   1462000   701.1879      -7192682        198.38635      201.66481      208.8226      -10846.07     
   1463000   700.53949     -7192681.6      198.38635      201.66481      208.8226      -11007.868    
   1464000   700.92491     -7192602        198.38635      201.66481      208.8226      -10903.376    
   1465000   700.68657     -7192635.1      198.38635      201.66481      208.8226      -10811.209    
   1466000   700.4205      -7192665        198.38635      201.66481      208.8226      -10957.084    
   1467000   699.31841     -7192785        198.38635      201.66481      208.8226      -11059.736    
   1468000   701.03694     -7192627.2      198.38635      201.66481      208.8226      -10880.116    
   1469000   699.60419     -7192730.2      198.38635      201.66481      208.8226      -10994.546    
   1470000   700.2626      -7192719.4      198.38635      201.66481      208.8226      -10923.775    
   1471000   700.26889     -7192740.8      198.38635      201.66481      208.8226      -10911.879    
   1472000   700.79932     -7192603.5      198.38635      201.66481      208.8226      -10878.308    
   1473000   700.61541     -7192717.6      198.38635      201.66481      208.8226      -10962.951    
   1474000   699.9113      -7192704.5      198.38635      201.66481      208.8226      -10716.466    
   1475000   700.69839     -7192844.4      198.38635      201.66481      208.8226      -11082.49     
   1476000   699.85793     -7192782.2      198.38635      201.66481      208.8226      -10948.802    
   1477000   700.97869     -7192666.8      198.38635      201.66481      208.8226      -10954.258    
   1478000   700.21168     -7192684.9      198.38635      201.66481      208.8226      -10925.885    
   1479000   700.31744     -7192719        198.38635      201.66481      208.8226      -10933.629    
   1480000   699.0691      -7192915.5      198.38635      201.66481      208.8226      -11050.242    
   1481000   698.72111     -7192926.4      198.38635      201.66481      208.8226      -10796.895    
   1482000   700.63043     -7192752.7      198.38635      201.66481      208.8226      -10762.871    
   1483000   700.36876     -7192671.9      198.38635      201.66481      208.8226      -10844.215    
   1484000   699.61264     -7192792.2      198.38635      201.66481      208.8226      -11017.364    
   1485000   700.32818     -7192666.5      198.38635      201.66481      208.8226      -10850.821    
   1486000   700.92817     -7192662        198.38635      201.66481      208.8226      -10973.019    
   1487000   700.07        -7192683.2      198.38635      201.66481      208.8226      -10938.99     
   1488000   700.82348     -7192670.9      198.38635      201.66481      208.8226      -10952.161    
   1489000   700.41478     -7192682        198.38635      201.66481      208.8226      -11000.201    
   1490000   700.09899     -7192631.4      198.38635      201.66481      208.8226      -10894.982    
   1491000   700.04918     -7192811.9      198.38635      201.66481      208.8226      -10931.857    
   1492000   700.11861     -7192714.9      198.38635      201.66481      208.8226      -11010.983    
   1493000   700.25755     -7192793.4      198.38635      201.66481      208.8226      -11111.871    
   1494000   699.69787     -7192831.8      198.38635      201.66481      208.8226      -11019.049    
   1495000   699.20932     -7192768.7      198.38635      201.66481      208.8226      -11038.569    
   1496000   699.71096     -7192754.4      198.38635      201.66481      208.8226      -11079.49     
   1497000   700.77404     -7192644.8      198.38635      201.66481      208.8226      -10823.904    
   1498000   699.45983     -7192751.9      198.38635      201.66481      208.8226      -10960.003    
   1499000   700.34398     -7192600.4      198.38635      201.66481      208.8226      -11021.039    
   1500000   700.27346     -7192661.7      198.38635      201.66481      208.8226      -10972.458    
   1501000   699.75736     -7192854.2      198.38635      201.66481      208.8226      -10896.631    
   1502000   700.96849     -7192661.8      198.38635      201.66481      208.8226      -10959.637    
   1503000   699.94773     -7192657.5      198.38635      201.66481      208.8226      -11130.956    
   1504000   699.47615     -7192860.1      198.38635      201.66481      208.8226      -10964.213    
   1505000   700.33398     -7192672.5      198.38635      201.66481      208.8226      -10836.615    
   1506000   699.0496      -7192927.4      198.38635      201.66481      208.8226      -11088.835    
   1507000   699.04545     -7192813.5      198.38635      201.66481      208.8226      -10875.338    
   1508000   699.29037     -7192833.9      198.38635      201.66481      208.8226      -11004.864    
   1509000   698.62456     -7192806.7      198.38635      201.66481      208.8226      -10968.022    
   1510000   699.67936     -7192752.8      198.38635      201.66481      208.8226      -10900.581    
   1511000   700.524       -7192699.9      198.38635      201.66481      208.8226      -10847.503    
   1512000   698.87926     -7192790.7      198.38635      201.66481      208.8226      -10819.72     
   1513000   699.81405     -7192828.4      198.38635      201.66481      208.8226      -11044.203    
   1514000   700.4623      -7192673        198.38635      201.66481      208.8226      -10919.973    
   1515000   701.87355     -7192453.7      198.38635      201.66481      208.8226      -10892.008    
   1516000   700.66432     -7192551.8      198.38635      201.66481      208.8226      -10878.609    
   1517000   699.88148     -7192712        198.38635      201.66481      208.8226      -10939.951    
   1518000   701.22649     -7192604.3      198.38635      201.66481      208.8226      -10804.681    
   1519000   699.40082     -7192755.3      198.38635      201.66481      208.8226      -10805.893    
   1520000   700.23198     -7192722.5      198.38635      201.66481      208.8226      -10924.677    
   1521000   700.07016     -7192751.4      198.38635      201.66481      208.8226      -11076.093    
   1522000   700.05407     -7192639.4      198.38635      201.66481      208.8226      -10986.467    
   1523000   699.32089     -7192742.3      198.38635      201.66481      208.8226      -10969.075    
   1524000   700.08013     -7192753.3      198.38635      201.66481      208.8226      -10963.895    
   1525000   698.8936      -7192807        198.38635      201.66481      208.8226      -10899.741    
   1526000   701.13224     -7192614.4      198.38635      201.66481      208.8226      -11033.569    
   1527000   700.88987     -7192671.1      198.38635      201.66481      208.8226      -10982.394    
   1528000   701.19812     -7192628.8      198.38635      201.66481      208.8226      -10973.445    
   1529000   701.14971     -7192626.5      198.38635      201.66481      208.8226      -11026.663    
   1530000   698.15102     -7192876.1      198.38635      201.66481      208.8226      -11093.206    
   1531000   701.86489     -7192565.5      198.38635      201.66481      208.8226      -10838.381    
   1532000   701.25129     -7192493.5      198.38635      201.66481      208.8226      -10761.376    
   1533000   700.55961     -7192790.8      198.38635      201.66481      208.8226      -11052.803    
   1534000   699.15386     -7192720.8      198.38635      201.66481      208.8226      -10905.645    
   1535000   699.53592     -7192820.2      198.38635      201.66481      208.8226      -10897.227    
   1536000   700.54124     -7192721.7      198.38635      201.66481      208.8226      -10885.288    
   1537000   700.21885     -7192663.9      198.38635      201.66481      208.8226      -10962.679    
   1538000   700.90145     -7192734.2      198.38635      201.66481      208.8226      -10846.977    
   1539000   700.05449     -7192688.3      198.38635      201.66481      208.8226      -10795.49     
   1540000   699.15412     -7192749.6      198.38635      201.66481      208.8226      -10956.553    
   1541000   699.72709     -7192764.7      198.38635      201.66481      208.8226      -10858.134    
   1542000   700.49007     -7192746.9      198.38635      201.66481      208.8226      -11012.077    
   1543000   700.65191     -7192762.5      198.38635      201.66481      208.8226      -11091.876    
   1544000   699.354       -7192840.9      198.38635      201.66481      208.8226      -11012.012    
   1545000   701.47413     -7192653.3      198.38635      201.66481      208.8226      -10906.951    
   1546000   700.68131     -7192770.2      198.38635      201.66481      208.8226      -10966.497    
   1547000   699.67174     -7192774.5      198.38635      201.66481      208.8226      -11078.044    
   1548000   699.06021     -7192763.3      198.38635      201.66481      208.8226      -10939.481    
   1549000   699.80632     -7192784        198.38635      201.66481      208.8226      -10952.176    
   1550000   699.47938     -7192805.8      198.38635      201.66481      208.8226      -10958.306    
   1551000   700.26782     -7192624.9      198.38635      201.66481      208.8226      -10986.982    
   1552000   700.15834     -7192739.3      198.38635      201.66481      208.8226      -10909.592    
   1553000   699.62744     -7192834.1      198.38635      201.66481      208.8226      -11118.022    
   1554000   700.29193     -7192652.5      198.38635      201.66481      208.8226      -10904.641    
   1555000   699.75591     -7192731.1      198.38635      201.66481      208.8226      -10967.324    
   1556000   699.95513     -7192720.3      198.38635      201.66481      208.8226      -10951.37     
   1557000   700.54058     -7192688        198.38635      201.66481      208.8226      -10957.475    
   1558000   700.74188     -7192635.2      198.38635      201.66481      208.8226      -10871.798    
   1559000   701.06399     -7192676.3      198.38635      201.66481      208.8226      -10919.387    
   1560000   699.78974     -7192716.6      198.38635      201.66481      208.8226      -10993.998    
   1561000   699.03915     -7192891.5      198.38635      201.66481      208.8226      -11077.446    
   1562000   700.49723     -7192714.5      198.38635      201.66481      208.8226      -10920.307    
   1563000   699.54983     -7192733.7      198.38635      201.66481      208.8226      -10905.746    
   1564000   699.39732     -7192724.6      198.38635      201.66481      208.8226      -11059.506    
   1565000   699.30117     -7192853        198.38635      201.66481      208.8226      -10945.751    
   1566000   700.12141     -7192634        198.38635      201.66481      208.8226      -10848.333    
   1567000   701.10967     -7192632.6      198.38635      201.66481      208.8226      -10929.528    
   1568000   698.1168      -7192816.6      198.38635      201.66481      208.8226      -10978.939    
   1569000   700.17982     -7192821        198.38635      201.66481      208.8226      -10977.937    
   1570000   700.15508     -7192698.5      198.38635      201.66481      208.8226      -10841.251    
   1571000   698.95276     -7192747.2      198.38635      201.66481      208.8226      -11062.401    
   1572000   700.1105      -7192754.4      198.38635      201.66481      208.8226      -10973.133    
   1573000   699.9982      -7192833.1      198.38635      201.66481      208.8226      -10962.776    
   1574000   700.15753     -7192638.9      198.38635      201.66481      208.8226      -10879.071    
   1575000   699.18422     -7192838.5      198.38635      201.66481      208.8226      -11118.278    
   1576000   699.65739     -7192719.2      198.38635      201.66481      208.8226      -10899.688    
   1577000   699.7831      -7192666.1      198.38635      201.66481      208.8226      -10914.599    
   1578000   700.20155     -7192757.6      198.38635      201.66481      208.8226      -11035.056    
   1579000   699.17983     -7192791.2      198.38635      201.66481      208.8226      -11090.67     
   1580000   699.14562     -7192776.2      198.38635      201.66481      208.8226      -11010.875    
   1581000   699.36369     -7192789.9      198.38635      201.66481      208.8226      -10958.869    
   1582000   698.80974     -7192790.6      198.38635      201.66481      208.8226      -10792.327    
   1583000   700.31317     -7192688.7      198.38635      201.66481      208.8226      -10918.694    
   1584000   699.40751     -7192755.7      198.38635      201.66481      208.8226      -10899.252    
   1585000   699.19051     -7192748.9      198.38635      201.66481      208.8226      -11057.92     
   1586000   699.84794     -7192735.3      198.38635      201.66481      208.8226      -11091.173    
   1587000   699.86839     -7192763.1      198.38635      201.66481      208.8226      -11080.254    
   1588000   701.12277     -7192785        198.38635      201.66481      208.8226      -10994.962    
   1589000   699.48003     -7192716.6      198.38635      201.66481      208.8226      -10879.216    
   1590000   697.80365     -7192906.7      198.38635      201.66481      208.8226      -10930.186    
   1591000   699.44681     -7192761.8      198.38635      201.66481      208.8226      -11017.429    
   1592000   698.528       -7193014.7      198.38635      201.66481      208.8226      -10943.122    
   1593000   699.42781     -7192784        198.38635      201.66481      208.8226      -11100.54     
   1594000   700.34217     -7192659.8      198.38635      201.66481      208.8226      -10939.226    
   1595000   698.29148     -7192968.7      198.38635      201.66481      208.8226      -10946.669    
   1596000   699.45883     -7192760        198.38635      201.66481      208.8226      -10973.948    
   1597000   700.31352     -7192745.3      198.38635      201.66481      208.8226      -10989.403    
   1598000   700.4865      -7192699        198.38635      201.66481      208.8226      -11019.642    
   1599000   700.13021     -7192758.9      198.38635      201.66481      208.8226      -10803.342    
   1600000   700.9094      -7192731.6      198.38635      201.66481      208.8226      -10823.487    
   1601000   698.8889      -7192850.1      198.38635      201.66481      208.8226      -11200.348    
   1602000   701.78717     -7192660.4      198.38635      201.66481      208.8226      -10886.723    
   1603000   699.89314     -7192802        198.38635      201.66481      208.8226      -11059.895    
   1604000   700.63661     -7192755.5      198.38635      201.66481      208.8226      -11038.319    
   1605000   700.61045     -7192684.8      198.38635      201.66481      208.8226      -10976.362    
   1606000   699.13195     -7192858        198.38635      201.66481      208.8226      -10732.924    
   1607000   699.71722     -7192784.1      198.38635      201.66481      208.8226      -11040.954    
   1608000   700.72668     -7192694.3      198.38635      201.66481      208.8226      -10973.584    
   1609000   700.07263     -7192787.9      198.38635      201.66481      208.8226      -10822.097    
   1610000   700.11786     -7192745.7      198.38635      201.66481      208.8226      -10913.093    
   1611000   699.80535     -7192788        198.38635      201.66481      208.8226      -11076.673    
   1612000   700.67402     -7192715.1      198.38635      201.66481      208.8226      -11049.656    
   1613000   700.17217     -7192811.1      198.38635      201.66481      208.8226      -10780.982    
   1614000   698.97787     -7192811.2      198.38635      201.66481      208.8226      -11181.764    
   1615000   700.1584      -7192762.9      198.38635      201.66481      208.8226      -11099.139    
   1616000   699.07283     -7192922        198.38635      201.66481      208.8226      -10980.827    
   1617000   700.76844     -7192630.2      198.38635      201.66481      208.8226      -10859.096    
   1618000   699.33883     -7192841        198.38635      201.66481      208.8226      -11098.673    
   1619000   699.78195     -7192821.1      198.38635      201.66481      208.8226      -10901.369    
   1620000   700.29141     -7192809.9      198.38635      201.66481      208.8226      -10868.102    
   1621000   700.52796     -7192656.2      198.38635      201.66481      208.8226      -11002.211    
   1622000   700.17271     -7192750.8      198.38635      201.66481      208.8226      -11166.849    
   1623000   700.63752     -7192731.6      198.38635      201.66481      208.8226      -11081.812    
   1624000   699.42828     -7192890.1      198.38635      201.66481      208.8226      -11048.274    
   1625000   699.27573     -7192694.7      198.38635      201.66481      208.8226      -10854.704    
   1626000   699.62112     -7192787.9      198.38635      201.66481      208.8226      -10926.798    
   1627000   698.90888     -7192801.4      198.38635      201.66481      208.8226      -10989.285    
   1628000   700.32712     -7192676.7      198.38635      201.66481      208.8226      -10990.108    
   1629000   698.93789     -7192770.8      198.38635      201.66481      208.8226      -10997.737    
   1630000   700.84209     -7192701.1      198.38635      201.66481      208.8226      -11046.472    
   1631000   700.34752     -7192752        198.38635      201.66481      208.8226      -10872.688    
   1632000   699.48457     -7192877.2      198.38635      201.66481      208.8226      -10985.233    
   1633000   699.88299     -7192758        198.38635      201.66481      208.8226      -10922.55     
   1634000   700.20584     -7192768.6      198.38635      201.66481      208.8226      -10966.298    
   1635000   700.06478     -7192677.4      198.38635      201.66481      208.8226      -10912.535    
   1636000   697.5316      -7192879.7      198.38635      201.66481      208.8226      -10843.212    
   1637000   699.16834     -7192892.9      198.38635      201.66481      208.8226      -10977.493    
   1638000   700.42024     -7192712        198.38635      201.66481      208.8226      -10910.673    
   1639000   698.8994      -7192843.8      198.38635      201.66481      208.8226      -10961.009    
   1640000   700.11892     -7192849.6      198.38635      201.66481      208.8226      -11012.34     
   1641000   698.75189     -7192896        198.38635      201.66481      208.8226      -10829.837    
   1642000   699.36583     -7192795.1      198.38635      201.66481      208.8226      -11001.104    
   1643000   698.23763     -7192987.9      198.38635      201.66481      208.8226      -11010.334    
   1644000   701.32101     -7192649        198.38635      201.66481      208.8226      -10961.831    
   1645000   700.72035     -7192591.6      198.38635      201.66481      208.8226      -10844.449    
   1646000   701.04392     -7192710.5      198.38635      201.66481      208.8226      -10895.29     
   1647000   700.27826     -7192786.7      198.38635      201.66481      208.8226      -11010.303    
   1648000   700.55332     -7192681.5      198.38635      201.66481      208.8226      -10981.171    
   1649000   700.16818     -7192705.7      198.38635      201.66481      208.8226      -10922.007    
   1650000   700.84322     -7192779.7      198.38635      201.66481      208.8226      -10994.277    
   1651000   698.59535     -7192828.7      198.38635      201.66481      208.8226      -10968.78     
   1652000   699.21839     -7192975.3      198.38635      201.66481      208.8226      -10868.552    
   1653000   699.83199     -7192830.6      198.38635      201.66481      208.8226      -10991.806    
   1654000   700.34403     -7192729.6      198.38635      201.66481      208.8226      -10931.569    
   1655000   700.78304     -7192609.9      198.38635      201.66481      208.8226      -10860.258    
   1656000   699.78927     -7192880.1      198.38635      201.66481      208.8226      -11045.441    
   1657000   699.72126     -7192749.5      198.38635      201.66481      208.8226      -10896.775    
   1658000   699.06084     -7192810.9      198.38635      201.66481      208.8226      -10975.875    
   1659000   701.68119     -7192596.3      198.38635      201.66481      208.8226      -10844.753    
   1660000   700.28196     -7192728        198.38635      201.66481      208.8226      -10898.009    
   1661000   699.22315     -7192876.6      198.38635      201.66481      208.8226      -10976.107    
   1662000   699.90578     -7192882.8      198.38635      201.66481      208.8226      -10963.48     
   1663000   699.43731     -7192761.9      198.38635      201.66481      208.8226      -10916.1      
   1664000   700.06763     -7192810.5      198.38635      201.66481      208.8226      -10936.049    
   1665000   699.69387     -7192783.9      198.38635      201.66481      208.8226      -11032.111    
   1666000   699.45729     -7192795.1      198.38635      201.66481      208.8226      -11041.125    
   1667000   699.63124     -7192787.7      198.38635      201.66481      208.8226      -11030.665    
   1668000   699.6998      -7192807.2      198.38635      201.66481      208.8226      -10961.185    
   1669000   699.34998     -7192842.8      198.38635      201.66481      208.8226      -10966.604    
   1670000   700.21741     -7192788.6      198.38635      201.66481      208.8226      -10958.669    
   1671000   700.5109      -7192609.6      198.38635      201.66481      208.8226      -10941.738    
   1672000   698.56578     -7192928.9      198.38635      201.66481      208.8226      -10839.739    
   1673000   700.95992     -7192832.2      198.38635      201.66481      208.8226      -10857.075    
   1674000   701.35333     -7192627.9      198.38635      201.66481      208.8226      -11083.174    
   1675000   699.12199     -7192801.8      198.38635      201.66481      208.8226      -10899.055    
   1676000   699.66961     -7192756.5      198.38635      201.66481      208.8226      -10798.271    
   1677000   698.32653     -7192896.5      198.38635      201.66481      208.8226      -11086.117    
   1678000   699.38995     -7192829.3      198.38635      201.66481      208.8226      -11181.936    
   1679000   699.27947     -7192916        198.38635      201.66481      208.8226      -10868.609    
   1680000   700.07649     -7192852        198.38635      201.66481      208.8226      -10780.43     
   1681000   700.21411     -7192822.7      198.38635      201.66481      208.8226      -11152.936    
   1682000   699.95517     -7192751.7      198.38635      201.66481      208.8226      -11167.156    
   1683000   700.47095     -7192850.9      198.38635      201.66481      208.8226      -10936.569    
   1684000   698.54989     -7192830.4      198.38635      201.66481      208.8226      -10998.403    
   1685000   699.22206     -7192832.2      198.38635      201.66481      208.8226      -11064.805    
   1686000   699.22515     -7192808.8      198.38635      201.66481      208.8226      -10972.155    
   1687000   700.04787     -7192947.8      198.38635      201.66481      208.8226      -10916.021    
   1688000   700.46534     -7192588.2      198.38635      201.66481      208.8226      -11123.747    
   1689000   699.88276     -7192851.6      198.38635      201.66481      208.8226      -11035.155    
   1690000   699.88275     -7192842.6      198.38635      201.66481      208.8226      -10902.058    
   1691000   699.94466     -7192752.7      198.38635      201.66481      208.8226      -10919.641    
   1692000   699.02771     -7192819.6      198.38635      201.66481      208.8226      -11049.316    
   1693000   700.94628     -7192657.2      198.38635      201.66481      208.8226      -10922.685    
   1694000   700.17946     -7192735.2      198.38635      201.66481      208.8226      -10875.859    
   1695000   699.47554     -7192833.8      198.38635      201.66481      208.8226      -11155.198    
   1696000   700.3048      -7192738.4      198.38635      201.66481      208.8226      -11036.538    
   1697000   700.23294     -7192740.4      198.38635      201.66481      208.8226      -10772.313    
   1698000   700.06448     -7192824.5      198.38635      201.66481      208.8226      -10883.586    
   1699000   699.43822     -7192802.3      198.38635      201.66481      208.8226      -11146.34     
   1700000   699.89571     -7192884.4      198.38635      201.66481      208.8226      -11088.287    
   1701000   699.10923     -7192947.3      198.38635      201.66481      208.8226      -10967.896    
   1702000   700.71253     -7192781.1      198.38635      201.66481      208.8226      -10935.518    
   1703000   699.64139     -7192745.2      198.38635      201.66481      208.8226      -11031.219    
   1704000   699.85239     -7192756        198.38635      201.66481      208.8226      -10774.157    
   1705000   699.54483     -7192774.1      198.38635      201.66481      208.8226      -10910.984    
   1706000   699.97991     -7192749        198.38635      201.66481      208.8226      -11137.297    
   1707000   699.85741     -7192894.6      198.38635      201.66481      208.8226      -11207.995    
   1708000   700.97794     -7192676.6      198.38635      201.66481      208.8226      -10766.02     
   1709000   700.09505     -7192791.7      198.38635      201.66481      208.8226      -11046.07     
   1710000   700.53387     -7192730.6      198.38635      201.66481      208.8226      -10929.582    
   1711000   699.5932      -7192728        198.38635      201.66481      208.8226      -10771.52     
   1712000   699.75968     -7192875.8      198.38635      201.66481      208.8226      -10795.171    
   1713000   700.81914     -7192696.3      198.38635      201.66481      208.8226      -10988.668    
   1714000   698.72991     -7192881.6      198.38635      201.66481      208.8226      -11252.543    
   1715000   699.31774     -7192824.5      198.38635      201.66481      208.8226      -10807.451    
   1716000   698.2447      -7193054.4      198.38635      201.66481      208.8226      -10847.718    
   1717000   699.83732     -7192723.7      198.38635      201.66481      208.8226      -11052.976    
   1718000   700.6454      -7192770.3      198.38635      201.66481      208.8226      -11011.706    
   1719000   699.81993     -7192719.6      198.38635      201.66481      208.8226      -10859.469    
   1720000   700.42758     -7192722.2      198.38635      201.66481      208.8226      -10935.615    
   1721000   699.2019      -7192832.8      198.38635      201.66481      208.8226      -10968.362    
   1722000   699.72913     -7192747.1      198.38635      201.66481      208.8226      -10857.235    
   1723000   700.36191     -7192775.6      198.38635      201.66481      208.8226      -10942.526    
   1724000   698.94701     -7192939.9      198.38635      201.66481      208.8226      -10895.558    
   1725000   699.31905     -7192889        198.38635      201.66481      208.8226      -10998.718    
   1726000   699.71406     -7192822        198.38635      201.66481      208.8226      -10882.517    
   1727000   699.68182     -7192791.5      198.38635      201.66481      208.8226      -10924.014    
   1728000   701.05788     -7192603.3      198.38635      201.66481      208.8226      -11007.258    
   1729000   699.40005     -7192786.1      198.38635      201.66481      208.8226      -10879.379    
   1730000   699.92222     -7192801.5      198.38635      201.66481      208.8226      -10874.686    
   1731000   699.77774     -7192716.4      198.38635      201.66481      208.8226      -10951.575    
   1732000   700.44427     -7192758.3      198.38635      201.66481      208.8226      -10968.197    
   1733000   699.44177     -7192757        198.38635      201.66481      208.8226      -10854.63     
   1734000   699.46808     -7192720.6      198.38635      201.66481      208.8226      -10869.081    
   1735000   700.1018      -7192805.2      198.38635      201.66481      208.8226      -10975.453    
   1736000   700.05841     -7192728.5      198.38635      201.66481      208.8226      -10992.581    
   1737000   700.34147     -7192705.2      198.38635      201.66481      208.8226      -10890.614    
   1738000   699.57126     -7192863.6      198.38635      201.66481      208.8226      -10924.911    
   1739000   699.21805     -7192697.3      198.38635      201.66481      208.8226      -10986.244    
   1740000   701.37567     -7192698.6      198.38635      201.66481      208.8226      -11062.272    
   1741000   700.06677     -7192821.1      198.38635      201.66481      208.8226      -10949.729    
   1742000   699.73455     -7192762.8      198.38635      201.66481      208.8226      -10927.85     
   1743000   700.64333     -7192718        198.38635      201.66481      208.8226      -10964.707    
   1744000   698.80376     -7192809.7      198.38635      201.66481      208.8226      -10841.485    
   1745000   700.16952     -7192762.7      198.38635      201.66481      208.8226      -10895.599    
   1746000   699.95285     -7192648.2      198.38635      201.66481      208.8226      -11042.743    
   1747000   701.07014     -7192704.8      198.38635      201.66481      208.8226      -11024.381    
   1748000   701.07727     -7192640.4      198.38635      201.66481      208.8226      -10777.521    
   1749000   698.22889     -7192907.8      198.38635      201.66481      208.8226      -10995.251    
   1750000   699.31863     -7192754.2      198.38635      201.66481      208.8226      -11175.4      
   1751000   699.68675     -7192833.7      198.38635      201.66481      208.8226      -10799.902    
   1752000   700.09083     -7192900.4      198.38635      201.66481      208.8226      -10917.366    
   1753000   700.05127     -7192738.2      198.38635      201.66481      208.8226      -10985.622    
   1754000   699.90093     -7192706.6      198.38635      201.66481      208.8226      -11013.041    
   1755000   700.2037      -7192770        198.38635      201.66481      208.8226      -10785.795    
   1756000   700.84152     -7192788.1      198.38635      201.66481      208.8226      -10881.405    
   1757000   700.42256     -7192704.4      198.38635      201.66481      208.8226      -11077.347    
   1758000   699.68945     -7192798.1      198.38635      201.66481      208.8226      -10979.66     
   1759000   700.2208      -7192820.2      198.38635      201.66481      208.8226      -10804.246    
   1760000   700.03502     -7192707.7      198.38635      201.66481      208.8226      -10969.154    
   1761000   701.58406     -7192666.9      198.38635      201.66481      208.8226      -11089.52     
   1762000   699.77495     -7192855.4      198.38635      201.66481      208.8226      -10787.749    
   1763000   699.38646     -7192849.1      198.38635      201.66481      208.8226      -10993.03     
   1764000   699.27502     -7192819.6      198.38635      201.66481      208.8226      -11069.906    
   1765000   700.96424     -7192671.1      198.38635      201.66481      208.8226      -10802.965    
   1766000   698.91686     -7192855.4      198.38635      201.66481      208.8226      -10959.851    
   1767000   699.79428     -7192767.3      198.38635      201.66481      208.8226      -11017.721    
   1768000   699.54988     -7192874.6      198.38635      201.66481      208.8226      -11062.314    
   1769000   700.32429     -7192718.5      198.38635      201.66481      208.8226      -10880.322    
   1770000   699.81759     -7192885.3      198.38635      201.66481      208.8226      -11014.05     
   1771000   698.93612     -7192819.6      198.38635      201.66481      208.8226      -11011.826    
   1772000   700.20322     -7192827.8      198.38635      201.66481      208.8226      -10899.123    
   1773000   699.24295     -7192766.4      198.38635      201.66481      208.8226      -10842.921    
   1774000   700.74437     -7192769        198.38635      201.66481      208.8226      -11092.823    
   1775000   700.65873     -7192672.9      198.38635      201.66481      208.8226      -10982.27     
   1776000   699.85338     -7192718.2      198.38635      201.66481      208.8226      -10985.022    
   1777000   699.85253     -7192703.1      198.38635      201.66481      208.8226      -10962.012    
   1778000   699.96864     -7192752.7      198.38635      201.66481      208.8226      -10949.189    
   1779000   701.22802     -7192705.4      198.38635      201.66481      208.8226      -10951.219    
   1780000   700.72972     -7192659.5      198.38635      201.66481      208.8226      -10882.486    
   1781000   699.81034     -7192719.8      198.38635      201.66481      208.8226      -11027.907    
   1782000   699.7267      -7192882.6      198.38635      201.66481      208.8226      -11048.496    
   1783000   700.04636     -7192744.7      198.38635      201.66481      208.8226      -10987.663    
   1784000   699.55333     -7192763.8      198.38635      201.66481      208.8226      -11041.867    
   1785000   700.58456     -7192667.1      198.38635      201.66481      208.8226      -10992.559    
   1786000   700.69114     -7192755        198.38635      201.66481      208.8226      -10804.048    
   1787000   700.14135     -7192799.4      198.38635      201.66481      208.8226      -10986.904    
   1788000   699.82892     -7192815.4      198.38635      201.66481      208.8226      -10990.906    
   1789000   699.65315     -7192824.8      198.38635      201.66481      208.8226      -10883.807    
   1790000   700.08703     -7192707.5      198.38635      201.66481      208.8226      -10890.225    
   1791000   700.79397     -7192785.4      198.38635      201.66481      208.8226      -10942.414    
   1792000   700.21022     -7192763.7      198.38635      201.66481      208.8226      -10950.023    
   1793000   698.91031     -7192940.2      198.38635      201.66481      208.8226      -10976.246    
   1794000   700.23878     -7192761.1      198.38635      201.66481      208.8226      -10930.081    
   1795000   699.64469     -7192762.4      198.38635      201.66481      208.8226      -11126.051    
   1796000   699.8571      -7192911.2      198.38635      201.66481      208.8226      -10964.449    
   1797000   700.01882     -7192862.3      198.38635      201.66481      208.8226      -10878.714    
   1798000   699.90469     -7192744.9      198.38635      201.66481      208.8226      -10905.26     
   1799000   700.43936     -7192844.6      198.38635      201.66481      208.8226      -10954.134    
   1800000   700.45841     -7192915.6      198.38635      201.66481      208.8226      -10954.548    
   1801000   700.70783     -7192774.5      198.38635      201.66481      208.8226      -10935.625    
   1802000   700.10156     -7192641        198.38635      201.66481      208.8226      -10957.01     
   1803000   700.26593     -7192625.9      198.38635      201.66481      208.8226      -10783.526    
   1804000   700.73039     -7192883.6      198.38635      201.66481      208.8226      -10939.627    
   1805000   700.81503     -7192653        198.38635      201.66481      208.8226      -11034.237    
   1806000   699.33398     -7192883.6      198.38635      201.66481      208.8226      -11084.268    
   1807000   699.35671     -7192919.7      198.38635      201.66481      208.8226      -10978.554    
   1808000   700.52191     -7192800.7      198.38635      201.66481      208.8226      -11004.884    
   1809000   699.69529     -7192769.8      198.38635      201.66481      208.8226      -11125.48     
   1810000   700.15988     -7192769        198.38635      201.66481      208.8226      -10863.736    
   1811000   699.80379     -7192930        198.38635      201.66481      208.8226      -10989.353    
   1812000   698.83861     -7192953.4      198.38635      201.66481      208.8226      -11185.414    
   1813000   701.65546     -7192647.6      198.38635      201.66481      208.8226      -10949.126    
   1814000   699.9901      -7192687        198.38635      201.66481      208.8226      -10981.261    
   1815000   700.83375     -7192688.8      198.38635      201.66481      208.8226      -10850.483    
   1816000   699.01359     -7192873.2      198.38635      201.66481      208.8226      -11078.512    
   1817000   699.78923     -7192778.9      198.38635      201.66481      208.8226      -11064.962    
   1818000   700.30439     -7192836.9      198.38635      201.66481      208.8226      -10850.124    
   1819000   700.33225     -7192822.4      198.38635      201.66481      208.8226      -10974.643    
   1820000   699.25974     -7192742.4      198.38635      201.66481      208.8226      -10998.364    
   1821000   699.4522      -7192802.2      198.38635      201.66481      208.8226      -11208.633    
   1822000   700.25132     -7192748.5      198.38635      201.66481      208.8226      -10905.461    
   1823000   700.77853     -7192759.2      198.38635      201.66481      208.8226      -11034.948    
   1824000   699.95945     -7192763.4      198.38635      201.66481      208.8226      -11074.935    
   1825000   700.42879     -7192678.7      198.38635      201.66481      208.8226      -10907.649    
   1826000   699.64294     -7192878.1      198.38635      201.66481      208.8226      -10956.84     
   1827000   700.52346     -7192708.7      198.38635      201.66481      208.8226      -11032.858    
   1828000   699.25356     -7192957.1      198.38635      201.66481      208.8226      -11124.905    
   1829000   699.45158     -7192854.3      198.38635      201.66481      208.8226      -10912.411    
   1830000   699.72933     -7192765.3      198.38635      201.66481      208.8226      -10909.46     
   1831000   700.51283     -7192654.4      198.38635      201.66481      208.8226      -11063.738    
   1832000   699.31837     -7192801.3      198.38635      201.66481      208.8226      -11090.446    
   1833000   699.51964     -7192822.9      198.38635      201.66481      208.8226      -10959.368    
   1834000   699.65851     -7192849.5      198.38635      201.66481      208.8226      -10981.737    
   1835000   699.79692     -7192849        198.38635      201.66481      208.8226      -10980.005    
   1836000   701.65214     -7192602.3      198.38635      201.66481      208.8226      -10994.521    
   1837000   700.81549     -7192698.5      198.38635      201.66481      208.8226      -11052.502    
   1838000   701.20203     -7192704.9      198.38635      201.66481      208.8226      -11085.261    
   1839000   700.92384     -7192763.7      198.38635      201.66481      208.8226      -10924.03     
   1840000   700.6049      -7192769.5      198.38635      201.66481      208.8226      -10972.984    
   1841000   699.32344     -7192938.9      198.38635      201.66481      208.8226      -11085.825    
   1842000   700.84423     -7192652.8      198.38635      201.66481      208.8226      -10948.2      
   1843000   699.98719     -7192796.7      198.38635      201.66481      208.8226      -10968.756    
   1844000   700.41443     -7192726        198.38635      201.66481      208.8226      -10955.83     
   1845000   699.00374     -7192918.6      198.38635      201.66481      208.8226      -10909.593    
   1846000   699.14514     -7192824        198.38635      201.66481      208.8226      -10906.169    
   1847000   700.2467      -7192810.4      198.38635      201.66481      208.8226      -10899.401    
   1848000   699.19128     -7192795.5      198.38635      201.66481      208.8226      -11080.22     
   1849000   699.85919     -7192854.1      198.38635      201.66481      208.8226      -11057.97     
   1850000   699.49599     -7192817.3      198.38635      201.66481      208.8226      -10950.847    
   1851000   699.25267     -7192879.2      198.38635      201.66481      208.8226      -10943.534    
   1852000   699.34468     -7192885.2      198.38635      201.66481      208.8226      -11028.606    
   1853000   699.17736     -7192849.8      198.38635      201.66481      208.8226      -11080.847    
   1854000   699.73815     -7192855.9      198.38635      201.66481      208.8226      -10934.601    
   1855000   701.0327      -7192714.9      198.38635      201.66481      208.8226      -11098.312    
   1856000   699.31749     -7192949.9      198.38635      201.66481      208.8226      -11046.762    
   1857000   700.00525     -7192796.4      198.38635      201.66481      208.8226      -10833.891    
   1858000   699.59204     -7192769.1      198.38635      201.66481      208.8226      -10938.308    
   1859000   699.40928     -7192937.6      198.38635      201.66481      208.8226      -11248.287    
   1860000   699.88675     -7192783.3      198.38635      201.66481      208.8226      -10874.196    
   1861000   699.59484     -7192850.6      198.38635      201.66481      208.8226      -10963.955    
   1862000   699.47749     -7192833.5      198.38635      201.66481      208.8226      -11067.777    
   1863000   699.41844     -7192774.7      198.38635      201.66481      208.8226      -11082.896    
   1864000   699.96722     -7192855.7      198.38635      201.66481      208.8226      -10937.991    
   1865000   699.44928     -7192798        198.38635      201.66481      208.8226      -10960.3      
   1866000   699.88532     -7192805.4      198.38635      201.66481      208.8226      -11081.823    
   1867000   700.93615     -7192667.7      198.38635      201.66481      208.8226      -10856.575    
   1868000   700.80988     -7192648.8      198.38635      201.66481      208.8226      -10870.215    
   1869000   699.88334     -7192854.6      198.38635      201.66481      208.8226      -11195.441    
   1870000   700.61476     -7192760.4      198.38635      201.66481      208.8226      -10968.825    
   1871000   700.58918     -7192737.1      198.38635      201.66481      208.8226      -10866.754    
   1872000   700.64666     -7192697.4      198.38635      201.66481      208.8226      -11078.919    
   1873000   698.45565     -7192782.2      198.38635      201.66481      208.8226      -10964.421    
   1874000   700.10323     -7192779.8      198.38635      201.66481      208.8226      -10931.009    
   1875000   699.55094     -7192831        198.38635      201.66481      208.8226      -10855.821    
   1876000   699.6887      -7192837.2      198.38635      201.66481      208.8226      -11028.765    
   1877000   698.58734     -7192931.9      198.38635      201.66481      208.8226      -10835.497    
   1878000   699.57278     -7192892.2      198.38635      201.66481      208.8226      -10963.415    
   1879000   700.47272     -7192779.9      198.38635      201.66481      208.8226      -10950.854    
   1880000   700.72848     -7192718.8      198.38635      201.66481      208.8226      -11031.669    
   1881000   699.24983     -7192910.3      198.38635      201.66481      208.8226      -10950.859    
   1882000   699.88135     -7192753.3      198.38635      201.66481      208.8226      -10922.063    
   1883000   700.79093     -7192811.3      198.38635      201.66481      208.8226      -11081.611    
   1884000   699.9726      -7192824.3      198.38635      201.66481      208.8226      -11016.367    
   1885000   700.25855     -7192899.2      198.38635      201.66481      208.8226      -10833.751    
   1886000   699.44531     -7192873.5      198.38635      201.66481      208.8226      -11188.596    
   1887000   699.99211     -7192839.6      198.38635      201.66481      208.8226      -11081.32     
   1888000   699.69581     -7192720.1      198.38635      201.66481      208.8226      -10835.09     
   1889000   699.11235     -7192890.9      198.38635      201.66481      208.8226      -10806.146    
   1890000   700.89936     -7192717.3      198.38635      201.66481      208.8226      -11071.977    
   1891000   699.52902     -7192859.4      198.38635      201.66481      208.8226      -10826.218    
   1892000   701.41919     -7192742.6      198.38635      201.66481      208.8226      -10800.632    
   1893000   699.40584     -7192881.3      198.38635      201.66481      208.8226      -10972.302    
   1894000   699.06512     -7192741.6      198.38635      201.66481      208.8226      -11004.469    
   1895000   699.05764     -7192940.7      198.38635      201.66481      208.8226      -10922.742    
   1896000   699.19946     -7192870.2      198.38635      201.66481      208.8226      -10909.03     
   1897000   700.27145     -7192692        198.38635      201.66481      208.8226      -10949.193    
   1898000   699.27965     -7192759.2      198.38635      201.66481      208.8226      -10871.255    
   1899000   700.91985     -7192814.9      198.38635      201.66481      208.8226      -10929.904    
   1900000   700.43579     -7192668.9      198.38635      201.66481      208.8226      -10933.886    
   1901000   700.52754     -7192700.4      198.38635      201.66481      208.8226      -11120.909    
   1902000   700.62362     -7192805.2      198.38635      201.66481      208.8226      -10983.183    
   1903000   699.40516     -7192979.5      198.38635      201.66481      208.8226      -10902.553    
   1904000   700.05968     -7192884.4      198.38635      201.66481      208.8226      -11063.698    
   1905000   701.25087     -7192731.3      198.38635      201.66481      208.8226      -11015.466    
   1906000   699.8947      -7192911.5      198.38635      201.66481      208.8226      -10955.332    
   1907000   700.04438     -7192834.3      198.38635      201.66481      208.8226      -10864.739    
   1908000   700.99298     -7192719.4      198.38635      201.66481      208.8226      -11016.613    
   1909000   700.08932     -7192710.3      198.38635      201.66481      208.8226      -11086.752    
   1910000   699.5039      -7192841.2      198.38635      201.66481      208.8226      -10894.416    
   1911000   699.42495     -7192855.5      198.38635      201.66481      208.8226      -11035.717    
   1912000   700.20792     -7192766.1      198.38635      201.66481      208.8226      -11000.973    
   1913000   699.80732     -7192829.4      198.38635      201.66481      208.8226      -10894.929    
   1914000   700.60076     -7192814.9      198.38635      201.66481      208.8226      -10905.443    
   1915000   698.6142      -7192958.1      198.38635      201.66481      208.8226      -11010.603    
   1916000   700.57654     -7192608.2      198.38635      201.66481      208.8226      -10944.321    
   1917000   700.28864     -7192778.6      198.38635      201.66481      208.8226      -10933.755    
   1918000   700.16083     -7192776.8      198.38635      201.66481      208.8226      -11011.522    
   1919000   699.58332     -7192843        198.38635      201.66481      208.8226      -10948.755    
   1920000   700.06134     -7192872.7      198.38635      201.66481      208.8226      -10888.195    
   1921000   699.03891     -7192940.4      198.38635      201.66481      208.8226      -10955.705    
   1922000   700.85755     -7192734.1      198.38635      201.66481      208.8226      -11086.143    
   1923000   700.16999     -7192830.6      198.38635      201.66481      208.8226      -10961.223    
   1924000   700.55748     -7192847.5      198.38635      201.66481      208.8226      -10962.523    
   1925000   699.76408     -7192928.7      198.38635      201.66481      208.8226      -11044.854    
   1926000   699.07945     -7192904.1      198.38635      201.66481      208.8226      -10817.58     
   1927000   699.74573     -7192761.4      198.38635      201.66481      208.8226      -10927.6      
   1928000   700.26587     -7192637.6      198.38635      201.66481      208.8226      -10940.488    
   1929000   699.81464     -7192797.6      198.38635      201.66481      208.8226      -10790.619    
   1930000   700.89458     -7192863.8      198.38635      201.66481      208.8226      -10983.068    
   1931000   701.2399      -7192747.9      198.38635      201.66481      208.8226      -10876.366    
   1932000   699.1796      -7192773.2      198.38635      201.66481      208.8226      -11036.737    
   1933000   701.20752     -7192724.9      198.38635      201.66481      208.8226      -11083.221    
   1934000   700.37296     -7192775.6      198.38635      201.66481      208.8226      -10858.009    
   1935000   698.87804     -7192856.5      198.38635      201.66481      208.8226      -11042.2      
   1936000   700.16482     -7192754.2      198.38635      201.66481      208.8226      -11064.409    
   1937000   699.71827     -7192852.1      198.38635      201.66481      208.8226      -11010.445    
   1938000   699.91212     -7192849.8      198.38635      201.66481      208.8226      -10967.639    
   1939000   699.10349     -7192825.9      198.38635      201.66481      208.8226      -11055.052    
   1940000   700.15067     -7192792        198.38635      201.66481      208.8226      -11147.616    
   1941000   700.53079     -7192754.9      198.38635      201.66481      208.8226      -10940.085    
   1942000   699.63617     -7192840.7      198.38635      201.66481      208.8226      -11019.214    
   1943000   700.73156     -7192801.5      198.38635      201.66481      208.8226      -11136.428    
   1944000   699.39806     -7192887        198.38635      201.66481      208.8226      -10878.447    
   1945000   698.77614     -7192867.3      198.38635      201.66481      208.8226      -10856.055    
   1946000   699.86241     -7192709.3      198.38635      201.66481      208.8226      -10937.867    
   1947000   700.27522     -7192700        198.38635      201.66481      208.8226      -10931.878    
   1948000   700.67543     -7192874.2      198.38635      201.66481      208.8226      -10853.194    
   1949000   700.54073     -7192865.5      198.38635      201.66481      208.8226      -11100.101    
   1950000   698.92469     -7192855.4      198.38635      201.66481      208.8226      -11030.676    
   1951000   700.1235      -7192817.9      198.38635      201.66481      208.8226      -11087.214    
   1952000   700.53974     -7192889.8      198.38635      201.66481      208.8226      -11081.783    
   1953000   699.75588     -7192870.6      198.38635      201.66481      208.8226      -11136.708    
   1954000   699.57211     -7192874.5      198.38635      201.66481      208.8226      -10950.74     
   1955000   699.95396     -7192821.8      198.38635      201.66481      208.8226      -10921.078    
   1956000   699.45686     -7192843.4      198.38635      201.66481      208.8226      -10960.728    
   1957000   699.93307     -7192652.5      198.38635      201.66481      208.8226      -10994.449    
   1958000   699.18817     -7192960.4      198.38635      201.66481      208.8226      -10946.979    
   1959000   698.09065     -7192918.1      198.38635      201.66481      208.8226      -10994.449    
   1960000   700.48273     -7192782.3      198.38635      201.66481      208.8226      -11126.76     
   1961000   699.27911     -7192872.4      198.38635      201.66481      208.8226      -11095.188    
   1962000   699.77666     -7192851.3      198.38635      201.66481      208.8226      -10884.683    
   1963000   698.71239     -7192814.3      198.38635      201.66481      208.8226      -10777.89     
   1964000   699.19778     -7192884.8      198.38635      201.66481      208.8226      -11163.214    
   1965000   698.46132     -7192931.5      198.38635      201.66481      208.8226      -10965.012    
   1966000   701.48106     -7192749.4      198.38635      201.66481      208.8226      -10876.808    
   1967000   699.1697      -7192862.5      198.38635      201.66481      208.8226      -10889.642    
   1968000   699.21422     -7192882.1      198.38635      201.66481      208.8226      -11077.1      
   1969000   699.8387      -7192866.7      198.38635      201.66481      208.8226      -10977.693    
   1970000   698.73288     -7192965.7      198.38635      201.66481      208.8226      -10929.921    
   1971000   699.35        -7192864.3      198.38635      201.66481      208.8226      -11057.151    
   1972000   700.09852     -7192696.9      198.38635      201.66481      208.8226      -10995.836    
   1973000   700.36271     -7192809.2      198.38635      201.66481      208.8226      -10671.752    
   1974000   700.80568     -7192782.8      198.38635      201.66481      208.8226      -10812.628    
   1975000   700.87207     -7192741.1      198.38635      201.66481      208.8226      -11121.136    
   1976000   701.55472     -7192612.3      198.38635      201.66481      208.8226      -11151.525    
   1977000   699.59355     -7192841.8      198.38635      201.66481      208.8226      -10823.857    
   1978000   700.49194     -7192895.1      198.38635      201.66481      208.8226      -11049.739    
   1979000   699.07225     -7192835.6      198.38635      201.66481      208.8226      -11025.985    
   1980000   700.85725     -7192791.6      198.38635      201.66481      208.8226      -10842.808    
   1981000   699.87785     -7192866.2      198.38635      201.66481      208.8226      -10923.93     
   1982000   699.32484     -7192820.1      198.38635      201.66481      208.8226      -11080.74     
   1983000   699.86027     -7192815.1      198.38635      201.66481      208.8226      -11247.955    
   1984000   700.33898     -7192791.4      198.38635      201.66481      208.8226      -10941.153    
   1985000   699.7806      -7192872.7      198.38635      201.66481      208.8226      -10942.343    
   1986000   699.35653     -7192770.7      198.38635      201.66481      208.8226      -11038.982    
   1987000   699.91203     -7192868.5      198.38635      201.66481      208.8226      -10985.178    
   1988000   699.26063     -7192834.6      198.38635      201.66481      208.8226      -10723.938    
   1989000   699.89013     -7192794.1      198.38635      201.66481      208.8226      -11120.922    
   1990000   700.09115     -7192889.4      198.38635      201.66481      208.8226      -11066.773    
   1991000   699.6764      -7192850        198.38635      201.66481      208.8226      -10918.231    
   1992000   699.71083     -7192964.9      198.38635      201.66481      208.8226      -10991.666    
   1993000   699.54643     -7192764.5      198.38635      201.66481      208.8226      -11027.499    
   1994000   701.12776     -7192666.1      198.38635      201.66481      208.8226      -10937.19     
   1995000   699.72514     -7192893.9      198.38635      201.66481      208.8226      -10834.86     
   1996000   699.52835     -7192936.4      198.38635      201.66481      208.8226      -11222.606    
   1997000   700.40672     -7192738.3      198.38635      201.66481      208.8226      -11200.321    
   1998000   699.69736     -7192851.9      198.38635      201.66481      208.8226      -10995.14     
   1999000   699.28558     -7192970.2      198.38635      201.66481      208.8226      -10787.519    
   2000000   699.02147     -7192919.8      198.38635      201.66481      208.8226      -10979.293    
   2001000   699.60552     -7192757.2      198.38635      201.66481      208.8226      -10892.257    
   2002000   701.56542     -7192670.6      198.38635      201.66481      208.8226      -10832.635    
   2003000   699.82825     -7192842.8      198.38635      201.66481      208.8226      -11044.599    
   2004000   701.49271     -7192592.3      198.38635      201.66481      208.8226      -10972.692    
   2005000   700.006       -7192668.1      198.38635      201.66481      208.8226      -10877.672    
   2006000   699.9417      -7192862        198.38635      201.66481      208.8226      -10936.245    
   2007000   699.57116     -7192882.5      198.38635      201.66481      208.8226      -11057.035    
   2008000   699.81667     -7192842        198.38635      201.66481      208.8226      -10970.042    
   2009000   699.59413     -7192861.6      198.38635      201.66481      208.8226      -10794.67     
   2010000   699.31543     -7192900.6      198.38635      201.66481      208.8226      -10837.906    
   2011000   699.69982     -7192777.4      198.38635      201.66481      208.8226      -11099.722    
   2012000   700.91542     -7192640.1      198.38635      201.66481      208.8226      -10934.821    
   2013000   698.32848     -7193044.7      198.38635      201.66481      208.8226      -10820.996    
   2014000   700.18685     -7192816.6      198.38635      201.66481      208.8226      -10969.935    
   2015000   700.77618     -7192691        198.38635      201.66481      208.8226      -10944.608    
   2016000   700.5327      -7192932.8      198.38635      201.66481      208.8226      -10792.749    
   2017000   698.33382     -7192987.7      198.38635      201.66481      208.8226      -10955.826    
   2018000   699.67385     -7192820        198.38635      201.66481      208.8226      -11083.136    
   2019000   699.72929     -7192769.4      198.38635      201.66481      208.8226      -10954.584    
   2020000   700.8673      -7192693.6      198.38635      201.66481      208.8226      -10855.017    
   2021000   700.42298     -7192918.1      198.38635      201.66481      208.8226      -11019.603    
   2022000   698.85853     -7192934.8      198.38635      201.66481      208.8226      -11123.971    
   2023000   701.17909     -7192728        198.38635      201.66481      208.8226      -10855.93     
   2024000   699.54539     -7192943.2      198.38635      201.66481      208.8226      -10915.718    
   2025000   699.81472     -7192936.3      198.38635      201.66481      208.8226      -11090.9      
   2026000   698.90706     -7192829.4      198.38635      201.66481      208.8226      -11093.786    
   2027000   701.33363     -7192815.5      198.38635      201.66481      208.8226      -10787.464    
   2028000   698.90615     -7192990        198.38635      201.66481      208.8226      -10852.268    
   2029000   699.18756     -7192839        198.38635      201.66481      208.8226      -11064.708    
   2030000   700.10661     -7192848.3      198.38635      201.66481      208.8226      -11004.893    
   2031000   699.79747     -7192807.1      198.38635      201.66481      208.8226      -10841.508    
   2032000   700.28957     -7192809.1      198.38635      201.66481      208.8226      -11124.651    
   2033000   700.89961     -7192706.2      198.38635      201.66481      208.8226      -11037.536    
   2034000   700.0112      -7192893.7      198.38635      201.66481      208.8226      -10953.517    
   2035000   699.46988     -7192853        198.38635      201.66481      208.8226      -10762.336    
   2036000   699.63124     -7192900.7      198.38635      201.66481      208.8226      -11104.59     
   2037000   700.11421     -7192885.2      198.38635      201.66481      208.8226      -10915.26     
   2038000   699.85494     -7192909.2      198.38635      201.66481      208.8226      -10886.649    
   2039000   699.79154     -7192823.3      198.38635      201.66481      208.8226      -10993.409    
   2040000   700.50016     -7192712.6      198.38635      201.66481      208.8226      -11213.446    
   2041000   700.56642     -7192869.4      198.38635      201.66481      208.8226      -10802.417    
   2042000   700.72252     -7192824.5      198.38635      201.66481      208.8226      -10895.534    
   2043000   699.91929     -7192798.9      198.38635      201.66481      208.8226      -11077.016    
   2044000   700.17316     -7192791.3      198.38635      201.66481      208.8226      -11074.246    
   2045000   699.31483     -7192854.2      198.38635      201.66481      208.8226      -10875.364    
   2046000   700.54984     -7192675.1      198.38635      201.66481      208.8226      -11113.833    
   2047000   699.03088     -7192926.7      198.38635      201.66481      208.8226      -11136.253    
   2048000   700.20406     -7192784.9      198.38635      201.66481      208.8226      -10909.352    
   2049000   699.83039     -7192865.6      198.38635      201.66481      208.8226      -10845.502    
   2050000   698.61013     -7192765.1      198.38635      201.66481      208.8226      -11093.747    
   2051000   700.00982     -7192882.7      198.38635      201.66481      208.8226      -10957.072    
   2052000   700.36708     -7192743.9      198.38635      201.66481      208.8226      -10834.023    
   2053000   700.90372     -7192773.7      198.38635      201.66481      208.8226      -11060.946    
   2054000   699.76415     -7192813.9      198.38635      201.66481      208.8226      -11102.884    
   2055000   698.76757     -7192949        198.38635      201.66481      208.8226      -10877.402    
   2056000   701.61776     -7192762.4      198.38635      201.66481      208.8226      -10910.61     
   2057000   699.55312     -7192908.8      198.38635      201.66481      208.8226      -11019.955    
   2058000   700.28588     -7192916.2      198.38635      201.66481      208.8226      -11007.416    
   2059000   699.6188      -7192876.3      198.38635      201.66481      208.8226      -10987.661    
   2060000   701.02343     -7192691        198.38635      201.66481      208.8226      -10940.519    
   2061000   699.51203     -7192868.7      198.38635      201.66481      208.8226      -11073.089    
   2062000   699.70769     -7192893.2      198.38635      201.66481      208.8226      -10873.271    
   2063000   699.96633     -7192938        198.38635      201.66481      208.8226      -10827.359    
   2064000   699.91376     -7192917.8      198.38635      201.66481      208.8226      -11010.732    
   2065000   699.17014     -7192812.2      198.38635      201.66481      208.8226      -11096.794    
   2066000   699.13144     -7192898.9      198.38635      201.66481      208.8226      -10896.848    
   2067000   699.28964     -7192857.3      198.38635      201.66481      208.8226      -10950.455    
   2068000   699.16442     -7192928.2      198.38635      201.66481      208.8226      -11174.391    
   2069000   699.68287     -7192813.9      198.38635      201.66481      208.8226      -10965.884    
   2070000   700.31932     -7192781.8      198.38635      201.66481      208.8226      -10884.494    
   2071000   700.65587     -7192758.7      198.38635      201.66481      208.8226      -10920.109    
   2072000   699.89287     -7192899.6      198.38635      201.66481      208.8226      -11150.18     
   2073000   700.30923     -7192847.4      198.38635      201.66481      208.8226      -10935.526    
   2074000   699.82315     -7192805.8      198.38635      201.66481      208.8226      -10937.866    
   2075000   700.72624     -7192844.6      198.38635      201.66481      208.8226      -11170.543    
   2076000   699.72642     -7192879.7      198.38635      201.66481      208.8226      -11088.058    
   2077000   699.45785     -7192826        198.38635      201.66481      208.8226      -10882.647    
   2078000   699.28457     -7192946.4      198.38635      201.66481      208.8226      -10951.657    
   2079000   700.13696     -7192805.7      198.38635      201.66481      208.8226      -10922.956    
   2080000   700.48163     -7192765        198.38635      201.66481      208.8226      -10796.284    
   2081000   699.35621     -7192808.5      198.38635      201.66481      208.8226      -10933.582    
   2082000   699.94969     -7192839.6      198.38635      201.66481      208.8226      -11129.427    
   2083000   700.24501     -7192916.3      198.38635      201.66481      208.8226      -11025.294    
   2084000   699.23173     -7192826.6      198.38635      201.66481      208.8226      -11013.867    
   2085000   699.9428      -7192763.1      198.38635      201.66481      208.8226      -11052.863    
   2086000   699.14989     -7192840.5      198.38635      201.66481      208.8226      -10941.366    
   2087000   700.39713     -7192694.3      198.38635      201.66481      208.8226      -10858.471    
   2088000   698.56375     -7192889.8      198.38635      201.66481      208.8226      -11037.537    
   2089000   699.7075      -7192705.2      198.38635      201.66481      208.8226      -10942.238    
   2090000   699.83345     -7192793.5      198.38635      201.66481      208.8226      -11023.137    
   2091000   698.61081     -7192946.8      198.38635      201.66481      208.8226      -10983.887    
   2092000   699.80851     -7192802.1      198.38635      201.66481      208.8226      -10925.763    
   2093000   700.59359     -7192684.9      198.38635      201.66481      208.8226      -10893.777    
   2094000   700.33954     -7192923.8      198.38635      201.66481      208.8226      -10939.514    
   2095000   700.07715     -7192872.6      198.38635      201.66481      208.8226      -10911.142    
   2096000   699.80302     -7192778.5      198.38635      201.66481      208.8226      -11169.837    
   2097000   700.36967     -7192880.6      198.38635      201.66481      208.8226      -10996.641    
   2098000   701.38827     -7192650.4      198.38635      201.66481      208.8226      -10806.415    
   2099000   699.92965     -7192808.1      198.38635      201.66481      208.8226      -11052.672    
   2100000   699.6749      -7192801.9      198.38635      201.66481      208.8226      -10949.253    
   2101000   700.48086     -7192839.4      198.38635      201.66481      208.8226      -10827.215    
   2102000   699.62583     -7192973.8      198.38635      201.66481      208.8226      -10924.425    
   2103000   698.82881     -7192902.9      198.38635      201.66481      208.8226      -11053.435    
   2104000   699.6176      -7192935        198.38635      201.66481      208.8226      -11095.988    
   2105000   700.86226     -7192753.9      198.38635      201.66481      208.8226      -10962.31     
   2106000   699.36606     -7192925.3      198.38635      201.66481      208.8226      -11104.152    
   2107000   699.21009     -7192842.5      198.38635      201.66481      208.8226      -10923.786    
   2108000   699.93422     -7192810.3      198.38635      201.66481      208.8226      -10964.724    
   2109000   700.11201     -7192828.1      198.38635      201.66481      208.8226      -10943.766    
   2110000   699.55998     -7192881.4      198.38635      201.66481      208.8226      -11050.134    
   2111000   699.14616     -7192946.4      198.38635      201.66481      208.8226      -10915.645    
   2112000   699.55629     -7192869.9      198.38635      201.66481      208.8226      -10823.435    
   2113000   700.248       -7192786.8      198.38635      201.66481      208.8226      -11093.02     
   2114000   700.61592     -7192768.7      198.38635      201.66481      208.8226      -11181.58     
   2115000   699.84584     -7192996.2      198.38635      201.66481      208.8226      -10911.321    
   2116000   701.80748     -7192664.7      198.38635      201.66481      208.8226      -10964.346    
   2117000   701.36101     -7192674.1      198.38635      201.66481      208.8226      -11065.705    
   2118000   699.9563      -7192827.2      198.38635      201.66481      208.8226      -11091.361    
   2119000   700.66928     -7192686.2      198.38635      201.66481      208.8226      -10868.192    
   2120000   700.7179      -7192793.1      198.38635      201.66481      208.8226      -10984.156    
   2121000   700.33943     -7192845.5      198.38635      201.66481      208.8226      -11037.61     
   2122000   700.73224     -7192824.5      198.38635      201.66481      208.8226      -10962.914    
   2123000   699.71358     -7192905.4      198.38635      201.66481      208.8226      -10993.898    
   2124000   700.06014     -7192767.7      198.38635      201.66481      208.8226      -11043.102    
   2125000   699.25641     -7192931.3      198.38635      201.66481      208.8226      -10881.518    
   2126000   700.52941     -7192849.3      198.38635      201.66481      208.8226      -10864.876    
   2127000   699.29766     -7192947.5      198.38635      201.66481      208.8226      -11081.975    
   2128000   698.88001     -7192918.5      198.38635      201.66481      208.8226      -10954.798    
   2129000   699.78877     -7192969.6      198.38635      201.66481      208.8226      -10819.592    
   2130000   700.98911     -7192767.1      198.38635      201.66481      208.8226      -11035.439    
   2131000   699.6722      -7192753.6      198.38635      201.66481      208.8226      -10994.159    
   2132000   700.06711     -7192824.2      198.38635      201.66481      208.8226      -10844.546    
   2133000   700.0829      -7192798.3      198.38635      201.66481      208.8226      -10942.388    
   2134000   702.23464     -7192563.7      198.38635      201.66481      208.8226      -11090.254    
   2135000   701.20175     -7192711.8      198.38635      201.66481      208.8226      -11002.612    
   2136000   701.109       -7192698.8      198.38635      201.66481      208.8226      -10909.684    
   2137000   700.5859      -7192824.7      198.38635      201.66481      208.8226      -10985.086    
   2138000   699.78511     -7192821        198.38635      201.66481      208.8226      -11127.181    
   2139000   700.36304     -7192886.3      198.38635      201.66481      208.8226      -11000.535    
   2140000   700.70273     -7192857.7      198.38635      201.66481      208.8226      -10950.714    
   2141000   701.18816     -7192795.9      198.38635      201.66481      208.8226      -11066.999    
   2142000   700.59954     -7192807.2      198.38635      201.66481      208.8226      -10926.045    
   2143000   699.8294      -7192871.5      198.38635      201.66481      208.8226      -10902.955    
   2144000   698.99076     -7192856.4      198.38635      201.66481      208.8226      -10892.888    
   2145000   700.24407     -7192748.9      198.38635      201.66481      208.8226      -11015.338    
   2146000   702.0146      -7192740.6      198.38635      201.66481      208.8226      -11068.295    
   2147000   700.83331     -7192779.8      198.38635      201.66481      208.8226      -10988.567    
   2148000   700.82373     -7192754.1      198.38635      201.66481      208.8226      -11054.637    
   2149000   699.73982     -7192719.4      198.38635      201.66481      208.8226      -10774.949    
   2150000   700.91221     -7192817.3      198.38635      201.66481      208.8226      -10892.987    
   2151000   699.94593     -7192760.9      198.38635      201.66481      208.8226      -10963.851    
   2152000   700.03495     -7192862        198.38635      201.66481      208.8226      -10898.826    
   2153000   699.81843     -7192907.7      198.38635      201.66481      208.8226      -10978.88     
   2154000   699.04852     -7192925.6      198.38635      201.66481      208.8226      -10889.387    
   2155000   699.16687     -7192911.3      198.38635      201.66481      208.8226      -10807.768    
   2156000   700.5508      -7192869.1      198.38635      201.66481      208.8226      -10979.205    
   2157000   698.87301     -7192912.1      198.38635      201.66481      208.8226      -11038.824    
   2158000   699.52603     -7192856        198.38635      201.66481      208.8226      -11042.849    
   2159000   700.01204     -7192904.2      198.38635      201.66481      208.8226      -10967.632    
   2160000   701.58784     -7192765.7      198.38635      201.66481      208.8226      -10999.277    
   2161000   700.78441     -7192679.1      198.38635      201.66481      208.8226      -10976.144    
   2162000   700.45483     -7192784.9      198.38635      201.66481      208.8226      -10841.955    
   2163000   699.49476     -7192910.7      198.38635      201.66481      208.8226      -10992.924    
   2164000   699.66567     -7192804        198.38635      201.66481      208.8226      -11135.422    
   2165000   700.76571     -7192921.3      198.38635      201.66481      208.8226      -11042.208    
   2166000   699.66923     -7192847.9      198.38635      201.66481      208.8226      -10856.847    
   2167000   699.57743     -7192820        198.38635      201.66481      208.8226      -10942.787    
   2168000   699.25496     -7192965.7      198.38635      201.66481      208.8226      -11068.309    
   2169000   699.35437     -7192811.7      198.38635      201.66481      208.8226      -10918.294    
   2170000   700.22012     -7192889        198.38635      201.66481      208.8226      -11123.068    
   2171000   700.13449     -7192743.8      198.38635      201.66481      208.8226      -11071.441    
   2172000   699.95939     -7192854.3      198.38635      201.66481      208.8226      -10901.196    
   2173000   700.52316     -7192862.6      198.38635      201.66481      208.8226      -11022.191    
   2174000   699.99961     -7192819.5      198.38635      201.66481      208.8226      -11005.104    
   2175000   700.33875     -7192843.7      198.38635      201.66481      208.8226      -11072.836    
   2176000   701.70414     -7192726.4      198.38635      201.66481      208.8226      -10744.345    
   2177000   700.3557      -7192871.6      198.38635      201.66481      208.8226      -10890.735    
   2178000   699.61689     -7192944.8      198.38635      201.66481      208.8226      -11040.785    
   2179000   699.79933     -7192772.8      198.38635      201.66481      208.8226      -10841.719    
   2180000   700.33283     -7192888.1      198.38635      201.66481      208.8226      -10964.885    
   2181000   700.08807     -7192895.1      198.38635      201.66481      208.8226      -10972.109    
   2182000   699.12516     -7192816.2      198.38635      201.66481      208.8226      -11077.939    
   2183000   699.49185     -7192846.8      198.38635      201.66481      208.8226      -10749.299    
   2184000   699.90476     -7192936.6      198.38635      201.66481      208.8226      -10845.092    
   2185000   699.8243      -7192861        198.38635      201.66481      208.8226      -11091.004    
   2186000   699.19839     -7193035.3      198.38635      201.66481      208.8226      -11010.128    
   2187000   700.50585     -7192828.4      198.38635      201.66481      208.8226      -10831.138    
   2188000   699.51495     -7192924.8      198.38635      201.66481      208.8226      -11039.22     
   2189000   699.57272     -7192921        198.38635      201.66481      208.8226      -11061.802    
   2190000   700.20285     -7192797.3      198.38635      201.66481      208.8226      -10854.511    
   2191000   700.68479     -7192868.1      198.38635      201.66481      208.8226      -10724.112    
   2192000   699.96938     -7192758.8      198.38635      201.66481      208.8226      -11064.969    
   2193000   699.9968      -7192849.2      198.38635      201.66481      208.8226      -10884.043    
   2194000   700.41834     -7192706.6      198.38635      201.66481      208.8226      -10537.727    
   2195000   699.88534     -7192912.8      198.38635      201.66481      208.8226      -11008.339    
   2196000   698.99442     -7192929.2      198.38635      201.66481      208.8226      -11093.209    
   2197000   699.5267      -7192983.9      198.38635      201.66481      208.8226      -10923.667    
   2198000   699.75728     -7192933.3      198.38635      201.66481      208.8226      -10843.576    
   2199000   700.82814     -7192831.3      198.38635      201.66481      208.8226      -11181.643    
   2200000   699.89536     -7192910.1      198.38635      201.66481      208.8226      -11011.272    
   2201000   700.04254     -7192950        198.38635      201.66481      208.8226      -10857.479    
   2202000   698.57109     -7192901.2      198.38635      201.66481      208.8226      -10957.408    
   2203000   700.23516     -7192752.2      198.38635      201.66481      208.8226      -11111.74     
   2204000   698.63402     -7193004.1      198.38635      201.66481      208.8226      -10927.709    
   2205000   699.64163     -7192874.1      198.38635      201.66481      208.8226      -10714.638    
   2206000   700.1128      -7192754.9      198.38635      201.66481      208.8226      -11036.024    
   2207000   699.76926     -7192925.5      198.38635      201.66481      208.8226      -11063.489    
   2208000   700.3495      -7192967.5      198.38635      201.66481      208.8226      -10785.584    
   2209000   700.33641     -7192753        198.38635      201.66481      208.8226      -10864.822    
   2210000   699.82196     -7192748.5      198.38635      201.66481      208.8226      -11239.019    
   2211000   699.11078     -7192979.3      198.38635      201.66481      208.8226      -10935.974    
   2212000   699.91438     -7192889        198.38635      201.66481      208.8226      -10846.823    
   2213000   699.95213     -7192813.9      198.38635      201.66481      208.8226      -11252.875    
   2214000   699.5623      -7192856.7      198.38635      201.66481      208.8226      -11106.597    
   2215000   700.16265     -7192878.4      198.38635      201.66481      208.8226      -10657.594    
   2216000   699.76479     -7192883.7      198.38635      201.66481      208.8226      -11033.565    
   2217000   700.76829     -7192751.3      198.38635      201.66481      208.8226      -11174.829    
   2218000   699.89054     -7192977.9      198.38635      201.66481      208.8226      -10996.067    
   2219000   699.55854     -7192894.1      198.38635      201.66481      208.8226      -10707.507    
   2220000   699.635       -7192771.5      198.38635      201.66481      208.8226      -11202.134    
   2221000   700.80668     -7192817.8      198.38635      201.66481      208.8226      -11010.169    
   2222000   700.26257     -7193047.1      198.38635      201.66481      208.8226      -10808.529    
   2223000   699.85299     -7192839.1      198.38635      201.66481      208.8226      -11092.738    
   2224000   700.21231     -7192833.5      198.38635      201.66481      208.8226      -11065.292    
   2225000   700.7844      -7192778.6      198.38635      201.66481      208.8226      -10874.749    
   2226000   700.16016     -7192878        198.38635      201.66481      208.8226      -10824.557    
   2227000   699.13506     -7192957.2      198.38635      201.66481      208.8226      -11209.394    
   2228000   701.7697      -7192753.1      198.38635      201.66481      208.8226      -10952.995    
   2229000   700.52913     -7193029.2      198.38635      201.66481      208.8226      -10921.442    
   2230000   699.61631     -7192818.2      198.38635      201.66481      208.8226      -10901.224    
   2231000   700.33817     -7192919.7      198.38635      201.66481      208.8226      -11076.165    
   2232000   700.7942      -7192811.6      198.38635      201.66481      208.8226      -10768.133    
   2233000   699.77809     -7192887.2      198.38635      201.66481      208.8226      -10951.096    
   2234000   699.79239     -7192810.9      198.38635      201.66481      208.8226      -11075.569    
   2235000   700.08662     -7192835.5      198.38635      201.66481      208.8226      -10982.624    
   2236000   699.35844     -7192920.7      198.38635      201.66481      208.8226      -10901.966    
   2237000   700.61987     -7192818        198.38635      201.66481      208.8226      -10949.75     
   2238000   699.92657     -7192890.9      198.38635      201.66481      208.8226      -11035.172    
   2239000   699.39016     -7192834.2      198.38635      201.66481      208.8226      -10880.831    
   2240000   698.73825     -7193088.1      198.38635      201.66481      208.8226      -11099.815    
   2241000   700.11859     -7192785.9      198.38635      201.66481      208.8226      -11038.443    
   2242000   699.52905     -7192924.6      198.38635      201.66481      208.8226      -11026.158    
   2243000   701.45356     -7192853.3      198.38635      201.66481      208.8226      -10936.899    
   2244000   699.6583      -7192895        198.38635      201.66481      208.8226      -11041.878    
   2245000   700.60509     -7192883.7      198.38635      201.66481      208.8226      -11172.734    
   2246000   700.6772      -7192878.5      198.38635      201.66481      208.8226      -10875.573    
   2247000   700.84929     -7192768        198.38635      201.66481      208.8226      -10989.508    
   2248000   698.97187     -7192956.4      198.38635      201.66481      208.8226      -10929.376    
   2249000   700.0565      -7192829.3      198.38635      201.66481      208.8226      -11016.169    
   2250000   700.39007     -7192938.2      198.38635      201.66481      208.8226      -10849.826    
   2251000   700.81132     -7192821        198.38635      201.66481      208.8226      -11128.448    
   2252000   699.61741     -7192852.2      198.38635      201.66481      208.8226      -10951.573    
   2253000   700.17232     -7192777.6      198.38635      201.66481      208.8226      -10872.056    
   2254000   700.16249     -7192918.1      198.38635      201.66481      208.8226      -10858.532    
   2255000   699.14759     -7192825        198.38635      201.66481      208.8226      -10959.469    
   2256000   698.24351     -7192908.8      198.38635      201.66481      208.8226      -10964.036    
   2257000   699.93817     -7192903.9      198.38635      201.66481      208.8226      -10895.723    
   2258000   699.53852     -7192881.2      198.38635      201.66481      208.8226      -10864.229    
   2259000   699.96341     -7192760.5      198.38635      201.66481      208.8226      -11094.55     
   2260000   698.80702     -7192990.8      198.38635      201.66481      208.8226      -11048.74     
   2261000   698.63371     -7192912.9      198.38635      201.66481      208.8226      -10711.2      
   2262000   699.05159     -7192908.5      198.38635      201.66481      208.8226      -10876.556    
   2263000   700.58853     -7192820.6      198.38635      201.66481      208.8226      -11000.188    
   2264000   700.59116     -7192870.9      198.38635      201.66481      208.8226      -10947.112    
   2265000   701.54423     -7192715        198.38635      201.66481      208.8226      -11014.543    
   2266000   699.18261     -7192923.9      198.38635      201.66481      208.8226      -11043.35     
   2267000   700.8961      -7192659.1      198.38635      201.66481      208.8226      -10888.659    
   2268000   700.25502     -7192934.4      198.38635      201.66481      208.8226      -10802.775    
   2269000   701.29376     -7192721.3      198.38635      201.66481      208.8226      -10849.789    
   2270000   700.00968     -7192782.5      198.38635      201.66481      208.8226      -11070.603    
   2271000   701.93176     -7192659        198.38635      201.66481      208.8226      -10954.827    
   2272000   700.01303     -7192857        198.38635      201.66481      208.8226      -11006.215    
   2273000   700.18432     -7192910        198.38635      201.66481      208.8226      -11160.29     
   2274000   700.72812     -7192790.9      198.38635      201.66481      208.8226      -10918.755    
   2275000   699.48983     -7192966.4      198.38635      201.66481      208.8226      -11023.745    
   2276000   699.85866     -7192864.2      198.38635      201.66481      208.8226      -10975.663    
   2277000   699.15661     -7192759.3      198.38635      201.66481      208.8226      -11137.311    
   2278000   699.79431     -7192971.6      198.38635      201.66481      208.8226      -11011.944    
   2279000   699.67425     -7192912.2      198.38635      201.66481      208.8226      -10897.241    
   2280000   700.24628     -7192852.9      198.38635      201.66481      208.8226      -10969.177    
   2281000   700.6913      -7192755.1      198.38635      201.66481      208.8226      -11001.688    
   2282000   699.68193     -7193012.7      198.38635      201.66481      208.8226      -10908.345    
   2283000   699.47423     -7193005.2      198.38635      201.66481      208.8226      -10969.586    
   2284000   699.73588     -7192947.4      198.38635      201.66481      208.8226      -11111.674    
   2285000   700.18428     -7192873.3      198.38635      201.66481      208.8226      -11071.811    
   2286000   700.16127     -7192848.2      198.38635      201.66481      208.8226      -10978.672    
   2287000   700.24319     -7192925.8      198.38635      201.66481      208.8226      -11011.189    
   2288000   700.55717     -7192733        198.38635      201.66481      208.8226      -11018.218    
   2289000   700.24766     -7192914.9      198.38635      201.66481      208.8226      -10931.758    
   2290000   699.70016     -7192774.6      198.38635      201.66481      208.8226      -10825.516    
   2291000   700.73483     -7192779.8      198.38635      201.66481      208.8226      -11108.656    
   2292000   699.94918     -7192811.9      198.38635      201.66481      208.8226      -11045.524    
   2293000   700.28064     -7192822.9      198.38635      201.66481      208.8226      -10858.289    
   2294000   699.50174     -7192939.1      198.38635      201.66481      208.8226      -10914.38     
   2295000   700.74755     -7192866.7      198.38635      201.66481      208.8226      -11029.999    
   2296000   699.62761     -7192825.8      198.38635      201.66481      208.8226      -11010.141    
   2297000   701.31834     -7192827.2      198.38635      201.66481      208.8226      -10874.539    
   2298000   699.22071     -7192907.2      198.38635      201.66481      208.8226      -10996.938    
   2299000   699.11955     -7192985.5      198.38635      201.66481      208.8226      -11104.423    
   2300000   698.98466     -7192888.6      198.38635      201.66481      208.8226      -10873.541    
   2301000   700.00637     -7192965.2      198.38635      201.66481      208.8226      -10835.746    
   2302000   701.34555     -7192756.6      198.38635      201.66481      208.8226      -11022.785    
   2303000   699.20766     -7192903.5      198.38635      201.66481      208.8226      -11040.176    
   2304000   698.95216     -7192931        198.38635      201.66481      208.8226      -10825.316    
   2305000   699.80343     -7192937.5      198.38635      201.66481      208.8226      -10870.345    
   2306000   701.17942     -7192817.8      198.38635      201.66481      208.8226      -10915.551    
   2307000   700.96041     -7192723.7      198.38635      201.66481      208.8226      -10927.244    
   2308000   700.82323     -7192751.3      198.38635      201.66481      208.8226      -10880.639    
   2309000   701.25179     -7192694.5      198.38635      201.66481      208.8226      -11002.681    
   2310000   700.86083     -7192872.7      198.38635      201.66481      208.8226      -10903.111    
   2311000   700.05905     -7192882.6      198.38635      201.66481      208.8226      -10842.488    
   2312000   699.62796     -7192978.4      198.38635      201.66481      208.8226      -10985.872    
   2313000   699.75327     -7192817.8      198.38635      201.66481      208.8226      -10977.147    
   2314000   700.24292     -7192863.4      198.38635      201.66481      208.8226      -10930.607    
   2315000   700.71056     -7192741.5      198.38635      201.66481      208.8226      -10853.786    
   2316000   699.74429     -7192917        198.38635      201.66481      208.8226      -10961.183    
   2317000   700.66408     -7192828.9      198.38635      201.66481      208.8226      -10994.945    
   2318000   700.72144     -7192860.8      198.38635      201.66481      208.8226      -10885.476    
   2319000   699.07051     -7193004.9      198.38635      201.66481      208.8226      -10948.123    
   2320000   699.57749     -7192879.3      198.38635      201.66481      208.8226      -11079.834    
   2321000   699.21065     -7192900.8      198.38635      201.66481      208.8226      -10994.727    
   2322000   699.69898     -7192834.6      198.38635      201.66481      208.8226      -10968.729    
   2323000   700.62774     -7192943.8      198.38635      201.66481      208.8226      -10986.152    
   2324000   700.28713     -7192827.6      198.38635      201.66481      208.8226      -11068.727    
   2325000   699.07836     -7192868.2      198.38635      201.66481      208.8226      -10968.184    
   2326000   699.8396      -7192800.6      198.38635      201.66481      208.8226      -10852.799    
   2327000   699.93559     -7192813.8      198.38635      201.66481      208.8226      -10933.346    
   2328000   699.58238     -7192835.8      198.38635      201.66481      208.8226      -10910.254    
   2329000   701.1602      -7192772.4      198.38635      201.66481      208.8226      -10746.474    
   2330000   700.13117     -7192812.9      198.38635      201.66481      208.8226      -10888.332    
   2331000   700.82161     -7192765.6      198.38635      201.66481      208.8226      -11139.23     
   2332000   700.69544     -7192759.1      198.38635      201.66481      208.8226      -10989.104    
   2333000   699.11856     -7193004.7      198.38635      201.66481      208.8226      -10930.429    
   2334000   700.7573      -7192886.8      198.38635      201.66481      208.8226      -11006.986    
   2335000   700.93174     -7192736.9      198.38635      201.66481      208.8226      -10966.622    
   2336000   699.72797     -7192945.3      198.38635      201.66481      208.8226      -10864.707    
   2337000   701.03632     -7192808.7      198.38635      201.66481      208.8226      -10981.457    
   2338000   700.19978     -7192840.9      198.38635      201.66481      208.8226      -11108.042    
   2339000   699.35631     -7192879.6      198.38635      201.66481      208.8226      -11015.757    
   2340000   699.50087     -7192992.8      198.38635      201.66481      208.8226      -10939.51     
   2341000   701.41578     -7192769.8      198.38635      201.66481      208.8226      -10877.134    
   2342000   700.26421     -7192804.8      198.38635      201.66481      208.8226      -11128.273    
   2343000   699.89115     -7192899.3      198.38635      201.66481      208.8226      -10930.898    
   2344000   700.59004     -7192939.1      198.38635      201.66481      208.8226      -10828.876    
   2345000   699.80213     -7192900.6      198.38635      201.66481      208.8226      -11140.661    
   2346000   700.07511     -7192905        198.38635      201.66481      208.8226      -11092.293    
   2347000   700.35947     -7192826        198.38635      201.66481      208.8226      -10820.905    
   2348000   700.08467     -7192868        198.38635      201.66481      208.8226      -10929.848    
   2349000   700.3027      -7192816.3      198.38635      201.66481      208.8226      -10970.363    
   2350000   699.66218     -7192846.2      198.38635      201.66481      208.8226      -10848.27     
   2351000   700.32238     -7192680.4      198.38635      201.66481      208.8226      -10891.884    
   2352000   700.71203     -7192724.2      198.38635      201.66481      208.8226      -11006.679    
   2353000   700.04587     -7192809.8      198.38635      201.66481      208.8226      -10985.808    
   2354000   700.28687     -7192822.1      198.38635      201.66481      208.8226      -11055.233    
   2355000   700.69019     -7192833.1      198.38635      201.66481      208.8226      -10926.756    
   2356000   700.15273     -7192871.3      198.38635      201.66481      208.8226      -11136.154    
   2357000   699.98165     -7192873.8      198.38635      201.66481      208.8226      -10946.052    
   2358000   701.02069     -7192893.8      198.38635      201.66481      208.8226      -10840.799    
   2359000   701.58641     -7192670.7      198.38635      201.66481      208.8226      -10878.385    
   2360000   699.86859     -7192940.4      198.38635      201.66481      208.8226      -11118.412    
   2361000   699.36487     -7192844.5      198.38635      201.66481      208.8226      -10980.523    
   2362000   700.08969     -7192796.7      198.38635      201.66481      208.8226      -10866.421    
   2363000   699.96465     -7192926.7      198.38635      201.66481      208.8226      -11167.096    
   2364000   700.17124     -7192728.9      198.38635      201.66481      208.8226      -11017.236    
   2365000   699.54235     -7192944.6      198.38635      201.66481      208.8226      -11114.42     
   2366000   699.20079     -7192876.9      198.38635      201.66481      208.8226      -10758.985    
   2367000   697.95587     -7193082        198.38635      201.66481      208.8226      -11064.222    
   2368000   700.40814     -7192902        198.38635      201.66481      208.8226      -11249.509    
   2369000   700.34167     -7192851.1      198.38635      201.66481      208.8226      -11010.031    
   2370000   699.43004     -7192997.4      198.38635      201.66481      208.8226      -10999.218    
   2371000   699.97735     -7192973        198.38635      201.66481      208.8226      -10990.344    
   2372000   700.91712     -7193029.2      198.38635      201.66481      208.8226      -11085.765    
   2373000   699.22024     -7193007        198.38635      201.66481      208.8226      -10995.008    
   2374000   700.74675     -7192758.8      198.38635      201.66481      208.8226      -10962.027    
   2375000   701.01944     -7192883        198.38635      201.66481      208.8226      -10968.648    
   2376000   700.32274     -7192798.6      198.38635      201.66481      208.8226      -10942.016    
   2377000   699.08254     -7193024.7      198.38635      201.66481      208.8226      -10886.525    
   2378000   700.15177     -7192895.9      198.38635      201.66481      208.8226      -10978.058    
   2379000   700.26694     -7192818.3      198.38635      201.66481      208.8226      -10852.559    
   2380000   701.24421     -7192713.2      198.38635      201.66481      208.8226      -10894.914    
   2381000   700.63552     -7192788.5      198.38635      201.66481      208.8226      -11037.957    
   2382000   700.70564     -7192830.1      198.38635      201.66481      208.8226      -10958.028    
   2383000   699.42454     -7192951.5      198.38635      201.66481      208.8226      -10903.403    
   2384000   700.22212     -7192862.7      198.38635      201.66481      208.8226      -10925.144    
   2385000   699.20727     -7192855.7      198.38635      201.66481      208.8226      -11112.919    
   2386000   700.24142     -7192866.9      198.38635      201.66481      208.8226      -11072.917    
   2387000   699.7816      -7192886.5      198.38635      201.66481      208.8226      -10859.332    
   2388000   700.2664      -7192910        198.38635      201.66481      208.8226      -10997.537    
   2389000   699.52932     -7192907.2      198.38635      201.66481      208.8226      -10984.266    
   2390000   700.84987     -7192815.2      198.38635      201.66481      208.8226      -11137.314    
   2391000   699.31951     -7193025.6      198.38635      201.66481      208.8226      -10912.483    
   2392000   700.68035     -7192714.5      198.38635      201.66481      208.8226      -10951.463    
   2393000   700.44154     -7192807.7      198.38635      201.66481      208.8226      -10956.05     
   2394000   699.86574     -7192849        198.38635      201.66481      208.8226      -10900.913    
   2395000   699.56073     -7192882.3      198.38635      201.66481      208.8226      -10929.739    
   2396000   699.28191     -7192925.9      198.38635      201.66481      208.8226      -11044.166    
   2397000   699.10965     -7192901.4      198.38635      201.66481      208.8226      -11060.006    
   2398000   699.74817     -7192898.5      198.38635      201.66481      208.8226      -11001.975    
   2399000   701.07847     -7192885.7      198.38635      201.66481      208.8226      -10896.112    
   2400000   700.10192     -7192906.7      198.38635      201.66481      208.8226      -11040.25     
   2401000   700.62303     -7192809.1      198.38635      201.66481      208.8226      -10879.451    
   2402000   699.24433     -7192927        198.38635      201.66481      208.8226      -10898.33     
   2403000   700.43156     -7192804.5      198.38635      201.66481      208.8226      -11034.009    
   2404000   699.80058     -7192881.6      198.38635      201.66481      208.8226      -11080.807    
   2405000   698.84228     -7192919.1      198.38635      201.66481      208.8226      -10849.576    
   2406000   700.10772     -7192891.5      198.38635      201.66481      208.8226      -10937.725    
   2407000   700.44043     -7192906.6      198.38635      201.66481      208.8226      -11056.372    
   2408000   699.4174      -7193007.7      198.38635      201.66481      208.8226      -11078.861    
   2409000   699.81732     -7192837        198.38635      201.66481      208.8226      -10893.568    
   2410000   699.62072     -7192922.3      198.38635      201.66481      208.8226      -11101.848    
   2411000   700.44691     -7192829.2      198.38635      201.66481      208.8226      -11063.483    
   2412000   699.23964     -7192858.7      198.38635      201.66481      208.8226      -11011.144    
   2413000   701.39019     -7192815.9      198.38635      201.66481      208.8226      -10800.448    
   2414000   700.47815     -7192858.3      198.38635      201.66481      208.8226      -11016.016    
   2415000   701.14945     -7192798.9      198.38635      201.66481      208.8226      -11147.801    
   2416000   700.60131     -7192848.6      198.38635      201.66481      208.8226      -11099.902    
   2417000   701.01764     -7192884.4      198.38635      201.66481      208.8226      -11026.081    
   2418000   701.98597     -7192624.7      198.38635      201.66481      208.8226      -10970.334    
   2419000   698.68248     -7192917        198.38635      201.66481      208.8226      -11020.521    
   2420000   699.11137     -7192887.6      198.38635      201.66481      208.8226      -10836.66     
   2421000   699.62437     -7192929.6      198.38635      201.66481      208.8226      -10939.639    
   2422000   699.21946     -7192996.1      198.38635      201.66481      208.8226      -11012.783    
   2423000   699.82038     -7192845.9      198.38635      201.66481      208.8226      -11036.272    
   2424000   700.75526     -7192785.2      198.38635      201.66481      208.8226      -10990.96     
   2425000   700.68922     -7192819        198.38635      201.66481      208.8226      -10947.516    
   2426000   701.23181     -7192707.3      198.38635      201.66481      208.8226      -11037.515    
   2427000   700.73026     -7192852        198.38635      201.66481      208.8226      -10883.735    
   2428000   700.56896     -7192841.4      198.38635      201.66481      208.8226      -10971.837    
   2429000   699.8553      -7192763.9      198.38635      201.66481      208.8226      -10990.023    
   2430000   699.96076     -7192781.2      198.38635      201.66481      208.8226      -11090.865    
   2431000   700.49213     -7192860.2      198.38635      201.66481      208.8226      -10985.305    
   2432000   699.03038     -7192993.1      198.38635      201.66481      208.8226      -10906.125    
   2433000   700.61942     -7192923.3      198.38635      201.66481      208.8226      -11062.149    
   2434000   699.73536     -7192795.2      198.38635      201.66481      208.8226      -10933.836    
   2435000   699.36882     -7192981.6      198.38635      201.66481      208.8226      -11010.998    
   2436000   700.51214     -7192893.5      198.38635      201.66481      208.8226      -11065.255    
   2437000   699.14203     -7192971.3      198.38635      201.66481      208.8226      -10969.384    
   2438000   699.24172     -7192940        198.38635      201.66481      208.8226      -10905.605    
   2439000   699.70044     -7192753.5      198.38635      201.66481      208.8226      -10967.126    
   2440000   699.87233     -7192861.8      198.38635      201.66481      208.8226      -10957.28     
   2441000   700.70287     -7192895.9      198.38635      201.66481      208.8226      -10989.996    
   2442000   699.12251     -7192992.8      198.38635      201.66481      208.8226      -10909.737    
   2443000   699.98404     -7192813.4      198.38635      201.66481      208.8226      -10887.035    
   2444000   701.77345     -7192809.9      198.38635      201.66481      208.8226      -10948.919    
   2445000   700.73672     -7192844.6      198.38635      201.66481      208.8226      -11077.038    
   2446000   699.83182     -7192834.8      198.38635      201.66481      208.8226      -10900.758    
   2447000   700.73154     -7192851.6      198.38635      201.66481      208.8226      -10980.691    
   2448000   700.13625     -7192791.9      198.38635      201.66481      208.8226      -10889.08     
   2449000   700.07729     -7192842.5      198.38635      201.66481      208.8226      -11133.832    
   2450000   699.51625     -7192903.2      198.38635      201.66481      208.8226      -11102.052    
   2451000   701.16431     -7192823.6      198.38635      201.66481      208.8226      -10723.054    
   2452000   700.3239      -7192901.6      198.38635      201.66481      208.8226      -10829.199    
   2453000   700.79307     -7192839.4      198.38635      201.66481      208.8226      -10984.317    
   2454000   699.96723     -7192860.5      198.38635      201.66481      208.8226      -11123.934    
   2455000   698.64571     -7193012.1      198.38635      201.66481      208.8226      -11085.216    
   2456000   699.77443     -7192956.3      198.38635      201.66481      208.8226      -10911.498    
   2457000   700.40727     -7192736.1      198.38635      201.66481      208.8226      -11003.767    
   2458000   699.82159     -7192875.9      198.38635      201.66481      208.8226      -10874.114    
   2459000   699.63715     -7192801.2      198.38635      201.66481      208.8226      -10909.022    
   2460000   699.46978     -7192895.3      198.38635      201.66481      208.8226      -11005.911    
   2461000   699.43654     -7193005.1      198.38635      201.66481      208.8226      -10975.355    
   2462000   701.5394      -7192841.1      198.38635      201.66481      208.8226      -10928.919    
   2463000   699.62787     -7192965.2      198.38635      201.66481      208.8226      -11105.653    
   2464000   700.36403     -7192823        198.38635      201.66481      208.8226      -11060.5      
   2465000   700.28186     -7192800.3      198.38635      201.66481      208.8226      -10929.471    
   2466000   700.44771     -7192879.3      198.38635      201.66481      208.8226      -10955.713    
   2467000   699.86798     -7192865.7      198.38635      201.66481      208.8226      -10974.419    
   2468000   700.71231     -7192839.5      198.38635      201.66481      208.8226      -10989.342    
   2469000   700.62174     -7192808.5      198.38635      201.66481      208.8226      -10839.427    
   2470000   699.50758     -7192955.2      198.38635      201.66481      208.8226      -10894.735    
   2471000   701.06497     -7192734.3      198.38635      201.66481      208.8226      -10976.555    
   2472000   700.41875     -7192933.4      198.38635      201.66481      208.8226      -10886.733    
   2473000   700.30746     -7192950        198.38635      201.66481      208.8226      -10910.645    
   2474000   699.99998     -7193005.5      198.38635      201.66481      208.8226      -10980.324    
   2475000   698.91494     -7192978.6      198.38635      201.66481      208.8226      -11100.612    
