LAMMPS (8 Feb 2023)
WARNING: Using I/O redirection is unreliable with parallel runs. Better to use the -in switch to read input files. (src/src/lammps.cpp:531)
  using 128 OpenMP thread(s) per MPI task
Reading data file ...
  orthogonal box = (-0.85104431 -0.86539777 -0.87046671) to (193.50059 196.76412 197.91663)
  4 by 4 by 8 MPI processor grid
  reading atoms ...
  601956 atoms
  reading velocities ...
  601956 velocities
Finding 1-2 1-3 1-4 neighbors ...
  special bond factors lj:    0        0        0       
  special bond factors coul:  0        0        0       
     0 = max # of 1-2 neighbors
     0 = max # of 1-3 neighbors
     0 = max # of 1-4 neighbors
     1 = max # of special neighbors
  special bonds CPU = 0.097 seconds
  read_data CPU = 3.879 seconds
6399 atoms in group Al
76779 atoms in group La
51344 atoms in group Zr
159986 atoms in group Li
307448 atoms in group O
5436 atoms in group 1
1451 atoms in group Li1
5306 atoms in group 2
1417 atoms in group Li2
PPPM initialization ...
  using 12-bit tables for long-range coulomb (src/src/kspace.cpp:342)
  G vector (1/distance) = 0.27679647
  grid = 135 135 135
  stencil order = 5
  estimated absolute RMS force accuracy = 0.0018196166
  estimated relative force accuracy = 0.00012636538
  using double precision MKL FFT
  3d grid and FFT values/proc = 36800 36450
Generated 0 of 10 mixed pair_coeff terms from geometric mixing rule
Neighbor list info ...
  update: every = 1 steps, delay = 0 steps, check = yes
  max neighbors/atom: 5000, page size: 100000
  master list distance cutoff = 11.5
  ghost atom cutoff = 11.5
  binsize = 5.75, bins = 34 35 35
  3 neighbor lists, perpetual/occasional/extra = 3 0 0
  (1) pair buck/coul/long, perpetual
      attributes: half, newton on
      pair build: half/bin/newton
      stencil: half/bin/3d
      bin: standard
  (2) pair lennard/mdf, perpetual, skip from (3)
      attributes: half, newton on, cut 4
      pair build: skip
      stencil: none
      bin: none
  (3) neighbor class addition, perpetual, trim from (1)
      attributes: half, newton on, cut 4
      pair build: trim
      stencil: none
      bin: none
Setting up cg style minimization ...
  Unit style    : metal
  Current step  : 0
Per MPI rank memory allocation (min/avg/max) = 298.3 | 299.1 | 301.3 Mbytes
   Step          Temp          E_pair         E_mol          TotEng         Press     
         0   699.8521      -6887739.6      0             -6833285        99.745416    
       772   699.8521      -6943099.2      0             -6888644.6     -23386.148    
Loop time of 130.649 on 16384 procs for 772 steps with 601956 atoms

88.9% CPU use with 128 MPI tasks x 128 OpenMP threads

Minimization stats:
  Stopping criterion = linesearch alpha is zero
  Energy initial, next-to-last, final = 
     -6887739.62228753  -6943099.23157742  -6943099.23157742
  Force two-norm initial, final = 1137.4797 0.40993313
  Force max component initial, final = 7.2124155 0.12370867
  Final line search alpha, max atom move = 3.8079207e-08 4.7107282e-09
  Iterations, force evaluations = 772 1461

MPI task timing breakdown:
Section |  min time  |  avg time  |  max time  |%varavg| %total
---------------------------------------------------------------
Pair    | 85.6       | 95.012     | 104.05     |  65.0 | 72.72
Bond    | 0.00023011 | 0.00037925 | 0.00061414 |   0.0 |  0.00
Kspace  | 19.785     | 29.238     | 38.949     | 121.8 | 22.38
Neigh   | 2.4149     | 2.7087     | 2.9721     |  12.3 |  2.07
Comm    | 2.5639     | 2.8364     | 3.1501     |   8.7 |  2.17
Output  | 0          | 0          | 0          |   0.0 |  0.00
Modify  | 0          | 0          | 0          |   0.0 |  0.00
Other   |            | 0.8534     |            |       |  0.65

Nlocal:        4702.78 ave        5020 max        4395 min
Histogram: 52 12 0 0 0 0 0 0 26 38
Nghost:        14472.9 ave       15289 max       13650 min
Histogram: 64 0 0 0 0 0 0 0 0 64
Neighs:    1.23398e+06 ave  1.3618e+06 max 1.10305e+06 min
Histogram: 18 25 16 5 0 0 0 31 3 30

Total # of neighbors = 1.5794889e+08
Ave neighs/atom = 262.39274
Ave special neighs/atom = 0
Neighbor list builds = 67
Dangerous builds = 0
PPPM initialization ...
  using 12-bit tables for long-range coulomb (src/src/kspace.cpp:342)
  G vector (1/distance) = 0.27679647
  grid = 135 135 135
  stencil order = 5
  estimated absolute RMS force accuracy = 0.0018196166
  estimated relative force accuracy = 0.00012636538
  using double precision MKL FFT
  3d grid and FFT values/proc = 36800 36450
Generated 0 of 10 mixed pair_coeff terms from geometric mixing rule
Setting up Verlet run ...
  Unit style    : metal
  Current step  : 0
  Time step     : 0.002
Per MPI rank memory allocation (min/avg/max) = 297.8 | 298.6 | 300.8 Mbytes
   Step          Temp          TotEng           Lx             Ly             Lz           Press     
         0   699.8521      -6888644.6      194.35164      197.62951      198.7871      -23386.148    
      1000   699.99208     -6833420.7      194.35164      197.62951      198.7871       927.18746    
      2000   699.49876     -6833508.5      194.35164      197.62951      198.7871       1291.0037    
      3000   700.09595     -6833292        194.35164      197.62951      198.7871       633.70675    
      4000   699.65739     -6833573.6      194.35164      197.62951      198.7871       846.4884     
      5000   699.87278     -6833437.3      194.35164      197.62951      198.7871       321.10002    
      6000   698.42051     -6833573.4      194.35164      197.62951      198.7871       437.42631    
      7000   698.95798     -6833330        194.35164      197.62951      198.7871       431.9766     
      8000   701.40303     -6833163.9      194.35164      197.62951      198.7871       303.97073    
      9000   700.53528     -6833275.2      194.35164      197.62951      198.7871       122.08335    
     10000   700.25817     -6833258.2      194.35164      197.62951      198.7871       111.76845    
Loop time of 810.406 on 16384 procs for 10000 steps with 601956 atoms

Performance: 2.132 ns/day, 11.256 hours/ns, 12.339 timesteps/s, 7.428 Matom-step/s
88.7% CPU use with 128 MPI tasks x 128 OpenMP threads

MPI task timing breakdown:
Section |  min time  |  avg time  |  max time  |%varavg| %total
---------------------------------------------------------------
Pair    | 476.87     | 526.64     | 572.83     | 146.4 | 64.99
Bond    | 0.0019943  | 0.0027779  | 0.0041702  |   0.9 |  0.00
Kspace  | 133.29     | 185.6      | 242.47     | 282.0 | 22.90
Neigh   | 63.361     | 70.89      | 77.281     |  60.3 |  8.75
Comm    | 19.526     | 22.122     | 24.661     |  21.2 |  2.73
Output  | 0.0014649  | 0.0015485  | 0.0018719  |   0.1 |  0.00
Modify  | 2.227      | 3.4733     | 4.9925     |  37.2 |  0.43
Other   |            | 1.676      |            |       |  0.21

Nlocal:        4702.78 ave        4983 max        4411 min
Histogram: 48 16 0 0 0 0 0 0 3 61
Nghost:        14496.5 ave       15294 max       13702 min
Histogram: 64 0 0 0 0 0 0 0 0 64
Neighs:    1.22907e+06 ave 1.34672e+06 max 1.10567e+06 min
Histogram: 20 20 15 9 0 0 0 28 5 31

Total # of neighbors = 1.5732062e+08
Ave neighs/atom = 261.34903
Ave special neighs/atom = 0
Neighbor list builds = 1692
Dangerous builds = 0
PPPM initialization ...
  using 12-bit tables for long-range coulomb (src/src/kspace.cpp:342)
  G vector (1/distance) = 0.27679647
  grid = 135 135 135
  stencil order = 5
  estimated absolute RMS force accuracy = 0.0018196166
  estimated relative force accuracy = 0.00012636538
  using double precision MKL FFT
  3d grid and FFT values/proc = 36800 36450
Generated 0 of 10 mixed pair_coeff terms from geometric mixing rule
Setting up Verlet run ...
  Unit style    : metal
  Current step  : 10000
  Time step     : 0.002
Per MPI rank memory allocation (min/avg/max) = 299.3 | 300.1 | 302.3 Mbytes
   Step          Temp          TotEng           Lx             Ly             Lz           Press     
     10000   700.25817     -6833258.2      194.35164      197.62951      198.7871       111.76845    
     11000   700.01738     -6833385.8      194.35164      197.62951      198.7871       113.48827    
     12000   700.32711     -6833294.5      194.35164      197.62951      198.7871      -29.961286    
     13000   700.02422     -6833371.4      194.35164      197.62951      198.7871       113.34136    
     14000   699.50421     -6833367.1      194.35164      197.62951      198.7871      -2.6267268    
     15000   700.59946     -6833279.9      194.35164      197.62951      198.7871       116.11608    
     16000   700.48059     -6833246.8      194.35164      197.62951      198.7871      -5.0168524    
     17000   699.12894     -6833383.3      194.35164      197.62951      198.7871       139.923      
     18000   700.74346     -6833219.6      194.35164      197.62951      198.7871       13.625408    
     19000   699.82791     -6833420.1      194.35164      197.62951      198.7871      -37.651395    
     20000   699.4818      -6833365.6      194.35164      197.62951      198.7871       14.528591    
     21000   700.56799     -6833257.2      194.35164      197.62951      198.7871       43.74621     
     22000   699.85199     -6833337.8      194.35164      197.62951      198.7871       20.378929    
     23000   699.42284     -6833335        194.35164      197.62951      198.7871       31.675404    
     24000   701.05922     -6833265.9      194.35164      197.62951      198.7871       18.98347     
     25000   699.44435     -6833331.4      194.35164      197.62951      198.7871       20.639266    
     26000   699.2522      -6833348        194.35164      197.62951      198.7871       62.818753    
     27000   700.43714     -6833287        194.35164      197.62951      198.7871       27.44548     
     28000   700.35512     -6833335.3      194.35164      197.62951      198.7871       68.600169    
     29000   700.19869     -6833281.4      194.35164      197.62951      198.7871       51.117085    
     30000   699.69062     -6833255.9      194.35164      197.62951      198.7871       174.47077    
     31000   699.26477     -6833325.7      194.35164      197.62951      198.7871       51.788225    
     32000   700.94693     -6833167.8      194.35164      197.62951      198.7871      -2.2256021    
     33000   698.67035     -6833450.1      194.35164      197.62951      198.7871      -99.325741    
     34000   700.32569     -6833293.2      194.35164      197.62951      198.7871       92.277355    
     35000   700.75441     -6833280.7      194.35164      197.62951      198.7871       56.241592    
     36000   701.57452     -6833235.6      194.35164      197.62951      198.7871       1.51982      
     37000   699.90589     -6833285.8      194.35164      197.62951      198.7871       45.537424    
     38000   700.0906      -6833339.4      194.35164      197.62951      198.7871       23.492679    
     39000   699.80023     -6833396        194.35164      197.62951      198.7871       43.032823    
     40000   701.02568     -6833326.2      194.35164      197.62951      198.7871       55.782864    
     41000   700.31189     -6833216.4      194.35164      197.62951      198.7871      -26.348037    
     42000   700.69473     -6833233.3      194.35164      197.62951      198.7871       149.93882    
     43000   700.04279     -6833402        194.35164      197.62951      198.7871       104.30874    
     44000   700.06761     -6833334.2      194.35164      197.62951      198.7871      -40.853852    
     45000   701.65142     -6833147.6      194.35164      197.62951      198.7871       31.538681    
     46000   701.45656     -6833319.2      194.35164      197.62951      198.7871       40.010245    
     47000   700.59008     -6833287.5      194.35164      197.62951      198.7871       39.172239    
     48000   699.66744     -6833295.9      194.35164      197.62951      198.7871       132.90541    
     49000   699.94767     -6833428.9      194.35164      197.62951      198.7871       18.034315    
     50000   700.12385     -6833380.2      194.35164      197.62951      198.7871      -185.8136     
     51000   700.52124     -6833245.7      194.35164      197.62951      198.7871       75.602066    
     52000   700.18975     -6833372.8      194.35164      197.62951      198.7871      -8.3923772    
     53000   699.19616     -6833475.2      194.35164      197.62951      198.7871       107.47981    
     54000   699.54602     -6833427.8      194.35164      197.62951      198.7871      -14.378964    
     55000   699.87154     -6833247.3      194.35164      197.62951      198.7871       3.902538     
     56000   699.17621     -6833437.5      194.35164      197.62951      198.7871       30.905687    
     57000   700.01176     -6833363.6      194.35164      197.62951      198.7871       75.932789    
     58000   698.88221     -6833413.5      194.35164      197.62951      198.7871       96.153801    
     59000   699.0615      -6833349.8      194.35164      197.62951      198.7871      -12.94555     
     60000   699.96381     -6833361.9      194.35164      197.62951      198.7871       47.993453    
     61000   699.36543     -6833345.9      194.35164      197.62951      198.7871       55.809198    
     62000   698.07875     -6833375.1      194.35164      197.62951      198.7871       7.6834034    
     63000   699.61473     -6833339.1      194.35164      197.62951      198.7871       252.84043    
     64000   698.75298     -6833428.8      194.35164      197.62951      198.7871      -66.232518    
     65000   701.62964     -6833162.3      194.35164      197.62951      198.7871       115.35578    
     66000   699.68983     -6833319.9      194.35164      197.62951      198.7871       75.29233     
     67000   700.82841     -6833254.1      194.35164      197.62951      198.7871      -81.289154    
     68000   700.11716     -6833285.1      194.35164      197.62951      198.7871       159.47709    
     69000   700.60898     -6833207        194.35164      197.62951      198.7871       72.837255    
     70000   700.67082     -6833253.3      194.35164      197.62951      198.7871       18.07305     
     71000   699.90694     -6833175.4      194.35164      197.62951      198.7871       99.145273    
     72000   700.73965     -6833204.8      194.35164      197.62951      198.7871      -24.850308    
     73000   699.08231     -6833375.7      194.35164      197.62951      198.7871       25.63364     
     74000   699.21789     -6833451.7      194.35164      197.62951      198.7871      -4.3594803    
     75000   700.01791     -6833339        194.35164      197.62951      198.7871       45.498572    
     76000   699.80689     -6833505.9      194.35164      197.62951      198.7871      -230.06641    
     77000   700.4176      -6833311.7      194.35164      197.62951      198.7871       67.31614     
     78000   699.84745     -6833341        194.35164      197.62951      198.7871      -102.84568    
     79000   699.13547     -6833415.8      194.35164      197.62951      198.7871       65.211314    
     80000   699.06099     -6833336.7      194.35164      197.62951      198.7871      -23.841142    
     81000   699.16002     -6833432.2      194.35164      197.62951      198.7871      -72.931081    
     82000   698.31963     -6833519.9      194.35164      197.62951      198.7871      -57.147181    
     83000   700.28116     -6833226.8      194.35164      197.62951      198.7871       85.367675    
     84000   699.25066     -6833320.1      194.35164      197.62951      198.7871      -76.348597    
     85000   699.08156     -6833318.2      194.35164      197.62951      198.7871      -6.4428894    
     86000   700.14986     -6833385.5      194.35164      197.62951      198.7871      -144.79305    
     87000   701.27523     -6833223.4      194.35164      197.62951      198.7871      -36.044447    
     88000   699.73429     -6833339.1      194.35164      197.62951      198.7871       90.534967    
     89000   700.60119     -6833225.5      194.35164      197.62951      198.7871       90.685913    
     90000   699.30254     -6833349.7      194.35164      197.62951      198.7871       13.307719    
     91000   698.67063     -6833370.5      194.35164      197.62951      198.7871       53.029007    
     92000   700.72293     -6833220.9      194.35164      197.62951      198.7871       42.909823    
     93000   700.14694     -6833346.6      194.35164      197.62951      198.7871      -106.78937    
     94000   700.48962     -6833336        194.35164      197.62951      198.7871      -27.05952     
     95000   699.9722      -6833415.2      194.35164      197.62951      198.7871       20.416993    
     96000   698.6624      -6833351.3      194.35164      197.62951      198.7871      -32.969621    
     97000   700.49944     -6833241.9      194.35164      197.62951      198.7871       3.7335727    
     98000   699.65709     -6833384.7      194.35164      197.62951      198.7871       78.982294    
     99000   700.17003     -6833312        194.35164      197.62951      198.7871       220.50851    
    100000   699.95684     -6833241.4      194.35164      197.62951      198.7871      -37.962174    
    101000   699.59745     -6833481.1      194.35164      197.62951      198.7871       86.359867    
    102000   699.75475     -6833319.7      194.35164      197.62951      198.7871      -21.566041    
    103000   701.0506      -6833130.4      194.35164      197.62951      198.7871       113.92947    
    104000   699.35911     -6833423.5      194.35164      197.62951      198.7871      -109.72046    
    105000   700.33659     -6833329.4      194.35164      197.62951      198.7871      -38.237939    
    106000   699.00012     -6833413.2      194.35164      197.62951      198.7871      -57.716371    
    107000   700.99482     -6833189.6      194.35164      197.62951      198.7871       23.129943    
    108000   698.87774     -6833199.3      194.35164      197.62951      198.7871       115.29803    
    109000   699.00485     -6833377.4      194.35164      197.62951      198.7871       43.757354    
    110000   700.55968     -6833310.4      194.35164      197.62951      198.7871       73.125579    
    111000   700.01573     -6833276.3      194.35164      197.62951      198.7871       68.126931    
    112000   700.07336     -6833357.1      194.35164      197.62951      198.7871      -81.367256    
    113000   700.32745     -6833237.7      194.35164      197.62951      198.7871       22.762656    
    114000   699.40387     -6833329.6      194.35164      197.62951      198.7871       196.15       
    115000   699.3591      -6833309.4      194.35164      197.62951      198.7871       64.979192    
    116000   699.9421      -6833330.7      194.35164      197.62951      198.7871       98.840593    
    117000   699.54022     -6833296.3      194.35164      197.62951      198.7871      -42.408369    
    118000   699.72354     -6833428.3      194.35164      197.62951      198.7871       7.1425524    
    119000   699.0688      -6833375.5      194.35164      197.62951      198.7871      -51.004456    
    120000   698.44141     -6833494.1      194.35164      197.62951      198.7871       92.229881    
    121000   700.77886     -6833338.2      194.35164      197.62951      198.7871       22.18797     
    122000   699.43518     -6833385.7      194.35164      197.62951      198.7871       10.624895    
    123000   699.70792     -6833356        194.35164      197.62951      198.7871      -9.3360855    
    124000   699.00027     -6833229.6      194.35164      197.62951      198.7871       102.02733    
    125000   699.63732     -6833394.4      194.35164      197.62951      198.7871      -42.806829    
    126000   699.94132     -6833419.8      194.35164      197.62951      198.7871       20.850782    
    127000   699.52873     -6833368.9      194.35164      197.62951      198.7871      -27.523071    
    128000   701.16017     -6833179.3      194.35164      197.62951      198.7871       147.15971    
    129000   699.60027     -6833369.5      194.35164      197.62951      198.7871      -91.985377    
    130000   699.96991     -6833268.4      194.35164      197.62951      198.7871       32.078625    
    131000   700.09166     -6833293.5      194.35164      197.62951      198.7871       68.445143    
    132000   699.98393     -6833365.3      194.35164      197.62951      198.7871      -168.31211    
    133000   699.96673     -6833297.8      194.35164      197.62951      198.7871      -1.4774211    
    134000   701.12263     -6833349        194.35164      197.62951      198.7871      -93.790635    
    135000   700.61541     -6833244.3      194.35164      197.62951      198.7871       50.301902    
    136000   699.73256     -6833359.1      194.35164      197.62951      198.7871      -84.844642    
    137000   699.98647     -6833384.9      194.35164      197.62951      198.7871      -133.9896     
    138000   700.48564     -6833226        194.35164      197.62951      198.7871       9.4063315    
    139000   699.77407     -6833274.6      194.35164      197.62951      198.7871      -38.555455    
    140000   700.12214     -6833288.7      194.35164      197.62951      198.7871       74.873567    
    141000   700.00454     -6833341        194.35164      197.62951      198.7871       20.130988    
    142000   699.93071     -6833282.3      194.35164      197.62951      198.7871      -12.631651    
    143000   700.55272     -6833270.3      194.35164      197.62951      198.7871       98.724721    
    144000   699.65759     -6833245.7      194.35164      197.62951      198.7871       5.2584385    
    145000   701.33996     -6833187.5      194.35164      197.62951      198.7871      -47.32372     
    146000   700.25508     -6833305.4      194.35164      197.62951      198.7871       68.389869    
    147000   698.6213      -6833528.2      194.35164      197.62951      198.7871       113.48158    
    148000   699.92466     -6833296.4      194.35164      197.62951      198.7871       38.4223      
    149000   699.58852     -6833293.8      194.35164      197.62951      198.7871       37.195548    
    150000   700.04775     -6833394.2      194.35164      197.62951      198.7871      -6.8581653    
    151000   700.03109     -6833306.7      194.35164      197.62951      198.7871       125.1433     
    152000   700.30594     -6833288.5      194.35164      197.62951      198.7871       21.449302    
    153000   700.56672     -6833326        194.35164      197.62951      198.7871      -75.199117    
    154000   698.95357     -6833305.2      194.35164      197.62951      198.7871      -55.651017    
    155000   700.60924     -6833274.5      194.35164      197.62951      198.7871      -78.743031    
    156000   699.3489      -6833512.2      194.35164      197.62951      198.7871      -163.09375    
    157000   701.00465     -6833249.6      194.35164      197.62951      198.7871       2.5339628    
    158000   699.16758     -6833375.9      194.35164      197.62951      198.7871       10.288786    
    159000   700.63133     -6833340.5      194.35164      197.62951      198.7871      -5.5520744    
    160000   699.17445     -6833259.2      194.35164      197.62951      198.7871       115.376      
    161000   700.71869     -6833322.1      194.35164      197.62951      198.7871       47.064906    
    162000   700.74477     -6833238.3      194.35164      197.62951      198.7871      -37.89218     
    163000   699.73118     -6833310.5      194.35164      197.62951      198.7871       50.100437    
    164000   699.68057     -6833332.2      194.35164      197.62951      198.7871       26.33571     
    165000   699.52369     -6833397.5      194.35164      197.62951      198.7871      -139.12983    
    166000   700.86725     -6833345.6      194.35164      197.62951      198.7871       1.7110252    
    167000   700.77558     -6833233.1      194.35164      197.62951      198.7871       42.78559     
    168000   699.84298     -6833307.1      194.35164      197.62951      198.7871       154.16365    
    169000   700.1937      -6833285.2      194.35164      197.62951      198.7871      -145.91868    
    170000   701.65051     -6833222.7      194.35164      197.62951      198.7871      -77.203209    
    171000   700.70422     -6833124.8      194.35164      197.62951      198.7871       83.875139    
    172000   700.5276      -6833262.9      194.35164      197.62951      198.7871       71.151917    
    173000   700.24492     -6833321.2      194.35164      197.62951      198.7871       39.434253    
    174000   701.51012     -6833200        194.35164      197.62951      198.7871       10.246136    
    175000   700.14375     -6833333.9      194.35164      197.62951      198.7871       37.556039    
    176000   699.83067     -6833428.8      194.35164      197.62951      198.7871      -30.445986    
    177000   700.16796     -6833269.8      194.35164      197.62951      198.7871      -71.021814    
    178000   699.61027     -6833349.8      194.35164      197.62951      198.7871       97.365753    
    179000   699.94342     -6833332.3      194.35164      197.62951      198.7871      -17.94294     
    180000   700.37443     -6833348.3      194.35164      197.62951      198.7871       23.641811    
    181000   700.62222     -6833329.1      194.35164      197.62951      198.7871       103.0344     
    182000   701.5901      -6833150.2      194.35164      197.62951      198.7871       101.66263    
    183000   699.99586     -6833326.5      194.35164      197.62951      198.7871       110.86707    
    184000   701.25226     -6833182.6      194.35164      197.62951      198.7871      -8.332739     
    185000   700.27068     -6833288.7      194.35164      197.62951      198.7871       74.150523    
    186000   699.40391     -6833287.2      194.35164      197.62951      198.7871       56.349901    
    187000   699.26608     -6833354.2      194.35164      197.62951      198.7871       71.710857    
    188000   698.77042     -6833431.1      194.35164      197.62951      198.7871       97.772594    
    189000   699.92638     -6833331.4      194.35164      197.62951      198.7871      -73.422586    
    190000   698.68353     -6833511        194.35164      197.62951      198.7871      -62.761609    
    191000   700.63331     -6833277.8      194.35164      197.62951      198.7871       120.36322    
    192000   699.49458     -6833255.2      194.35164      197.62951      198.7871       84.462985    
    193000   699.94692     -6833388.5      194.35164      197.62951      198.7871      -97.224107    
    194000   699.55571     -6833344.8      194.35164      197.62951      198.7871       17.111029    
    195000   700.78194     -6833333.4      194.35164      197.62951      198.7871      -18.152439    
    196000   699.21114     -6833364.7      194.35164      197.62951      198.7871       59.198311    
    197000   700.02283     -6833329        194.35164      197.62951      198.7871      -14.321475    
    198000   699.20566     -6833367.8      194.35164      197.62951      198.7871       22.527538    
    199000   700.42937     -6833288.6      194.35164      197.62951      198.7871      -21.460641    
    200000   700.91457     -6833347.7      194.35164      197.62951      198.7871       28.067581    
    201000   699.04167     -6833418.1      194.35164      197.62951      198.7871      -147.14135    
    202000   700.41394     -6833199        194.35164      197.62951      198.7871      -12.370104    
    203000   699.33972     -6833410.8      194.35164      197.62951      198.7871      -38.68455     
    204000   699.03298     -6833355.8      194.35164      197.62951      198.7871      -102.61826    
    205000   699.51694     -6833419.9      194.35164      197.62951      198.7871       4.2129733    
    206000   699.22356     -6833344.3      194.35164      197.62951      198.7871       56.431529    
    207000   698.77097     -6833427.3      194.35164      197.62951      198.7871      -10.7877      
    208000   700.23055     -6833332.9      194.35164      197.62951      198.7871      -41.074047    
    209000   700.33671     -6833348.7      194.35164      197.62951      198.7871      -8.8788145    
    210000   701.0697      -6833192.3      194.35164      197.62951      198.7871       137.5066     
    211000   701.26645     -6833333.4      194.35164      197.62951      198.7871      -47.512023    
    212000   700.00505     -6833344.2      194.35164      197.62951      198.7871       30.143806    
    213000   701.15076     -6833133.3      194.35164      197.62951      198.7871       227.76803    
    214000   699.40258     -6833392.9      194.35164      197.62951      198.7871      -1.4132161    
    215000   699.71664     -6833373        194.35164      197.62951      198.7871       84.128046    
    216000   701.61756     -6833166.9      194.35164      197.62951      198.7871       44.533226    
    217000   701.4951      -6833271.7      194.35164      197.62951      198.7871       96.101004    
    218000   699.34897     -6833367.2      194.35164      197.62951      198.7871      -71.74293     
    219000   700.45674     -6833319.5      194.35164      197.62951      198.7871       107.82096    
    220000   700.69918     -6833257.9      194.35164      197.62951      198.7871      -20.087515    
    221000   700.63238     -6833277.9      194.35164      197.62951      198.7871       32.959507    
    222000   699.20877     -6833378.6      194.35164      197.62951      198.7871       73.162274    
    223000   700.58967     -6833290.3      194.35164      197.62951      198.7871       65.972287    
    224000   700.04464     -6833394        194.35164      197.62951      198.7871      -43.92193     
    225000   699.69137     -6833310.5      194.35164      197.62951      198.7871      -19.109304    
    226000   700.80347     -6833253.9      194.35164      197.62951      198.7871      -30.797684    
    227000   699.47604     -6833447.2      194.35164      197.62951      198.7871       31.585081    
    228000   699.76715     -6833327.4      194.35164      197.62951      198.7871      -39.437632    
    229000   700.07648     -6833237.9      194.35164      197.62951      198.7871       8.5477398    
    230000   699.71913     -6833272.6      194.35164      197.62951      198.7871      -58.764004    
    231000   700.77163     -6833210.8      194.35164      197.62951      198.7871       60.916535    
    232000   700.04573     -6833371.2      194.35164      197.62951      198.7871      -85.677339    
    233000   700.78336     -6833311        194.35164      197.62951      198.7871      -94.640373    
    234000   699.65325     -6833402.5      194.35164      197.62951      198.7871      -126.16712    
    235000   699.30629     -6833376.8      194.35164      197.62951      198.7871       110.86594    
    236000   700.52723     -6833159.7      194.35164      197.62951      198.7871       67.746433    
    237000   700.02672     -6833417        194.35164      197.62951      198.7871       69.004035    
    238000   699.89506     -6833322.4      194.35164      197.62951      198.7871       40.304812    
    239000   699.54696     -6833323.4      194.35164      197.62951      198.7871       38.636109    
    240000   700.81636     -6833280.2      194.35164      197.62951      198.7871      -51.216859    
    241000   700.05394     -6833248.9      194.35164      197.62951      198.7871      -3.0616669    
    242000   699.78527     -6833372.9      194.35164      197.62951      198.7871      -105.02071    
    243000   701.21223     -6833246.3      194.35164      197.62951      198.7871      -93.467519    
    244000   700.75534     -6833284.6      194.35164      197.62951      198.7871       78.568871    
    245000   699.39913     -6833283.3      194.35164      197.62951      198.7871      -29.264281    
    246000   700.61875     -6833241.5      194.35164      197.62951      198.7871       18.332333    
    247000   699.8855      -6833301.5      194.35164      197.62951      198.7871      -38.60721     
    248000   700.41317     -6833261        194.35164      197.62951      198.7871      -14.201185    
    249000   699.97149     -6833362.2      194.35164      197.62951      198.7871      -48.58486     
    250000   700.10831     -6833382.6      194.35164      197.62951      198.7871      -1.6712322    
    251000   699.55929     -6833386.2      194.35164      197.62951      198.7871       87.084434    
    252000   699.20782     -6833439.7      194.35164      197.62951      198.7871       31.532221    
    253000   699.82092     -6833268        194.35164      197.62951      198.7871       50.227113    
    254000   700.15575     -6833272.4      194.35164      197.62951      198.7871      -35.72803     
    255000   700.55088     -6833253.2      194.35164      197.62951      198.7871      -47.041159    
    256000   700.04346     -6833336        194.35164      197.62951      198.7871      -28.448234    
    257000   700.07334     -6833323.8      194.35164      197.62951      198.7871       18.614912    
    258000   700.99799     -6833189.5      194.35164      197.62951      198.7871       82.915559    
    259000   699.76598     -6833210.8      194.35164      197.62951      198.7871       45.970054    
    260000   699.44987     -6833417.2      194.35164      197.62951      198.7871       75.27806     
    261000   699.54811     -6833332        194.35164      197.62951      198.7871       148.95654    
    262000   699.84239     -6833358        194.35164      197.62951      198.7871       29.535282    
    263000   699.12877     -6833347.1      194.35164      197.62951      198.7871       8.5830711    
    264000   699.74619     -6833341.4      194.35164      197.62951      198.7871       16.92123     
    265000   699.34634     -6833418        194.35164      197.62951      198.7871      -29.291901    
    266000   699.75211     -6833377.3      194.35164      197.62951      198.7871      -172.9098     
    267000   699.93739     -6833295.6      194.35164      197.62951      198.7871       54.406872    
    268000   700.24689     -6833321.8      194.35164      197.62951      198.7871      -9.9839076    
    269000   700.8867      -6833304.7      194.35164      197.62951      198.7871      -114.44616    
    270000   698.93455     -6833394.4      194.35164      197.62951      198.7871      -83.922059    
    271000   700.13501     -6833320.6      194.35164      197.62951      198.7871       8.446429     
    272000   700.15341     -6833307.5      194.35164      197.62951      198.7871       136.76161    
    273000   700.52694     -6833218.2      194.35164      197.62951      198.7871       33.662543    
    274000   698.23885     -6833439.7      194.35164      197.62951      198.7871       3.8627172    
    275000   700.24211     -6833328.3      194.35164      197.62951      198.7871      -23.186366    
    276000   698.97309     -6833320.2      194.35164      197.62951      198.7871       137.96207    
    277000   701.21388     -6833133.8      194.35164      197.62951      198.7871       27.356927    
    278000   699.72023     -6833354        194.35164      197.62951      198.7871       48.816986    
    279000   699.03302     -6833336        194.35164      197.62951      198.7871       94.425021    
    280000   699.53735     -6833349.7      194.35164      197.62951      198.7871      -174.5216     
    281000   698.91476     -6833319.9      194.35164      197.62951      198.7871       44.203307    
    282000   700.23273     -6833327.2      194.35164      197.62951      198.7871      -25.781319    
    283000   699.33535     -6833322.4      194.35164      197.62951      198.7871       136.49494    
    284000   700.17732     -6833284.3      194.35164      197.62951      198.7871       58.541699    
    285000   701.03662     -6833110.2      194.35164      197.62951      198.7871       142.74096    
    286000   700.57946     -6833268.8      194.35164      197.62951      198.7871      -6.2705672    
    287000   698.27206     -6833461        194.35164      197.62951      198.7871      -59.969083    
    288000   700.16277     -6833300.5      194.35164      197.62951      198.7871       56.348014    
    289000   701.16588     -6833244.6      194.35164      197.62951      198.7871      -75.911001    
    290000   699.8496      -6833460.3      194.35164      197.62951      198.7871       48.383251    
    291000   700.73141     -6833335.8      194.35164      197.62951      198.7871      -12.342572    
    292000   699.62967     -6833482        194.35164      197.62951      198.7871       38.796889    
    293000   698.32737     -6833532.6      194.35164      197.62951      198.7871      -16.077141    
    294000   699.15432     -6833292.9      194.35164      197.62951      198.7871       111.9908     
    295000   699.90307     -6833328.1      194.35164      197.62951      198.7871       131.51763    
    296000   699.78146     -6833317.7      194.35164      197.62951      198.7871       40.880671    
    297000   700.42546     -6833190.8      194.35164      197.62951      198.7871       182.17873    
    298000   698.84185     -6833561.1      194.35164      197.62951      198.7871      -114.51966    
    299000   700.89815     -6833278        194.35164      197.62951      198.7871       81.164836    
    300000   700.46419     -6833314.4      194.35164      197.62951      198.7871      -120.08345    
    301000   700.25187     -6833298.2      194.35164      197.62951      198.7871      -40.062073    
    302000   699.78518     -6833404.1      194.35164      197.62951      198.7871      -15.77555     
    303000   700.52432     -6833249.2      194.35164      197.62951      198.7871      -21.729801    
    304000   700.7098      -6833238.7      194.35164      197.62951      198.7871       68.845759    
    305000   699.69604     -6833422.4      194.35164      197.62951      198.7871      -59.055129    
    306000   700.56993     -6833218.7      194.35164      197.62951      198.7871       73.349835    
    307000   700.33166     -6833238        194.35164      197.62951      198.7871      -27.723151    
    308000   701.21988     -6833252.2      194.35164      197.62951      198.7871      -55.475554    
    309000   701.25403     -6833202.3      194.35164      197.62951      198.7871       106.96127    
    310000   699.85918     -6833394.9      194.35164      197.62951      198.7871      -86.035871    
    311000   699.67574     -6833364.6      194.35164      197.62951      198.7871      -92.82185     
    312000   699.09277     -6833370        194.35164      197.62951      198.7871       123.43119    
    313000   699.46167     -6833343.9      194.35164      197.62951      198.7871      -63.819734    
    314000   699.95671     -6833185        194.35164      197.62951      198.7871       81.251252    
    315000   699.07539     -6833476.6      194.35164      197.62951      198.7871       6.6175126    
    316000   698.67638     -6833435.6      194.35164      197.62951      198.7871       10.178579    
    317000   700.09649     -6833299.6      194.35164      197.62951      198.7871      -33.973688    
    318000   700.87355     -6833263.6      194.35164      197.62951      198.7871       85.61283     
    319000   700.27827     -6833261.7      194.35164      197.62951      198.7871       17.627458    
    320000   698.69527     -6833472.4      194.35164      197.62951      198.7871      -30.569924    
    321000   699.63846     -6833297.3      194.35164      197.62951      198.7871       76.962634    
    322000   699.39093     -6833373.6      194.35164      197.62951      198.7871       103.11283    
    323000   699.52371     -6833361.5      194.35164      197.62951      198.7871       24.97211     
    324000   700.17259     -6833306        194.35164      197.62951      198.7871       0.31468522   
    325000   698.79967     -6833402.6      194.35164      197.62951      198.7871       98.457207    
    326000   701.06616     -6833280.8      194.35164      197.62951      198.7871       103.88907    
    327000   700.40422     -6833273        194.35164      197.62951      198.7871      -9.0477091    
    328000   698.29118     -6833511.7      194.35164      197.62951      198.7871       101.45908    
    329000   700.88106     -6833206.9      194.35164      197.62951      198.7871       110.33223    
    330000   698.20344     -6833443.8      194.35164      197.62951      198.7871       16.759386    
    331000   700.55491     -6833229        194.35164      197.62951      198.7871       86.907833    
    332000   699.87897     -6833479.6      194.35164      197.62951      198.7871      -52.092412    
    333000   700.67319     -6833283.2      194.35164      197.62951      198.7871       29.516117    
    334000   700.97416     -6833276.1      194.35164      197.62951      198.7871      -40.720809    
    335000   700.30754     -6833381.5      194.35164      197.62951      198.7871      -18.425526    
    336000   700.06776     -6833332.8      194.35164      197.62951      198.7871      -95.721437    
    337000   700.19583     -6833321.8      194.35164      197.62951      198.7871       7.8417586    
    338000   699.2934      -6833348.7      194.35164      197.62951      198.7871       48.700328    
    339000   699.7745      -6833387        194.35164      197.62951      198.7871       89.554698    
    340000   700.19106     -6833351.4      194.35164      197.62951      198.7871      -56.194649    
    341000   698.29099     -6833430.5      194.35164      197.62951      198.7871      -37.796405    
    342000   699.5506      -6833503.3      194.35164      197.62951      198.7871      -27.51669     
    343000   699.8323      -6833374.9      194.35164      197.62951      198.7871       112.72193    
    344000   700.22212     -6833376        194.35164      197.62951      198.7871      -54.42572     
    345000   700.42421     -6833333        194.35164      197.62951      198.7871      -53.476715    
    346000   699.89653     -6833179.8      194.35164      197.62951      198.7871       94.867998    
    347000   699.40049     -6833310.4      194.35164      197.62951      198.7871      -10.727808    
    348000   699.14827     -6833396.3      194.35164      197.62951      198.7871      -93.379341    
    349000   700.4739      -6833235.1      194.35164      197.62951      198.7871      -2.475562     
    350000   700.74947     -6833276.1      194.35164      197.62951      198.7871       22.134177    
    351000   699.56981     -6833307.6      194.35164      197.62951      198.7871      -20.511093    
    352000   700.47611     -6833363        194.35164      197.62951      198.7871       2.2139337    
    353000   699.75354     -6833318.4      194.35164      197.62951      198.7871      -8.0891344    
    354000   700.06491     -6833307.3      194.35164      197.62951      198.7871       154.58985    
    355000   699.29106     -6833421.4      194.35164      197.62951      198.7871      -2.3023916    
    356000   700.81011     -6833293.4      194.35164      197.62951      198.7871      -22.509265    
    357000   700.21297     -6833283.8      194.35164      197.62951      198.7871       95.080536    
    358000   699.69303     -6833309        194.35164      197.62951      198.7871       34.520521    
    359000   700.02271     -6833299.4      194.35164      197.62951      198.7871       54.915163    
    360000   699.39926     -6833473        194.35164      197.62951      198.7871      -58.276114    
    361000   700.72524     -6833342.5      194.35164      197.62951      198.7871       67.58868     
    362000   698.90079     -6833422.2      194.35164      197.62951      198.7871      -16.648206    
    363000   698.59753     -6833373.3      194.35164      197.62951      198.7871       42.579798    
    364000   698.48369     -6833446.9      194.35164      197.62951      198.7871       236.04322    
    365000   699.41694     -6833346.8      194.35164      197.62951      198.7871      -13.197685    
    366000   700.47011     -6833422.7      194.35164      197.62951      198.7871      -13.609583    
    367000   700.65201     -6833328.8      194.35164      197.62951      198.7871       79.062455    
    368000   699.45553     -6833354.6      194.35164      197.62951      198.7871       31.468534    
    369000   700.10059     -6833356.4      194.35164      197.62951      198.7871       117.5887     
    370000   701.14961     -6833185.5      194.35164      197.62951      198.7871       0.83889575   
    371000   700.14466     -6833322        194.35164      197.62951      198.7871       156.51315    
    372000   700.01976     -6833352.6      194.35164      197.62951      198.7871       32.06287     
    373000   700.8489      -6833320.5      194.35164      197.62951      198.7871       141.42648    
    374000   700.1912      -6833244        194.35164      197.62951      198.7871       5.8142561    
    375000   700.51887     -6833353.8      194.35164      197.62951      198.7871       119.39107    
    376000   700.15765     -6833293.2      194.35164      197.62951      198.7871       131.24771    
    377000   699.73457     -6833355.6      194.35164      197.62951      198.7871       19.481456    
    378000   699.1247      -6833402.7      194.35164      197.62951      198.7871       78.946736    
    379000   700.73526     -6833271.9      194.35164      197.62951      198.7871       245.19821    
    380000   700.64322     -6833207.7      194.35164      197.62951      198.7871      -35.675954    
    381000   700.21102     -6833374.2      194.35164      197.62951      198.7871       197.16093    
    382000   700.06113     -6833339.1      194.35164      197.62951      198.7871       101.33666    
    383000   698.96021     -6833462.6      194.35164      197.62951      198.7871       6.5989646    
    384000   699.89262     -6833274.6      194.35164      197.62951      198.7871       65.949218    
    385000   699.06295     -6833400.8      194.35164      197.62951      198.7871       173.69925    
    386000   699.42171     -6833327.3      194.35164      197.62951      198.7871       65.584827    
    387000   700.71683     -6833267.4      194.35164      197.62951      198.7871       82.309015    
    388000   699.05432     -6833400.9      194.35164      197.62951      198.7871       152.0576     
    389000   698.54877     -6833445.9      194.35164      197.62951      198.7871       133.52145    
    390000   700.63388     -6833318.4      194.35164      197.62951      198.7871       45.213294    
    391000   699.31585     -6833275.7      194.35164      197.62951      198.7871       126.76656    
    392000   700.57544     -6833282.5      194.35164      197.62951      198.7871       165.42245    
    393000   699.62766     -6833300        194.35164      197.62951      198.7871       28.014835    
    394000   700.11036     -6833267.5      194.35164      197.62951      198.7871       189.91592    
    395000   698.98979     -6833315.5      194.35164      197.62951      198.7871       93.573115    
    396000   699.0997      -6833350.8      194.35164      197.62951      198.7871       58.015707    
    397000   699.80809     -6833430.5      194.35164      197.62951      198.7871      -23.413497    
    398000   701.12283     -6833292.5      194.35164      197.62951      198.7871       110.38265    
    399000   698.28395     -6833368.4      194.35164      197.62951      198.7871       31.67664     
    400000   699.86441     -6833332        194.35164      197.62951      198.7871       74.552836    
    401000   700.12645     -6833374.5      194.35164      197.62951      198.7871       16.921614    
    402000   699.59971     -6833478.3      194.35164      197.62951      198.7871       8.8716319    
    403000   700.62107     -6833350.4      194.35164      197.62951      198.7871      -57.323976    
    404000   700.378       -6833300.7      194.35164      197.62951      198.7871       38.384555    
    405000   699.1758      -6833276.7      194.35164      197.62951      198.7871       162.50689    
    406000   699.38427     -6833396.9      194.35164      197.62951      198.7871       82.019318    
    407000   700.50475     -6833335.4      194.35164      197.62951      198.7871       69.765243    
    408000   699.76606     -6833409.9      194.35164      197.62951      198.7871       64.583176    
    409000   699.47818     -6833422.3      194.35164      197.62951      198.7871       105.35228    
    410000   701.11749     -6833132.8      194.35164      197.62951      198.7871       194.42533    
    411000   700.42881     -6833372.7      194.35164      197.62951      198.7871       154.13528    
    412000   700.94073     -6833277        194.35164      197.62951      198.7871       135.49312    
    413000   700.15        -6833333.9      194.35164      197.62951      198.7871      -49.080682    
    414000   700.50868     -6833257        194.35164      197.62951      198.7871       46.410085    
    415000   699.94606     -6833357.3      194.35164      197.62951      198.7871      -18.213365    
    416000   699.33651     -6833462.3      194.35164      197.62951      198.7871      -91.130444    
    417000   699.69026     -6833292.6      194.35164      197.62951      198.7871       164.69614    
    418000   700.57179     -6833313.2      194.35164      197.62951      198.7871       92.638709    
    419000   699.83024     -6833307        194.35164      197.62951      198.7871       174.83566    
    420000   700.73059     -6833212        194.35164      197.62951      198.7871       52.455043    
    421000   699.49767     -6833452.3      194.35164      197.62951      198.7871      -88.163565    
    422000   698.89442     -6833445.3      194.35164      197.62951      198.7871      -79.409543    
    423000   700.23856     -6833334.9      194.35164      197.62951      198.7871       181.87356    
    424000   699.06123     -6833401.3      194.35164      197.62951      198.7871       76.931813    
    425000   699.41557     -6833306.8      194.35164      197.62951      198.7871       23.241984    
    426000   700.03804     -6833242.8      194.35164      197.62951      198.7871       47.190743    
    427000   700.45501     -6833364.9      194.35164      197.62951      198.7871       39.106601    
    428000   700.17104     -6833334.7      194.35164      197.62951      198.7871      -17.905813    
    429000   700.65003     -6833230.7      194.35164      197.62951      198.7871       11.085974    
    430000   701.31941     -6833272.4      194.35164      197.62951      198.7871       10.684545    
    431000   699.82591     -6833235.4      194.35164      197.62951      198.7871       44.769265    
    432000   699.39834     -6833348.8      194.35164      197.62951      198.7871      -101.63803    
    433000   699.47677     -6833454.3      194.35164      197.62951      198.7871      -80.428935    
    434000   699.55232     -6833421.1      194.35164      197.62951      198.7871      -10.734197    
    435000   700.54802     -6833377.9      194.35164      197.62951      198.7871       22.258479    
    436000   699.75411     -6833360        194.35164      197.62951      198.7871       77.786229    
    437000   699.75743     -6833356.9      194.35164      197.62951      198.7871       47.77341     
    438000   701.56339     -6833301.4      194.35164      197.62951      198.7871       49.583146    
    439000   699.5322      -6833279.3      194.35164      197.62951      198.7871       50.967628    
    440000   699.20276     -6833262.3      194.35164      197.62951      198.7871      -76.371959    
    441000   702.03112     -6833108.1      194.35164      197.62951      198.7871       82.622753    
    442000   699.56453     -6833333        194.35164      197.62951      198.7871      -25.192591    
    443000   699.94314     -6833337.9      194.35164      197.62951      198.7871       28.956625    
    444000   701.10749     -6833147        194.35164      197.62951      198.7871       136.33714    
    445000   700.61333     -6833382.9      194.35164      197.62951      198.7871      -22.729084    
    446000   699.53218     -6833460.9      194.35164      197.62951      198.7871       27.107511    
    447000   699.53545     -6833313.7      194.35164      197.62951      198.7871      -29.038296    
    448000   700.72893     -6833297.6      194.35164      197.62951      198.7871       15.669021    
    449000   699.49124     -6833395.2      194.35164      197.62951      198.7871       64.226563    
    450000   701.61045     -6833233.1      194.35164      197.62951      198.7871       190.4262     
    451000   700.10236     -6833394.4      194.35164      197.62951      198.7871       56.605446    
    452000   700.99443     -6833353.1      194.35164      197.62951      198.7871       7.3471187    
    453000   700.27272     -6833420        194.35164      197.62951      198.7871      -134.80854    
    454000   699.52824     -6833419.3      194.35164      197.62951      198.7871       151.28622    
    455000   698.83786     -6833425.7      194.35164      197.62951      198.7871       13.185173    
    456000   698.62898     -6833516.7      194.35164      197.62951      198.7871      -43.229548    
    457000   699.70079     -6833334.9      194.35164      197.62951      198.7871       15.593363    
    458000   700.01698     -6833315        194.35164      197.62951      198.7871       65.111953    
    459000   700.46627     -6833246.1      194.35164      197.62951      198.7871       61.958161    
    460000   699.78765     -6833397.6      194.35164      197.62951      198.7871      -180.31187    
    461000   699.6218      -6833392.9      194.35164      197.62951      198.7871      -66.734489    
    462000   700.8719      -6833284.5      194.35164      197.62951      198.7871       52.138859    
    463000   700.19665     -6833299.1      194.35164      197.62951      198.7871       61.46621     
    464000   702.8184      -6833138.8      194.35164      197.62951      198.7871       58.685724    
    465000   701.56518     -6833294.9      194.35164      197.62951      198.7871      -63.428174    
    466000   699.1526      -6833400.6      194.35164      197.62951      198.7871       43.208672    
    467000   700.44958     -6833337.8      194.35164      197.62951      198.7871      -55.905154    
    468000   699.90605     -6833470.1      194.35164      197.62951      198.7871      -53.419681    
    469000   699.65019     -6833324.4      194.35164      197.62951      198.7871       64.126115    
    470000   700.02418     -6833377.6      194.35164      197.62951      198.7871       19.067631    
    471000   700.77985     -6833294.8      194.35164      197.62951      198.7871       16.395452    
    472000   699.24411     -6833419.3      194.35164      197.62951      198.7871      -11.564597    
    473000   701.62482     -6833232.3      194.35164      197.62951      198.7871       101.03418    
    474000   699.62524     -6833472.1      194.35164      197.62951      198.7871       102.27214    
    475000   699.40131     -6833422.9      194.35164      197.62951      198.7871       41.83965     
    476000   700.94146     -6833291.3      194.35164      197.62951      198.7871       56.396776    
    477000   699.45815     -6833506.4      194.35164      197.62951      198.7871      -97.430319    
    478000   700.56601     -6833392.1      194.35164      197.62951      198.7871      -108.96785    
    479000   700.15873     -6833467.3      194.35164      197.62951      198.7871      -2.2244255    
    480000   700.05932     -6833358.8      194.35164      197.62951      198.7871      -32.426008    
    481000   699.39869     -6833359.7      194.35164      197.62951      198.7871       66.579182    
    482000   702.09755     -6833162.6      194.35164      197.62951      198.7871      -37.326485    
    483000   700.53153     -6833349.7      194.35164      197.62951      198.7871       47.141178    
    484000   698.35528     -6833449.9      194.35164      197.62951      198.7871      -95.941998    
    485000   701.79581     -6833160.2      194.35164      197.62951      198.7871       104.79865    
    486000   699.87058     -6833467.4      194.35164      197.62951      198.7871      -56.29518     
    487000   699.04737     -6833435.4      194.35164      197.62951      198.7871      -3.7522828    
    488000   699.40888     -6833354.1      194.35164      197.62951      198.7871       115.20312    
    489000   699.49407     -6833231.9      194.35164      197.62951      198.7871       170.16964    
    490000   698.97905     -6833340.3      194.35164      197.62951      198.7871      -1.2636752    
    491000   700.71375     -6833287.1      194.35164      197.62951      198.7871       41.731317    
    492000   700.34811     -6833315.1      194.35164      197.62951      198.7871       6.7777191    
    493000   699.46338     -6833461        194.35164      197.62951      198.7871       34.462794    
    494000   699.79399     -6833395        194.35164      197.62951      198.7871       14.449353    
    495000   700.84279     -6833335        194.35164      197.62951      198.7871       174.81486    
    496000   698.73343     -6833432        194.35164      197.62951      198.7871       133.41974    
    497000   700.11738     -6833318.1      194.35164      197.62951      198.7871       109.96053    
    498000   698.74056     -6833354        194.35164      197.62951      198.7871       150.49114    
    499000   699.44278     -6833380.9      194.35164      197.62951      198.7871       33.140053    
    500000   700.97422     -6833263.2      194.35164      197.62951      198.7871       40.857872    
    501000   700.45027     -6833359.2      194.35164      197.62951      198.7871      -31.152854    
    502000   698.82108     -6833416.3      194.35164      197.62951      198.7871       147.95827    
    503000   700.64301     -6833271.5      194.35164      197.62951      198.7871      -26.238092    
    504000   699.49294     -6833301        194.35164      197.62951      198.7871       89.687491    
    505000   700.27635     -6833280.9      194.35164      197.62951      198.7871       75.678755    
    506000   700.84785     -6833224.6      194.35164      197.62951      198.7871       177.43189    
    507000   700.98593     -6833252.1      194.35164      197.62951      198.7871      -2.1442147    
    508000   700.78059     -6833313.3      194.35164      197.62951      198.7871       105.24197    
    509000   699.90015     -6833264.6      194.35164      197.62951      198.7871       134.53052    
    510000   700.19471     -6833320.9      194.35164      197.62951      198.7871       74.14112     
    511000   700.10427     -6833352.9      194.35164      197.62951      198.7871       86.952695    
    512000   698.72895     -6833377.2      194.35164      197.62951      198.7871      -112.49516    
    513000   701.34326     -6833158        194.35164      197.62951      198.7871       97.639452    
    514000   700.24393     -6833384.2      194.35164      197.62951      198.7871       87.209124    
    515000   699.92236     -6833330.8      194.35164      197.62951      198.7871       128.81334    
    516000   701.25154     -6833285.3      194.35164      197.62951      198.7871       7.6429497    
    517000   700.5783      -6833403        194.35164      197.62951      198.7871      -7.2703427    
    518000   698.70556     -6833418.1      194.35164      197.62951      198.7871      -19.933272    
    519000   699.3769      -6833522.4      194.35164      197.62951      198.7871      -18.909444    
    520000   700.33798     -6833362.9      194.35164      197.62951      198.7871       47.785544    
    521000   699.87859     -6833356.3      194.35164      197.62951      198.7871       67.725083    
    522000   700.2909      -6833293.6      194.35164      197.62951      198.7871       36.791763    
    523000   699.03456     -6833473.6      194.35164      197.62951      198.7871       20.892856    
    524000   699.92447     -6833336        194.35164      197.62951      198.7871       95.88622     
    525000   699.30973     -6833429.8      194.35164      197.62951      198.7871       48.051832    
    526000   698.92477     -6833450.1      194.35164      197.62951      198.7871      -26.319612    
    527000   699.78045     -6833480.1      194.35164      197.62951      198.7871      -163.9936     
    528000   700.25447     -6833327.7      194.35164      197.62951      198.7871      -10.434389    
    529000   699.20736     -6833357.9      194.35164      197.62951      198.7871       146.1121     
    530000   699.85271     -6833389.7      194.35164      197.62951      198.7871       140.55777    
    531000   699.18017     -6833358.3      194.35164      197.62951      198.7871       24.684615    
    532000   700.76462     -6833375.4      194.35164      197.62951      198.7871      -7.2674828    
    533000   699.53655     -6833303.3      194.35164      197.62951      198.7871       85.263411    
    534000   700.17831     -6833300.6      194.35164      197.62951      198.7871       19.749432    
    535000   699.3217      -6833438.1      194.35164      197.62951      198.7871       99.486069    
    536000   699.17215     -6833559        194.35164      197.62951      198.7871      -104.98111    
    537000   698.70914     -6833485.6      194.35164      197.62951      198.7871       8.7350684    
    538000   699.33952     -6833440        194.35164      197.62951      198.7871       62.501954    
    539000   700.39633     -6833274.3      194.35164      197.62951      198.7871       100.54047    
    540000   700.24434     -6833304.9      194.35164      197.62951      198.7871      -103.31547    
    541000   700.89306     -6833198.6      194.35164      197.62951      198.7871       63.007631    
    542000   700.56607     -6833321.2      194.35164      197.62951      198.7871       22.139793    
    543000   699.77307     -6833369.4      194.35164      197.62951      198.7871       100.87699    
    544000   699.70475     -6833356.8      194.35164      197.62951      198.7871      -45.864608    
    545000   699.0188      -6833272        194.35164      197.62951      198.7871       223.66065    
    546000   699.87211     -6833319.6      194.35164      197.62951      198.7871       117.99983    
    547000   700.03684     -6833396.1      194.35164      197.62951      198.7871      -143.42354    
    548000   699.8874      -6833303.3      194.35164      197.62951      198.7871       102.842      
    549000   700.74902     -6833251.8      194.35164      197.62951      198.7871       36.760409    
    550000   700.39335     -6833262.5      194.35164      197.62951      198.7871       160.01165    
    551000   699.76853     -6833303.5      194.35164      197.62951      198.7871      -7.0471438    
    552000   700.55155     -6833312.1      194.35164      197.62951      198.7871       4.9544645    
    553000   699.54806     -6833394.5      194.35164      197.62951      198.7871       117.3832     
    554000   700.84154     -6833281.7      194.35164      197.62951      198.7871       32.887075    
    555000   700.07713     -6833270.8      194.35164      197.62951      198.7871       81.555252    
    556000   698.91388     -6833367.7      194.35164      197.62951      198.7871       96.923325    
    557000   698.86533     -6833384.9      194.35164      197.62951      198.7871      -10.120585    
    558000   698.86229     -6833518.3      194.35164      197.62951      198.7871      -52.519029    
    559000   700.26466     -6833320.6      194.35164      197.62951      198.7871       74.732863    
    560000   698.95601     -6833369.2      194.35164      197.62951      198.7871       81.291092    
    561000   699.48183     -6833358.2      194.35164      197.62951      198.7871       84.045296    
    562000   700.25949     -6833294.5      194.35164      197.62951      198.7871       27.525257    
    563000   699.35096     -6833423.8      194.35164      197.62951      198.7871       74.839049    
    564000   700.34383     -6833329.4      194.35164      197.62951      198.7871       4.0150699    
    565000   699.85101     -6833305.1      194.35164      197.62951      198.7871       7.7521609    
    566000   701.29336     -6833305.1      194.35164      197.62951      198.7871      -14.414944    
    567000   699.00981     -6833418.2      194.35164      197.62951      198.7871      -49.098541    
    568000   700.10916     -6833384.7      194.35164      197.62951      198.7871       9.9931377    
    569000   700.06497     -6833371.2      194.35164      197.62951      198.7871       63.637445    
    570000   699.90377     -6833395.2      194.35164      197.62951      198.7871      -3.0150478    
    571000   700.00619     -6833338.3      194.35164      197.62951      198.7871      -14.131806    
    572000   699.13861     -6833534.1      194.35164      197.62951      198.7871      -22.743859    
    573000   700.18365     -6833247.2      194.35164      197.62951      198.7871       59.928435    
    574000   700.71144     -6833258.3      194.35164      197.62951      198.7871       55.003931    
    575000   699.92599     -6833328.3      194.35164      197.62951      198.7871      -29.702304    
    576000   699.6954      -6833321.5      194.35164      197.62951      198.7871      -29.385088    
    577000   698.2586      -6833462.3      194.35164      197.62951      198.7871       38.94809     
    578000   698.80902     -6833607.9      194.35164      197.62951      198.7871      -52.738585    
    579000   700.04666     -6833339.7      194.35164      197.62951      198.7871       141.15694    
    580000   699.81292     -6833396.2      194.35164      197.62951      198.7871       22.383197    
    581000   699.47965     -6833433.2      194.35164      197.62951      198.7871       100.42212    
    582000   699.75114     -6833380.1      194.35164      197.62951      198.7871       48.858158    
    583000   699.30788     -6833347.6      194.35164      197.62951      198.7871       60.353491    
    584000   701.32154     -6833329.2      194.35164      197.62951      198.7871      -9.7963935    
    585000   699.21618     -6833398.9      194.35164      197.62951      198.7871      -18.703171    
    586000   698.91277     -6833441.6      194.35164      197.62951      198.7871       42.051457    
    587000   699.55251     -6833368.9      194.35164      197.62951      198.7871       37.450759    
    588000   700.69194     -6833317.3      194.35164      197.62951      198.7871       140.10399    
    589000   699.52036     -6833407.7      194.35164      197.62951      198.7871      -113.5728     
    590000   700.12756     -6833374.5      194.35164      197.62951      198.7871       58.995987    
    591000   701.47409     -6833264        194.35164      197.62951      198.7871       1.8299964    
    592000   699.35656     -6833404.6      194.35164      197.62951      198.7871       16.999737    
    593000   699.4709      -6833398.4      194.35164      197.62951      198.7871      -15.468239    
    594000   700.14136     -6833349.8      194.35164      197.62951      198.7871       76.187853    
    595000   699.56158     -6833426.7      194.35164      197.62951      198.7871       46.41064     
    596000   699.09794     -6833472.5      194.35164      197.62951      198.7871      -57.154361    
    597000   699.47094     -6833352.5      194.35164      197.62951      198.7871       51.916407    
    598000   699.29132     -6833511.6      194.35164      197.62951      198.7871       101.50105    
    599000   699.59325     -6833326.8      194.35164      197.62951      198.7871       199.06289    
    600000   698.83858     -6833516        194.35164      197.62951      198.7871      -52.1849      
    601000   699.83886     -6833325        194.35164      197.62951      198.7871       69.900236    
    602000   698.29567     -6833470.1      194.35164      197.62951      198.7871       155.22859    
    603000   700.03798     -6833297        194.35164      197.62951      198.7871       48.239288    
    604000   700.30963     -6833227.3      194.35164      197.62951      198.7871       162.40021    
    605000   699.85433     -6833390.2      194.35164      197.62951      198.7871       39.835268    
    606000   700.29435     -6833264.9      194.35164      197.62951      198.7871       109.57745    
    607000   699.77311     -6833250.4      194.35164      197.62951      198.7871       211.19366    
    608000   698.66422     -6833367.9      194.35164      197.62951      198.7871       14.555939    
    609000   698.9686      -6833453.8      194.35164      197.62951      198.7871       76.469272    
    610000   699.19454     -6833487.9      194.35164      197.62951      198.7871       40.469862    
    611000   700.46225     -6833332.4      194.35164      197.62951      198.7871       77.971092    
    612000   699.31902     -6833321.8      194.35164      197.62951      198.7871       41.762599    
    613000   699.91116     -6833389.3      194.35164      197.62951      198.7871       17.383731    
    614000   699.30816     -6833496.6      194.35164      197.62951      198.7871      -65.906774    
    615000   700.62586     -6833309.3      194.35164      197.62951      198.7871       58.655605    
    616000   700.53243     -6833354.9      194.35164      197.62951      198.7871      -140.36354    
    617000   699.15199     -6833398.5      194.35164      197.62951      198.7871      -18.094382    
    618000   699.68406     -6833349.1      194.35164      197.62951      198.7871       73.520746    
    619000   698.86293     -6833426.3      194.35164      197.62951      198.7871       60.810336    
    620000   701.52654     -6833323.6      194.35164      197.62951      198.7871      -16.35282     
    621000   699.95062     -6833298.2      194.35164      197.62951      198.7871      -18.26188     
    622000   698.58691     -6833384.5      194.35164      197.62951      198.7871       95.170041    
    623000   700.10852     -6833380.4      194.35164      197.62951      198.7871       76.601591    
    624000   700.09186     -6833426.7      194.35164      197.62951      198.7871      -48.465715    
    625000   701.18899     -6833441.8      194.35164      197.62951      198.7871      -68.808159    
    626000   699.44005     -6833434.5      194.35164      197.62951      198.7871      -45.277808    
    627000   698.90972     -6833439.6      194.35164      197.62951      198.7871       95.074962    
    628000   699.29054     -6833399.5      194.35164      197.62951      198.7871       175.49353    
    629000   699.7375      -6833454        194.35164      197.62951      198.7871      -15.364015    
    630000   700.41043     -6833218.7      194.35164      197.62951      198.7871       157.00854    
    631000   700.9056      -6833393.3      194.35164      197.62951      198.7871       83.065577    
    632000   699.57498     -6833457.3      194.35164      197.62951      198.7871      -64.524068    
    633000   699.93244     -6833424.1      194.35164      197.62951      198.7871       73.22788     
    634000   699.98402     -6833395.7      194.35164      197.62951      198.7871      -62.448288    
    635000   699.73642     -6833345.1      194.35164      197.62951      198.7871       72.318823    
    636000   700.01134     -6833314        194.35164      197.62951      198.7871       156.66217    
    637000   701.34347     -6833279.4      194.35164      197.62951      198.7871       123.91133    
    638000   698.75469     -6833512.1      194.35164      197.62951      198.7871      -1.7397315    
    639000   700.60879     -6833203        194.35164      197.62951      198.7871       41.090875    
    640000   700.75214     -6833268.5      194.35164      197.62951      198.7871       104.29884    
    641000   699.7332      -6833409.7      194.35164      197.62951      198.7871       24.912206    
    642000   701.20888     -6833312        194.35164      197.62951      198.7871       22.935644    
    643000   700.18567     -6833288.4      194.35164      197.62951      198.7871       145.84524    
    644000   700.37843     -6833348.6      194.35164      197.62951      198.7871       141.92875    
    645000   699.97017     -6833439.9      194.35164      197.62951      198.7871      -6.9152271    
    646000   701.2102      -6833232        194.35164      197.62951      198.7871      -166.90108    
    647000   699.54192     -6833417.2      194.35164      197.62951      198.7871      -8.064394     
    648000   700.07886     -6833310.8      194.35164      197.62951      198.7871       20.506481    
    649000   700.62425     -6833330.4      194.35164      197.62951      198.7871       77.752428    
    650000   700.14583     -6833278.3      194.35164      197.62951      198.7871       28.639555    
    651000   699.3479      -6833407.6      194.35164      197.62951      198.7871       87.346917    
    652000   699.76509     -6833299.1      194.35164      197.62951      198.7871      -10.368254    
    653000   698.12301     -6833558.4      194.35164      197.62951      198.7871      -60.720264    
    654000   699.46681     -6833451.5      194.35164      197.62951      198.7871      -57.911958    
    655000   699.89575     -6833425.8      194.35164      197.62951      198.7871       10.23446     
    656000   699.17792     -6833407.3      194.35164      197.62951      198.7871       77.480129    
    657000   699.23384     -6833371.5      194.35164      197.62951      198.7871       93.685368    
    658000   700.43534     -6833380        194.35164      197.62951      198.7871       53.04622     
    659000   700.34153     -6833276.8      194.35164      197.62951      198.7871       15.106664    
    660000   698.92015     -6833372.1      194.35164      197.62951      198.7871       103.78394    
    661000   700.3004      -6833414.4      194.35164      197.62951      198.7871       38.526304    
    662000   698.86641     -6833434.5      194.35164      197.62951      198.7871       60.575794    
    663000   701.1057      -6833295.4      194.35164      197.62951      198.7871       80.43879     
    664000   699.01979     -6833429.2      194.35164      197.62951      198.7871       78.852773    
    665000   699.42898     -6833449.1      194.35164      197.62951      198.7871      -130.81076    
    666000   699.93586     -6833355        194.35164      197.62951      198.7871      -40.517488    
    667000   700.11317     -6833281.3      194.35164      197.62951      198.7871       13.633995    
    668000   698.77796     -6833502.3      194.35164      197.62951      198.7871       73.354609    
    669000   698.92007     -6833387.1      194.35164      197.62951      198.7871      -4.0038154    
    670000   699.51113     -6833349.5      194.35164      197.62951      198.7871       0.43151093   
    671000   699.57063     -6833365.6      194.35164      197.62951      198.7871      -150.28029    
    672000   700.82927     -6833308.2      194.35164      197.62951      198.7871      -2.5716619    
    673000   700.73126     -6833273.3      194.35164      197.62951      198.7871      -88.856051    
    674000   700.89894     -6833337.3      194.35164      197.62951      198.7871       64.491018    
    675000   699.21499     -6833448        194.35164      197.62951      198.7871       61.480619    
    676000   698.87116     -6833465.8      194.35164      197.62951      198.7871      -52.151093    
    677000   701.37103     -6833371.3      194.35164      197.62951      198.7871       93.785899    
    678000   699.43418     -6833495.5      194.35164      197.62951      198.7871       93.747145    
    679000   700.17781     -6833306.9      194.35164      197.62951      198.7871       114.7258     
    680000   698.17399     -6833517.5      194.35164      197.62951      198.7871      -0.8020046    
    681000   698.32074     -6833573.1      194.35164      197.62951      198.7871      -91.345565    
    682000   699.54676     -6833337.7      194.35164      197.62951      198.7871      -88.887426    
    683000   699.50676     -6833383.6      194.35164      197.62951      198.7871       89.435951    
    684000   700.77052     -6833208.6      194.35164      197.62951      198.7871       73.247076    
    685000   699.5606      -6833423.3      194.35164      197.62951      198.7871      -21.997139    
    686000   699.81876     -6833328.9      194.35164      197.62951      198.7871       129.62786    
    687000   699.78334     -6833348.7      194.35164      197.62951      198.7871       53.538101    
    688000   699.70327     -6833388.8      194.35164      197.62951      198.7871       53.793057    
    689000   699.78214     -6833352.2      194.35164      197.62951      198.7871       19.13152     
    690000   699.81243     -6833350.2      194.35164      197.62951      198.7871       84.951476    
    691000   699.56567     -6833305.9      194.35164      197.62951      198.7871       80.94753     
    692000   700.26608     -6833342.7      194.35164      197.62951      198.7871      -37.624086    
    693000   698.86669     -6833394.1      194.35164      197.62951      198.7871       127.88731    
    694000   699.1546      -6833408.1      194.35164      197.62951      198.7871       99.014991    
    695000   699.92906     -6833302.6      194.35164      197.62951      198.7871       34.835803    
    696000   699.29688     -6833310.4      194.35164      197.62951      198.7871       52.478689    
    697000   700.90539     -6833330.1      194.35164      197.62951      198.7871       113.86686    
    698000   699.68059     -6833395.8      194.35164      197.62951      198.7871       28.31198     
    699000   700.91545     -6833250.8      194.35164      197.62951      198.7871       69.3102      
    700000   700.1105      -6833300.4      194.35164      197.62951      198.7871       96.459416    
    701000   701.33039     -6833260.3      194.35164      197.62951      198.7871       59.310003    
    702000   700.38216     -6833256.3      194.35164      197.62951      198.7871       43.697352    
    703000   700.57929     -6833292.2      194.35164      197.62951      198.7871       70.210858    
    704000   699.74632     -6833308.1      194.35164      197.62951      198.7871       95.4526      
    705000   699.505       -6833452.7      194.35164      197.62951      198.7871       11.998899    
    706000   699.93442     -6833292.8      194.35164      197.62951      198.7871       80.62948     
    707000   700.66022     -6833361.6      194.35164      197.62951      198.7871       60.3573      
    708000   699.47496     -6833378.2      194.35164      197.62951      198.7871       186.42654    
    709000   700.39216     -6833273.7      194.35164      197.62951      198.7871       40.247906    
    710000   698.88671     -6833438.7      194.35164      197.62951      198.7871       134.12408    
    711000   700.89217     -6833230.5      194.35164      197.62951      198.7871       175.79299    
    712000   701.42827     -6833293        194.35164      197.62951      198.7871      -20.069279    
    713000   700.1124      -6833487.2      194.35164      197.62951      198.7871       18.527943    
    714000   699.57893     -6833368.8      194.35164      197.62951      198.7871       87.677717    
    715000   699.82968     -6833403.9      194.35164      197.62951      198.7871      -146.37889    
    716000   699.52998     -6833326.2      194.35164      197.62951      198.7871       154.19777    
    717000   701.02514     -6833305.8      194.35164      197.62951      198.7871       115.2892     
    718000   701.08984     -6833197.9      194.35164      197.62951      198.7871       137.18351    
    719000   699.61653     -6833423.7      194.35164      197.62951      198.7871       44.180754    
    720000   700.14388     -6833302.6      194.35164      197.62951      198.7871       133.89113    
    721000   699.19897     -6833452.6      194.35164      197.62951      198.7871       46.569461    
    722000   700.15223     -6833235.5      194.35164      197.62951      198.7871       176.10545    
    723000   698.47107     -6833479        194.35164      197.62951      198.7871       96.880766    
    724000   698.71132     -6833449.5      194.35164      197.62951      198.7871      -169.48516    
    725000   700.38468     -6833308.8      194.35164      197.62951      198.7871       14.533229    
    726000   699.11105     -6833435.6      194.35164      197.62951      198.7871      -59.474607    
    727000   700.92654     -6833279.5      194.35164      197.62951      198.7871       15.131888    
    728000   700.88368     -6833380.4      194.35164      197.62951      198.7871       49.84902     
    729000   700.29538     -6833285.2      194.35164      197.62951      198.7871       119.02345    
    730000   699.35561     -6833476.4      194.35164      197.62951      198.7871      -125.1859     
    731000   699.97774     -6833310.4      194.35164      197.62951      198.7871       42.278129    
    732000   699.09918     -6833300.2      194.35164      197.62951      198.7871       111.20533    
    733000   699.90386     -6833319.9      194.35164      197.62951      198.7871       37.113181    
    734000   700.54603     -6833297.7      194.35164      197.62951      198.7871      -16.34019     
    735000   699.33523     -6833325.7      194.35164      197.62951      198.7871      -32.708253    
    736000   698.7449      -6833406.5      194.35164      197.62951      198.7871       48.147052    
    737000   700.31765     -6833302.9      194.35164      197.62951      198.7871       48.236857    
    738000   699.89974     -6833389.5      194.35164      197.62951      198.7871       41.770287    
    739000   699.6615      -6833341.9      194.35164      197.62951      198.7871       94.413242    
    740000   699.45653     -6833425        194.35164      197.62951      198.7871       12.941158    
    741000   699.78412     -6833422.6      194.35164      197.62951      198.7871      -26.596317    
    742000   700.33961     -6833314.9      194.35164      197.62951      198.7871       33.738108    
    743000   700.0897      -6833396.3      194.35164      197.62951      198.7871       37.712469    
    744000   699.42445     -6833343        194.35164      197.62951      198.7871      -80.497436    
    745000   700.29999     -6833381.6      194.35164      197.62951      198.7871      -46.046754    
    746000   699.19858     -6833409.5      194.35164      197.62951      198.7871      -33.89793     
    747000   699.17474     -6833377.1      194.35164      197.62951      198.7871       85.764165    
    748000   698.71319     -6833458.2      194.35164      197.62951      198.7871      -22.710397    
    749000   700.63129     -6833299.8      194.35164      197.62951      198.7871       48.24666     
    750000   700.47712     -6833290.5      194.35164      197.62951      198.7871      -42.719696    
    751000   699.778       -6833401.9      194.35164      197.62951      198.7871       127.27856    
    752000   700.3105      -6833387.4      194.35164      197.62951      198.7871      -63.738972    
    753000   699.58818     -6833449.3      194.35164      197.62951      198.7871       106.4949     
    754000   698.32096     -6833508.4      194.35164      197.62951      198.7871       38.946653    
    755000   700.23355     -6833366.1      194.35164      197.62951      198.7871       25.604993    
    756000   700.63705     -6833344.7      194.35164      197.62951      198.7871       10.049281    
    757000   699.41131     -6833538.5      194.35164      197.62951      198.7871      -72.414286    
    758000   699.91219     -6833355.8      194.35164      197.62951      198.7871      -126.74285    
    759000   701.24879     -6833223.9      194.35164      197.62951      198.7871       80.597333    
    760000   699.87995     -6833394.3      194.35164      197.62951      198.7871       73.530104    
    761000   700.08171     -6833283.6      194.35164      197.62951      198.7871       92.481321    
    762000   699.55825     -6833360.2      194.35164      197.62951      198.7871       33.632325    
    763000   699.87929     -6833419.3      194.35164      197.62951      198.7871       117.64908    
    764000   699.35621     -6833367.9      194.35164      197.62951      198.7871       111.14954    
    765000   701.02998     -6833333.1      194.35164      197.62951      198.7871      -37.717844    
    766000   700.26447     -6833293.5      194.35164      197.62951      198.7871       14.255723    
    767000   700.07064     -6833251        194.35164      197.62951      198.7871       51.514995    
    768000   700.06238     -6833247.7      194.35164      197.62951      198.7871       154.85881    
    769000   699.34471     -6833384.5      194.35164      197.62951      198.7871       1.2985051    
    770000   700.25888     -6833342.9      194.35164      197.62951      198.7871       30.467442    
    771000   699.6515      -6833385.6      194.35164      197.62951      198.7871       116.07648    
    772000   700.48455     -6833341.3      194.35164      197.62951      198.7871       22.56701     
    773000   699.75507     -6833353.8      194.35164      197.62951      198.7871       109.68555    
    774000   699.28399     -6833514.2      194.35164      197.62951      198.7871       30.37483     
    775000   699.27158     -6833467        194.35164      197.62951      198.7871      -105.01356    
    776000   699.92593     -6833330.4      194.35164      197.62951      198.7871       71.984406    
    777000   701.74301     -6833274.7      194.35164      197.62951      198.7871       32.436028    
    778000   700.4171      -6833291.1      194.35164      197.62951      198.7871      -5.7053883    
    779000   699.47483     -6833421.5      194.35164      197.62951      198.7871       140.29623    
    780000   701.67981     -6833278.3      194.35164      197.62951      198.7871       119.8722     
    781000   699.99833     -6833392.8      194.35164      197.62951      198.7871       123.50525    
    782000   699.44325     -6833362.1      194.35164      197.62951      198.7871       95.53159     
    783000   700.27379     -6833246.4      194.35164      197.62951      198.7871       156.89836    
    784000   700.0149      -6833304.7      194.35164      197.62951      198.7871       29.895987    
    785000   699.92341     -6833459.3      194.35164      197.62951      198.7871      -122.27001    
    786000   700.92687     -6833369.2      194.35164      197.62951      198.7871       17.890037    
    787000   699.75069     -6833399.4      194.35164      197.62951      198.7871      -130.70378    
    788000   700.28897     -6833310.5      194.35164      197.62951      198.7871      -12.569627    
    789000   700.32698     -6833301.9      194.35164      197.62951      198.7871      -16.749295    
    790000   699.7916      -6833398.9      194.35164      197.62951      198.7871      -63.65517     
    791000   699.83358     -6833394.9      194.35164      197.62951      198.7871       162.70514    
    792000   699.85881     -6833367.6      194.35164      197.62951      198.7871       123.33883    
    793000   700.42722     -6833324.4      194.35164      197.62951      198.7871       83.07203     
    794000   700.32324     -6833320        194.35164      197.62951      198.7871      -29.441801    
    795000   699.83401     -6833391.4      194.35164      197.62951      198.7871       30.954711    
    796000   699.8765      -6833385.2      194.35164      197.62951      198.7871      -122.72037    
    797000   701.2906      -6833200.5      194.35164      197.62951      198.7871       81.34286     
    798000   700.47393     -6833336.7      194.35164      197.62951      198.7871      -30.565205    
    799000   700.6056      -6833293.2      194.35164      197.62951      198.7871       81.259177    
    800000   700.07067     -6833296.8      194.35164      197.62951      198.7871      -71.160033    
    801000   700.44386     -6833233.3      194.35164      197.62951      198.7871       52.734082    
    802000   700.84873     -6833226.7      194.35164      197.62951      198.7871       163.72811    
    803000   701.32399     -6833268.8      194.35164      197.62951      198.7871       32.010211    
    804000   699.7076      -6833503        194.35164      197.62951      198.7871      -15.396089    
    805000   699.29063     -6833374.5      194.35164      197.62951      198.7871       100.07443    
    806000   700.15552     -6833441.5      194.35164      197.62951      198.7871       83.264779    
    807000   700.40489     -6833294.7      194.35164      197.62951      198.7871      -14.107664    
    808000   701.1873      -6833233.4      194.35164      197.62951      198.7871       84.59311     
    809000   701.81621     -6833276        194.35164      197.62951      198.7871       82.883887    
    810000   699.27385     -6833497.1      194.35164      197.62951      198.7871      -33.690121    
    811000   700.08949     -6833309.3      194.35164      197.62951      198.7871      -8.7261319    
    812000   699.71176     -6833373.7      194.35164      197.62951      198.7871       12.766786    
    813000   699.91216     -6833339.6      194.35164      197.62951      198.7871       101.49202    
    814000   699.51088     -6833289.2      194.35164      197.62951      198.7871       125.56489    
    815000   698.71918     -6833543        194.35164      197.62951      198.7871      -0.72137349   
    816000   699.57122     -6833346.4      194.35164      197.62951      198.7871      -50.640348    
    817000   699.94857     -6833307.8      194.35164      197.62951      198.7871       60.226369    
    818000   700.31153     -6833309        194.35164      197.62951      198.7871       96.718151    
    819000   700.71521     -6833339        194.35164      197.62951      198.7871       7.3326311    
    820000   698.84623     -6833504.5      194.35164      197.62951      198.7871       74.993775    
    821000   700.348       -6833250.9      194.35164      197.62951      198.7871       64.518136    
    822000   700.3155      -6833297.7      194.35164      197.62951      198.7871       102.43818    
    823000   700.90362     -6833214.7      194.35164      197.62951      198.7871       18.438443    
    824000   700.51757     -6833345.1      194.35164      197.62951      198.7871       76.681384    
    825000   700.53161     -6833329.1      194.35164      197.62951      198.7871      -65.630139    
    826000   699.44616     -6833357.2      194.35164      197.62951      198.7871      -19.166802    
    827000   699.40763     -6833485.7      194.35164      197.62951      198.7871       36.639518    
    828000   700.51691     -6833288.4      194.35164      197.62951      198.7871       81.830104    
    829000   699.26495     -6833348.9      194.35164      197.62951      198.7871       94.0421      
    830000   698.62985     -6833439.1      194.35164      197.62951      198.7871       33.315661    
    831000   700.39112     -6833347.5      194.35164      197.62951      198.7871      -37.989114    
    832000   701.93007     -6833202.8      194.35164      197.62951      198.7871       26.15029     
    833000   699.27966     -6833472.6      194.35164      197.62951      198.7871      -26.868589    
    834000   699.9997      -6833464.6      194.35164      197.62951      198.7871      -62.3465      
    835000   699.96108     -6833405.2      194.35164      197.62951      198.7871       105.60537    
    836000   699.82897     -6833388.9      194.35164      197.62951      198.7871       65.130756    
    837000   699.20959     -6833561.4      194.35164      197.62951      198.7871      -55.1469      
    838000   699.95828     -6833378.2      194.35164      197.62951      198.7871       31.255417    
    839000   699.00771     -6833367.1      194.35164      197.62951      198.7871       186.3789     
    840000   700.42641     -6833310.6      194.35164      197.62951      198.7871       148.42427    
    841000   699.69627     -6833403.6      194.35164      197.62951      198.7871       81.213797    
    842000   700.1661      -6833341.6      194.35164      197.62951      198.7871       78.572284    
    843000   699.5634      -6833551.8      194.35164      197.62951      198.7871       82.831867    
    844000   699.10593     -6833353.2      194.35164      197.62951      198.7871       64.325107    
    845000   699.73456     -6833338.6      194.35164      197.62951      198.7871       50.487175    
    846000   700.18009     -6833403.3      194.35164      197.62951      198.7871       67.866984    
    847000   701.94232     -6833193        194.35164      197.62951      198.7871       124.69408    
    848000   699.95997     -6833291        194.35164      197.62951      198.7871       27.657514    
    849000   698.35402     -6833465.3      194.35164      197.62951      198.7871       81.792026    
    850000   699.9843      -6833376.2      194.35164      197.62951      198.7871      -76.200408    
    851000   700.36327     -6833267.9      194.35164      197.62951      198.7871      -113.08604    
    852000   700.25966     -6833466.6      194.35164      197.62951      198.7871      -9.4728978    
    853000   700.1495      -6833395.3      194.35164      197.62951      198.7871      -20.778062    
    854000   699.2183      -6833461.6      194.35164      197.62951      198.7871       60.210777    
    855000   700.22957     -6833413.2      194.35164      197.62951      198.7871      -45.012732    
    856000   700.92416     -6833268.2      194.35164      197.62951      198.7871       4.4855335    
    857000   700.0361      -6833352.6      194.35164      197.62951      198.7871       84.245359    
    858000   699.34869     -6833428.9      194.35164      197.62951      198.7871       7.0148959    
    859000   699.37126     -6833344.7      194.35164      197.62951      198.7871       154.27634    
    860000   700.6245      -6833333.7      194.35164      197.62951      198.7871      -62.218271    
    861000   699.92637     -6833407        194.35164      197.62951      198.7871       1.9227799    
    862000   701.58786     -6833254.8      194.35164      197.62951      198.7871       36.352524    
    863000   700.52923     -6833395.4      194.35164      197.62951      198.7871       56.821599    
    864000   701.12508     -6833205.8      194.35164      197.62951      198.7871       5.71813      
    865000   700.42146     -6833266.7      194.35164      197.62951      198.7871       111.62688    
    866000   699.32912     -6833421.6      194.35164      197.62951      198.7871       13.360973    
    867000   699.59389     -6833300        194.35164      197.62951      198.7871       124.23043    
    868000   698.42922     -6833569        194.35164      197.62951      198.7871       5.0078581    
    869000   700.13298     -6833374.6      194.35164      197.62951      198.7871       3.6701563    
    870000   701.30596     -6833260.6      194.35164      197.62951      198.7871      -19.463082    
    871000   700.93475     -6833246.9      194.35164      197.62951      198.7871       57.9284      
    872000   700.55179     -6833382.9      194.35164      197.62951      198.7871       86.529091    
    873000   698.9604      -6833514.2      194.35164      197.62951      198.7871       21.742326    
    874000   699.26527     -6833448.8      194.35164      197.62951      198.7871       71.92927     
    875000   700.8921      -6833382.6      194.35164      197.62951      198.7871      -40.035128    
    876000   699.65471     -6833352.1      194.35164      197.62951      198.7871       81.213716    
    877000   699.82437     -6833339.9      194.35164      197.62951      198.7871       126.77686    
    878000   700.35139     -6833195.9      194.35164      197.62951      198.7871      -19.940166    
    879000   700.50908     -6833438.4      194.35164      197.62951      198.7871      -67.589968    
    880000   700.01088     -6833311        194.35164      197.62951      198.7871       123.52139    
    881000   698.90478     -6833365.2      194.35164      197.62951      198.7871      -7.287603     
    882000   700.76095     -6833402.8      194.35164      197.62951      198.7871      -99.544853    
    883000   700.2949      -6833332.1      194.35164      197.62951      198.7871      -1.5035923    
    884000   698.75275     -6833438.9      194.35164      197.62951      198.7871       40.269292    
    885000   700.86835     -6833325.6      194.35164      197.62951      198.7871      -40.797666    
    886000   701.04504     -6833220.7      194.35164      197.62951      198.7871       149.22134    
    887000   699.23128     -6833452.7      194.35164      197.62951      198.7871      -25.797017    
    888000   699.95793     -6833305.2      194.35164      197.62951      198.7871       155.32573    
    889000   700.2         -6833329.4      194.35164      197.62951      198.7871       60.726968    
    890000   699.43829     -6833351.8      194.35164      197.62951      198.7871      -16.678204    
    891000   700.88879     -6833276.8      194.35164      197.62951      198.7871      -74.793801    
    892000   699.72145     -6833388.1      194.35164      197.62951      198.7871      -20.188574    
    893000   702.41099     -6833253.3      194.35164      197.62951      198.7871      -47.577457    
    894000   699.048       -6833295        194.35164      197.62951      198.7871      -28.197942    
    895000   699.25593     -6833517.7      194.35164      197.62951      198.7871      -93.249265    
    896000   700.53048     -6833317.5      194.35164      197.62951      198.7871      -27.054201    
    897000   699.13944     -6833417.7      194.35164      197.62951      198.7871      -20.255222    
    898000   700.65835     -6833346.8      194.35164      197.62951      198.7871       47.795125    
    899000   700.31527     -6833369.1      194.35164      197.62951      198.7871       161.18787    
    900000   700.09215     -6833301.1      194.35164      197.62951      198.7871      -6.161428     
    901000   699.68174     -6833489        194.35164      197.62951      198.7871      -60.362729    
    902000   701.44656     -6833295.5      194.35164      197.62951      198.7871       16.19592     
    903000   699.50223     -6833319.1      194.35164      197.62951      198.7871       74.825216    
    904000   699.05493     -6833485.5      194.35164      197.62951      198.7871       76.299704    
    905000   698.8824      -6833343.6      194.35164      197.62951      198.7871       149.65465    
    906000   698.82892     -6833339        194.35164      197.62951      198.7871       220.49025    
    907000   699.69248     -6833411.3      194.35164      197.62951      198.7871      -145.0719     
    908000   699.25561     -6833317.9      194.35164      197.62951      198.7871       172.78182    
    909000   699.79625     -6833302.2      194.35164      197.62951      198.7871       158.36954    
    910000   701.03423     -6833212.7      194.35164      197.62951      198.7871      -4.6669167    
    911000   699.55919     -6833429.8      194.35164      197.62951      198.7871      -12.17159     
    912000   699.85835     -6833371.7      194.35164      197.62951      198.7871       15.921903    
    913000   699.80162     -6833377.5      194.35164      197.62951      198.7871       43.640409    
    914000   701.07999     -6833309.8      194.35164      197.62951      198.7871       13.463135    
    915000   699.59447     -6833417.2      194.35164      197.62951      198.7871       88.070467    
    916000   700.8169      -6833233.1      194.35164      197.62951      198.7871       16.900262    
    917000   701.4991      -6833264.7      194.35164      197.62951      198.7871      -1.8280641    
    918000   698.74352     -6833498.2      194.35164      197.62951      198.7871      -6.293251     
    919000   698.61429     -6833454.5      194.35164      197.62951      198.7871      -85.501021    
    920000   700.5423      -6833333        194.35164      197.62951      198.7871       101.82437    
    921000   701.18039     -6833182.5      194.35164      197.62951      198.7871       37.748494    
    922000   700.94443     -6833260.3      194.35164      197.62951      198.7871      -7.2106534    
    923000   700.01046     -6833368.4      194.35164      197.62951      198.7871       83.773521    
    924000   699.23051     -6833417.7      194.35164      197.62951      198.7871       128.82822    
    925000   699.29374     -6833509.6      194.35164      197.62951      198.7871      -21.234739    
    926000   700.9305      -6833339.5      194.35164      197.62951      198.7871      -6.282292     
    927000   699.43104     -6833384.4      194.35164      197.62951      198.7871      -36.78482     
    928000   700.34384     -6833325.8      194.35164      197.62951      198.7871       20.927877    
    929000   700.14683     -6833306.1      194.35164      197.62951      198.7871       11.176065    
    930000   700.03812     -6833342.8      194.35164      197.62951      198.7871       78.323238    
    931000   700.59675     -6833375.1      194.35164      197.62951      198.7871       117.37918    
    932000   701.05294     -6833301        194.35164      197.62951      198.7871       46.66863     
    933000   700.30972     -6833408.1      194.35164      197.62951      198.7871       103.44931    
    934000   698.74936     -6833468.2      194.35164      197.62951      198.7871      -34.30962     
    935000   700.33081     -6833315        194.35164      197.62951      198.7871       81.199505    
    936000   698.73312     -6833524.3      194.35164      197.62951      198.7871      -15.323359    
    937000   700.6504      -6833259.6      194.35164      197.62951      198.7871       160.72121    
    938000   699.4627      -6833419        194.35164      197.62951      198.7871       117.28182    
    939000   698.57847     -6833482.6      194.35164      197.62951      198.7871       146.67841    
    940000   699.75744     -6833363.8      194.35164      197.62951      198.7871       56.500934    
    941000   699.44718     -6833369.1      194.35164      197.62951      198.7871       90.291938    
    942000   700.21543     -6833386.6      194.35164      197.62951      198.7871       63.751885    
    943000   699.20688     -6833408.3      194.35164      197.62951      198.7871       99.961369    
    944000   699.49991     -6833414.4      194.35164      197.62951      198.7871       59.236682    
    945000   701.14722     -6833287.8      194.35164      197.62951      198.7871       66.826833    
    946000   700.95896     -6833351.5      194.35164      197.62951      198.7871       44.668868    
    947000   701.33842     -6833222        194.35164      197.62951      198.7871       0.97303366   
    948000   700.72145     -6833333        194.35164      197.62951      198.7871       95.084685    
    949000   700.57721     -6833333.5      194.35164      197.62951      198.7871      -34.218478    
    950000   699.39986     -6833480.9      194.35164      197.62951      198.7871       115.38895    
    951000   699.98282     -6833336.2      194.35164      197.62951      198.7871       122.52571    
    952000   700.05262     -6833371.4      194.35164      197.62951      198.7871       4.3104815    
    953000   700.45336     -6833278.8      194.35164      197.62951      198.7871       84.801941    
    954000   699.64754     -6833426.6      194.35164      197.62951      198.7871      -104.41456    
    955000   698.99266     -6833474.5      194.35164      197.62951      198.7871      -59.262158    
    956000   700.58893     -6833403.4      194.35164      197.62951      198.7871      -50.290074    
    957000   699.33224     -6833435        194.35164      197.62951      198.7871      -38.087321    
    958000   700.62226     -6833369.6      194.35164      197.62951      198.7871      -61.625319    
    959000   700.51053     -6833322.4      194.35164      197.62951      198.7871       102.32591    
    960000   699.70259     -6833376        194.35164      197.62951      198.7871       11.116405    
    961000   700.09703     -6833374.2      194.35164      197.62951      198.7871       7.9696338    
    962000   699.38158     -6833360.4      194.35164      197.62951      198.7871       59.576049    
    963000   698.5433      -6833488.4      194.35164      197.62951      198.7871      -112.17541    
    964000   699.71116     -6833428.2      194.35164      197.62951      198.7871       40.991573    
    965000   700.63319     -6833380.5      194.35164      197.62951      198.7871      -7.7135127    
    966000   699.72777     -6833296.7      194.35164      197.62951      198.7871      -55.43656     
    967000   700.41651     -6833303.4      194.35164      197.62951      198.7871       91.059212    
    968000   700.03381     -6833384        194.35164      197.62951      198.7871       25.27262     
    969000   699.9051      -6833317.6      194.35164      197.62951      198.7871       20.882537    
    970000   699.08253     -6833445.5      194.35164      197.62951      198.7871      -78.08103     
    971000   699.59707     -6833415.4      194.35164      197.62951      198.7871       102.51157    
    972000   699.80541     -6833322.1      194.35164      197.62951      198.7871       61.681481    
    973000   698.95785     -6833460.9      194.35164      197.62951      198.7871       43.323194    
    974000   701.21372     -6833281.5      194.35164      197.62951      198.7871       27.752234    
    975000   700.5618      -6833237.8      194.35164      197.62951      198.7871       96.958634    
    976000   699.59359     -6833435.4      194.35164      197.62951      198.7871      -88.489895    
    977000   699.07343     -6833375.4      194.35164      197.62951      198.7871       148.36215    
    978000   700.77458     -6833271.3      194.35164      197.62951      198.7871       113.56823    
    979000   700.34187     -6833322.8      194.35164      197.62951      198.7871       50.680694    
    980000   699.8238      -6833448.2      194.35164      197.62951      198.7871      -39.875678    
    981000   699.87723     -6833353.3      194.35164      197.62951      198.7871       18.672499    
    982000   700.7421      -6833307.1      194.35164      197.62951      198.7871       80.699764    
    983000   700.13119     -6833288.9      194.35164      197.62951      198.7871       125.91808    
    984000   700.35237     -6833241.4      194.35164      197.62951      198.7871       76.149672    
    985000   700.61765     -6833143.1      194.35164      197.62951      198.7871       169.81598    
    986000   700.25574     -6833368.2      194.35164      197.62951      198.7871      -24.645198    
    987000   701.68694     -6833199.6      194.35164      197.62951      198.7871       66.857211    
    988000   699.55026     -6833473.7      194.35164      197.62951      198.7871      -161.82348    
    989000   700.36819     -6833380.2      194.35164      197.62951      198.7871      -21.916443    
    990000   699.53002     -6833459.1      194.35164      197.62951      198.7871      -134.2591     
    991000   700.11246     -6833405.4      194.35164      197.62951      198.7871      -80.009722    
    992000   700.5364      -6833360.1      194.35164      197.62951      198.7871      -72.174704    
    993000   701.06597     -6833304.2      194.35164      197.62951      198.7871      -101.64777    
    994000   699.87077     -6833414.4      194.35164      197.62951      198.7871      -82.168889    
    995000   701.14808     -6833158        194.35164      197.62951      198.7871       98.970809    
    996000   699.65402     -6833255.7      194.35164      197.62951      198.7871       246.12473    
    997000   700.36035     -6833321.4      194.35164      197.62951      198.7871      -23.064706    
    998000   699.20525     -6833520.4      194.35164      197.62951      198.7871       117.12053    
    999000   699.73875     -6833279.4      194.35164      197.62951      198.7871       73.691171    
   1000000   700.39395     -6833296.8      194.35164      197.62951      198.7871      -56.994126    
   1001000   701.96492     -6833436.1      194.35164      197.62951      198.7871       45.281979    
   1002000   699.45661     -6833271.5      194.35164      197.62951      198.7871       25.149369    
   1003000   700.27283     -6833363.6      194.35164      197.62951      198.7871       94.982739    
   1004000   699.84344     -6833420.3      194.35164      197.62951      198.7871      -19.769193    
   1005000   699.87786     -6833372.5      194.35164      197.62951      198.7871       75.569857    
   1006000   700.75683     -6833301.8      194.35164      197.62951      198.7871       117.46403    
   1007000   699.99014     -6833347.4      194.35164      197.62951      198.7871      -38.059427    
   1008000   699.74814     -6833367.3      194.35164      197.62951      198.7871       68.844284    
   1009000   700.14911     -6833269.1      194.35164      197.62951      198.7871       147.89843    
   1010000   699.61791     -6833581.2      194.35164      197.62951      198.7871       11.992841    
   1011000   700.46157     -6833368.8      194.35164      197.62951      198.7871       42.432084    
   1012000   699.69609     -6833339.1      194.35164      197.62951      198.7871       164.8766     
   1013000   699.67292     -6833378.4      194.35164      197.62951      198.7871       70.309619    
   1014000   700.97327     -6833332.9      194.35164      197.62951      198.7871       117.30139    
   1015000   701.09772     -6833250.4      194.35164      197.62951      198.7871       224.14028    
   1016000   700.11391     -6833458.9      194.35164      197.62951      198.7871       24.190322    
   1017000   700.07113     -6833366.3      194.35164      197.62951      198.7871      -36.539164    
   1018000   699.04556     -6833446.2      194.35164      197.62951      198.7871       65.91734     
   1019000   698.39153     -6833450.5      194.35164      197.62951      198.7871       124.09118    
   1020000   700.09491     -6833384.3      194.35164      197.62951      198.7871      -1.702188     
   1021000   700.08097     -6833342.1      194.35164      197.62951      198.7871       115.16304    
   1022000   700.365       -6833377.4      194.35164      197.62951      198.7871       164.86768    
   1023000   700.17473     -6833414.1      194.35164      197.62951      198.7871       36.846737    
   1024000   699.76832     -6833287.6      194.35164      197.62951      198.7871       0.059988156  
   1025000   700.02775     -6833319.5      194.35164      197.62951      198.7871       56.804894    
   1026000   700.86399     -6833256        194.35164      197.62951      198.7871       14.302445    
   1027000   698.905       -6833593        194.35164      197.62951      198.7871      -113.69237    
   1028000   699.75527     -6833299.1      194.35164      197.62951      198.7871       67.915977    
   1029000   700.73695     -6833363.4      194.35164      197.62951      198.7871      -4.9944456    
   1030000   700.86944     -6833200.8      194.35164      197.62951      198.7871       24.165843    
   1031000   700.82453     -6833308.5      194.35164      197.62951      198.7871      -33.107601    
   1032000   699.7307      -6833281.3      194.35164      197.62951      198.7871       59.752868    
   1033000   699.81461     -6833494.9      194.35164      197.62951      198.7871       38.271294    
   1034000   700.27161     -6833365.4      194.35164      197.62951      198.7871       36.558943    
   1035000   700.31078     -6833381.5      194.35164      197.62951      198.7871       65.623662    
   1036000   699.53323     -6833347.3      194.35164      197.62951      198.7871       194.72649    
   1037000   698.1149      -6833566        194.35164      197.62951      198.7871       14.789029    
   1038000   700.66505     -6833165.1      194.35164      197.62951      198.7871       115.30564    
   1039000   699.91328     -6833465.5      194.35164      197.62951      198.7871      -70.398978    
   1040000   700.12904     -6833406        194.35164      197.62951      198.7871      -48.862879    
   1041000   700.31168     -6833389.8      194.35164      197.62951      198.7871      -47.346561    
   1042000   700.41165     -6833314.9      194.35164      197.62951      198.7871      -65.004168    
   1043000   701.21203     -6833293.6      194.35164      197.62951      198.7871       11.668947    
   1044000   700.74527     -6833255.6      194.35164      197.62951      198.7871      -38.431022    
   1045000   699.93323     -6833351.8      194.35164      197.62951      198.7871       6.2383105    
   1046000   699.95896     -6833403.1      194.35164      197.62951      198.7871       21.789768    
   1047000   699.97001     -6833268.2      194.35164      197.62951      198.7871       47.405413    
   1048000   700.78519     -6833266.1      194.35164      197.62951      198.7871       86.039699    
   1049000   700.782       -6833332.8      194.35164      197.62951      198.7871       114.53524    
   1050000   698.86016     -6833459.8      194.35164      197.62951      198.7871       32.944768    
   1051000   700.7823      -6833406.3      194.35164      197.62951      198.7871      -68.854243    
   1052000   699.86842     -6833363.6      194.35164      197.62951      198.7871      -38.485043    
   1053000   699.10688     -6833407.8      194.35164      197.62951      198.7871       35.396343    
   1054000   701.04411     -6833326.5      194.35164      197.62951      198.7871      -62.654993    
   1055000   699.24626     -6833447.9      194.35164      197.62951      198.7871       0.43783741   
   1056000   700.60203     -6833367.3      194.35164      197.62951      198.7871       45.672014    
   1057000   699.3508      -6833421.3      194.35164      197.62951      198.7871       43.823139    
   1058000   700.63779     -6833319.1      194.35164      197.62951      198.7871      -71.414685    
   1059000   699.1376      -6833387.6      194.35164      197.62951      198.7871       34.078094    
   1060000   699.07968     -6833332.3      194.35164      197.62951      198.7871      -44.184813    
   1061000   699.51751     -6833342.7      194.35164      197.62951      198.7871       21.592802    
   1062000   699.34655     -6833310.7      194.35164      197.62951      198.7871       95.690852    
   1063000   699.44403     -6833432.2      194.35164      197.62951      198.7871       17.755092    
   1064000   699.52406     -6833448.4      194.35164      197.62951      198.7871      -23.592431    
   1065000   698.91436     -6833568.1      194.35164      197.62951      198.7871      -45.497448    
   1066000   700.45317     -6833344        194.35164      197.62951      198.7871       81.253095    
   1067000   698.82822     -6833370.8      194.35164      197.62951      198.7871       125.1846     
   1068000   699.2184      -6833387.1      194.35164      197.62951      198.7871       73.153445    
   1069000   699.68464     -6833368.7      194.35164      197.62951      198.7871       147.57935    
   1070000   699.37721     -6833388.3      194.35164      197.62951      198.7871       25.986275    
   1071000   699.58287     -6833353        194.35164      197.62951      198.7871       11.397726    
   1072000   701.40227     -6833170.9      194.35164      197.62951      198.7871       168.2461     
   1073000   700.29487     -6833377.8      194.35164      197.62951      198.7871      -62.965408    
   1074000   700.14441     -6833313.8      194.35164      197.62951      198.7871       185.75333    
   1075000   699.80591     -6833344.7      194.35164      197.62951      198.7871       111.61044    
   1076000   701.59749     -6833315.3      194.35164      197.62951      198.7871       122.70125    
   1077000   700.52748     -6833469.7      194.35164      197.62951      198.7871       157.50135    
   1078000   700.00953     -6833354.7      194.35164      197.62951      198.7871       28.741398    
   1079000   699.30511     -6833398.1      194.35164      197.62951      198.7871       30.372925    
   1080000   701.10425     -6833319        194.35164      197.62951      198.7871       89.273349    
   1081000   700.89922     -6833293.8      194.35164      197.62951      198.7871       105.55586    
   1082000   700.29448     -6833291.5      194.35164      197.62951      198.7871       109.02647    
   1083000   700.82785     -6833346.8      194.35164      197.62951      198.7871       109.23183    
   1084000   699.5418      -6833319.2      194.35164      197.62951      198.7871       177.28628    
   1085000   699.76857     -6833412.5      194.35164      197.62951      198.7871       55.509923    
   1086000   700.67338     -6833234.9      194.35164      197.62951      198.7871       128.88591    
   1087000   699.30544     -6833421.9      194.35164      197.62951      198.7871       29.46814     
   1088000   699.50174     -6833410.8      194.35164      197.62951      198.7871       45.736139    
   1089000   701.51551     -6833259.5      194.35164      197.62951      198.7871       88.091156    
   1090000   700.16017     -6833356.4      194.35164      197.62951      198.7871      -6.9181984    
   1091000   700.55038     -6833292.6      194.35164      197.62951      198.7871       248.40497    
   1092000   700.22466     -6833332.6      194.35164      197.62951      198.7871      -41.224308    
   1093000   700.61754     -6833339.5      194.35164      197.62951      198.7871       41.736574    
   1094000   699.46572     -6833376.3      194.35164      197.62951      198.7871      -126.92532    
   1095000   700.40498     -6833287.2      194.35164      197.62951      198.7871       100.60002    
   1096000   700.09659     -6833297.3      194.35164      197.62951      198.7871       24.961281    
   1097000   699.9302      -6833327.4      194.35164      197.62951      198.7871       105.60155    
   1098000   700.2422      -6833281.3      194.35164      197.62951      198.7871       24.653002    
   1099000   701.60141     -6833191.8      194.35164      197.62951      198.7871      -51.008216    
   1100000   700.54675     -6833420.6      194.35164      197.62951      198.7871      -14.801809    
   1101000   700.9984      -6833336.6      194.35164      197.62951      198.7871       41.034954    
   1102000   700.4578      -6833277.4      194.35164      197.62951      198.7871       212.38274    
   1103000   700.79473     -6833333.8      194.35164      197.62951      198.7871       108.80546    
   1104000   700.28766     -6833438.8      194.35164      197.62951      198.7871      -31.88341     
   1105000   699.9117      -6833396.1      194.35164      197.62951      198.7871       170.96513    
   1106000   700.20789     -6833391.4      194.35164      197.62951      198.7871       59.031579    
   1107000   699.82919     -6833422        194.35164      197.62951      198.7871      -46.873824    
   1108000   698.97936     -6833449        194.35164      197.62951      198.7871      -88.700934    
   1109000   699.34596     -6833457.5      194.35164      197.62951      198.7871      -92.545585    
   1110000   699.4099      -6833335.8      194.35164      197.62951      198.7871      -89.412993    
   1111000   699.6286      -6833438.3      194.35164      197.62951      198.7871      -166.36906    
   1112000   699.72913     -6833431.5      194.35164      197.62951      198.7871      -5.3149474    
   1113000   700.99678     -6833379.4      194.35164      197.62951      198.7871       15.865358    
   1114000   700.84208     -6833312.3      194.35164      197.62951      198.7871      -34.24999     
   1115000   700.01464     -6833524.4      194.35164      197.62951      198.7871      -62.331676    
   1116000   699.88109     -6833386.3      194.35164      197.62951      198.7871       164.61082    
   1117000   700.80392     -6833218.6      194.35164      197.62951      198.7871       94.167236    
   1118000   700.27451     -6833236.6      194.35164      197.62951      198.7871       148.32451    
   1119000   699.87317     -6833451.5      194.35164      197.62951      198.7871      -34.114054    
   1120000   698.60359     -6833522        194.35164      197.62951      198.7871      -91.626423    
   1121000   699.72129     -6833422.9      194.35164      197.62951      198.7871       27.62961     
   1122000   699.93335     -6833316.4      194.35164      197.62951      198.7871       91.996538    
   1123000   700.61818     -6833324.6      194.35164      197.62951      198.7871       156.1284     
   1124000   700.85089     -6833286.6      194.35164      197.62951      198.7871      -16.219036    
   1125000   700.4729      -6833371.3      194.35164      197.62951      198.7871      -6.1959488    
   1126000   699.59979     -6833301.2      194.35164      197.62951      198.7871       158.60268    
   1127000   700.55112     -6833430.4      194.35164      197.62951      198.7871       32.191681    
   1128000   701.12261     -6833273.2      194.35164      197.62951      198.7871       123.41305    
   1129000   700.1035      -6833352        194.35164      197.62951      198.7871       43.394807    
   1130000   699.80026     -6833379        194.35164      197.62951      198.7871       14.332884    
   1131000   700.56608     -6833297.9      194.35164      197.62951      198.7871       65.724675    
   1132000   699.37701     -6833517.9      194.35164      197.62951      198.7871      -32.570887    
   1133000   698.95663     -6833431.4      194.35164      197.62951      198.7871      -90.036022    
   1134000   699.03955     -6833451.3      194.35164      197.62951      198.7871      -11.091635    
   1135000   699.1049      -6833351.5      194.35164      197.62951      198.7871       109.59619    
   1136000   700.16723     -6833362.8      194.35164      197.62951      198.7871       8.4094624    
   1137000   700.82551     -6833224.1      194.35164      197.62951      198.7871       55.242391    
   1138000   699.6492      -6833425.8      194.35164      197.62951      198.7871       139.41206    
   1139000   700.64724     -6833359.3      194.35164      197.62951      198.7871       143.5242     
   1140000   699.85426     -6833314.7      194.35164      197.62951      198.7871       22.093739    
   1141000   699.58047     -6833385        194.35164      197.62951      198.7871      -26.421342    
   1142000   698.17136     -6833574.9      194.35164      197.62951      198.7871       37.038187    
   1143000   699.25955     -6833480.4      194.35164      197.62951      198.7871       61.519493    
   1144000   699.95317     -6833347.3      194.35164      197.62951      198.7871       98.612049    
   1145000   700.04059     -6833356        194.35164      197.62951      198.7871       58.782139    
   1146000   699.73844     -6833341.5      194.35164      197.62951      198.7871       54.074603    
   1147000   700.2679      -6833277.3      194.35164      197.62951      198.7871       70.766095    
   1148000   699.63089     -6833333.7      194.35164      197.62951      198.7871       71.698446    
   1149000   700.24309     -6833322.5      194.35164      197.62951      198.7871      -82.257953    
   1150000   699.57562     -6833337.6      194.35164      197.62951      198.7871       42.005248    
   1151000   699.85394     -6833313.1      194.35164      197.62951      198.7871      -16.455587    
   1152000   699.98433     -6833377.7      194.35164      197.62951      198.7871      -147.92189    
   1153000   700.79173     -6833257.6      194.35164      197.62951      198.7871       96.809382    
   1154000   699.83172     -6833584.8      194.35164      197.62951      198.7871       52.19535     
   1155000   699.85916     -6833370.3      194.35164      197.62951      198.7871       84.428185    
   1156000   701.38868     -6833330.8      194.35164      197.62951      198.7871      -139.43062    
   1157000   699.69835     -6833437.9      194.35164      197.62951      198.7871      -71.111051    
   1158000   698.80915     -6833459.7      194.35164      197.62951      198.7871      -115.98515    
   1159000   699.94962     -6833405.2      194.35164      197.62951      198.7871      -16.660957    
   1160000   701.49702     -6833218.8      194.35164      197.62951      198.7871      -13.25513     
   1161000   699.3122      -6833368.8      194.35164      197.62951      198.7871       37.063169    
   1162000   700.99931     -6833342.9      194.35164      197.62951      198.7871      -83.532729    
   1163000   699.69791     -6833281.5      194.35164      197.62951      198.7871      -21.689559    
   1164000   699.81109     -6833249.9      194.35164      197.62951      198.7871       88.348404    
   1165000   700.896       -6833279.4      194.35164      197.62951      198.7871       58.682652    
   1166000   699.71708     -6833179.7      194.35164      197.62951      198.7871       142.37837    
   1167000   699.85606     -6833415.4      194.35164      197.62951      198.7871      -60.656938    
   1168000   700.08709     -6833355.1      194.35164      197.62951      198.7871      -107.32128    
   1169000   699.41183     -6833335.5      194.35164      197.62951      198.7871       132.97011    
   1170000   700.38135     -6833440.9      194.35164      197.62951      198.7871      -37.751348    
   1171000   699.04778     -6833405.5      194.35164      197.62951      198.7871       130.09003    
   1172000   699.9294      -6833397.4      194.35164      197.62951      198.7871       134.32018    
   1173000   700.21582     -6833250.8      194.35164      197.62951      198.7871       123.7709     
   1174000   700.21388     -6833324.8      194.35164      197.62951      198.7871       58.779272    
   1175000   700.62769     -6833300.9      194.35164      197.62951      198.7871       9.132288     
   1176000   699.89122     -6833442.2      194.35164      197.62951      198.7871       81.028847    
   1177000   699.73824     -6833310.7      194.35164      197.62951      198.7871      -7.8685056    
   1178000   699.20479     -6833436.7      194.35164      197.62951      198.7871      -61.127934    
   1179000   700.29733     -6833312.1      194.35164      197.62951      198.7871       5.2075306    
   1180000   699.66669     -6833367        194.35164      197.62951      198.7871       52.848603    
   1181000   700.25398     -6833267.6      194.35164      197.62951      198.7871       6.8151373    
   1182000   699.43336     -6833358.1      194.35164      197.62951      198.7871       68.213848    
   1183000   700.40451     -6833348.6      194.35164      197.62951      198.7871       52.789675    
   1184000   700.27015     -6833271.6      194.35164      197.62951      198.7871      -15.079039    
   1185000   699.25786     -6833424.9      194.35164      197.62951      198.7871      -40.351268    
   1186000   699.53029     -6833490        194.35164      197.62951      198.7871      -121.03257    
   1187000   699.64057     -6833381.6      194.35164      197.62951      198.7871       85.660636    
   1188000   700.29036     -6833382.8      194.35164      197.62951      198.7871       37.932795    
   1189000   701.01782     -6833240.4      194.35164      197.62951      198.7871       85.560404    
   1190000   700.15926     -6833398.9      194.35164      197.62951      198.7871      -20.22839     
   1191000   699.60533     -6833414.4      194.35164      197.62951      198.7871      -103.63251    
   1192000   700.17458     -6833322.6      194.35164      197.62951      198.7871      -34.267826    
   1193000   699.79942     -6833378.1      194.35164      197.62951      198.7871       67.162294    
   1194000   699.14862     -6833489        194.35164      197.62951      198.7871       82.185211    
   1195000   700.7445      -6833352.8      194.35164      197.62951      198.7871      -121.56079    
   1196000   699.81041     -6833354.8      194.35164      197.62951      198.7871      -98.394558    
   1197000   700.03435     -6833303.8      194.35164      197.62951      198.7871       90.032368    
   1198000   700.13969     -6833480.6      194.35164      197.62951      198.7871       33.831662    
   1199000   699.8683      -6833332.7      194.35164      197.62951      198.7871       97.352902    
   1200000   699.67115     -6833445.3      194.35164      197.62951      198.7871      -47.346418    
   1201000   700.01501     -6833332.4      194.35164      197.62951      198.7871       52.495241    
   1202000   699.06944     -6833364.2      194.35164      197.62951      198.7871      -25.469044    
   1203000   700.15804     -6833410.4      194.35164      197.62951      198.7871       155.7614     
   1204000   699.9634      -6833459.4      194.35164      197.62951      198.7871      -126.56575    
   1205000   700.43162     -6833300.7      194.35164      197.62951      198.7871       112.7321     
   1206000   699.75401     -6833480.7      194.35164      197.62951      198.7871      -29.815153    
   1207000   699.08703     -6833447.4      194.35164      197.62951      198.7871       30.954039    
   1208000   699.72184     -6833362.3      194.35164      197.62951      198.7871       114.55422    
   1209000   699.32456     -6833375.9      194.35164      197.62951      198.7871       22.755227    
   1210000   700.07867     -6833248.6      194.35164      197.62951      198.7871       61.989347    
   1211000   699.89243     -6833380.4      194.35164      197.62951      198.7871       99.761497    
   1212000   699.302       -6833461        194.35164      197.62951      198.7871       68.160726    
   1213000   699.65781     -6833284.2      194.35164      197.62951      198.7871       191.28839    
   1214000   700.14416     -6833330.7      194.35164      197.62951      198.7871       48.51        
   1215000   700.12508     -6833417.4      194.35164      197.62951      198.7871       116.31056    
   1216000   700.59612     -6833364.4      194.35164      197.62951      198.7871      -33.553997    
   1217000   700.96764     -6833260.5      194.35164      197.62951      198.7871       85.570855    
   1218000   700.14407     -6833302.8      194.35164      197.62951      198.7871      -71.078376    
   1219000   700.35129     -6833216.4      194.35164      197.62951      198.7871       141.50753    
   1220000   700.12447     -6833434.7      194.35164      197.62951      198.7871      -23.268108    
   1221000   700.0305      -6833374.8      194.35164      197.62951      198.7871       68.508068    
   1222000   700.17102     -6833374.4      194.35164      197.62951      198.7871      -49.969231    
   1223000   700.10512     -6833323.4      194.35164      197.62951      198.7871       60.870835    
   1224000   701.57673     -6833357.7      194.35164      197.62951      198.7871      -67.09405     
   1225000   700.67709     -6833385.9      194.35164      197.62951      198.7871       49.901663    
   1226000   699.02695     -6833436.1      194.35164      197.62951      198.7871       42.716363    
   1227000   699.41844     -6833396.9      194.35164      197.62951      198.7871      -2.6331542    
   1228000   699.59337     -6833468.6      194.35164      197.62951      198.7871      -47.577663    
   1229000   700.01765     -6833294        194.35164      197.62951      198.7871       40.268205    
   1230000   701.20748     -6833225.3      194.35164      197.62951      198.7871       86.759204    
   1231000   699.9264      -6833408.1      194.35164      197.62951      198.7871       71.783504    
   1232000   699.93313     -6833377.7      194.35164      197.62951      198.7871       99.603187    
   1233000   701.47927     -6833225.2      194.35164      197.62951      198.7871       41.395586    
   1234000   699.19443     -6833467.1      194.35164      197.62951      198.7871      -191.95596    
   1235000   700.1091      -6833425.3      194.35164      197.62951      198.7871       29.108814    
   1236000   700.4063      -6833305.3      194.35164      197.62951      198.7871      -57.29881     
   1237000   699.39613     -6833345.3      194.35164      197.62951      198.7871       1.2000087    
   1238000   700.5311      -6833295.5      194.35164      197.62951      198.7871       15.82179     
   1239000   700.39897     -6833362.5      194.35164      197.62951      198.7871      -16.383321    
   1240000   700.06045     -6833272.9      194.35164      197.62951      198.7871       55.088531    
   1241000   699.71913     -6833302.5      194.35164      197.62951      198.7871       49.673427    
   1242000   699.74129     -6833372.6      194.35164      197.62951      198.7871       89.378038    
   1243000   700.13974     -6833439.1      194.35164      197.62951      198.7871       2.8063123    
   1244000   701.63466     -6833186        194.35164      197.62951      198.7871       52.565966    
   1245000   700.04144     -6833483.2      194.35164      197.62951      198.7871      -67.733728    
   1246000   700.76571     -6833224.7      194.35164      197.62951      198.7871       156.55515    
   1247000   698.67475     -6833401.4      194.35164      197.62951      198.7871       184.7374     
   1248000   700.35121     -6833318.2      194.35164      197.62951      198.7871       74.343616    
   1249000   700.60604     -6833300.5      194.35164      197.62951      198.7871       45.183607    
   1250000   701.25447     -6833164.4      194.35164      197.62951      198.7871       47.943429    
   1251000   700.57509     -6833359.3      194.35164      197.62951      198.7871      -110.66107    
   1252000   699.91541     -6833291.6      194.35164      197.62951      198.7871       43.928821    
   1253000   700.22044     -6833277.7      194.35164      197.62951      198.7871       61.779026    
   1254000   700.04066     -6833272.3      194.35164      197.62951      198.7871      -24.255538    
   1255000   700.67214     -6833373.2      194.35164      197.62951      198.7871       28.379522    
   1256000   698.27192     -6833451.1      194.35164      197.62951      198.7871       61.463658    
   1257000   698.84417     -6833402.7      194.35164      197.62951      198.7871       142.33786    
   1258000   698.78334     -6833463.3      194.35164      197.62951      198.7871       74.605413    
   1259000   699.78647     -6833408.3      194.35164      197.62951      198.7871      -12.314461    
   1260000   699.54147     -6833402        194.35164      197.62951      198.7871      -132.27744    
   1261000   700.30391     -6833330.2      194.35164      197.62951      198.7871      -1.7470594    
   1262000   700.88506     -6833372.8      194.35164      197.62951      198.7871       32.253375    
   1263000   701.53118     -6833248.8      194.35164      197.62951      198.7871      -66.987392    
   1264000   699.87754     -6833315.6      194.35164      197.62951      198.7871       106.90735    
   1265000   700.15603     -6833381        194.35164      197.62951      198.7871      -46.540821    
   1266000   700.8651      -6833317.9      194.35164      197.62951      198.7871       47.797114    
   1267000   700.86629     -6833237.8      194.35164      197.62951      198.7871      -10.856941    
   1268000   702.31267     -6833255.6      194.35164      197.62951      198.7871       19.679381    
   1269000   700.46238     -6833307.4      194.35164      197.62951      198.7871       87.203554    
   1270000   700.93247     -6833311.2      194.35164      197.62951      198.7871      -7.6285739    
   1271000   700.02881     -6833406.7      194.35164      197.62951      198.7871       32.394452    
   1272000   701.43017     -6833182.9      194.35164      197.62951      198.7871       27.970071    
   1273000   699.96424     -6833425.6      194.35164      197.62951      198.7871       67.123702    
   1274000   699.91337     -6833500.6      194.35164      197.62951      198.7871      -99.270563    
   1275000   698.48595     -6833492.8      194.35164      197.62951      198.7871      -119.68448    
   1276000   700.40542     -6833310.5      194.35164      197.62951      198.7871       34.058803    
   1277000   699.80331     -6833347.2      194.35164      197.62951      198.7871       78.778101    
   1278000   700.39248     -6833260.1      194.35164      197.62951      198.7871       144.27551    
   1279000   700.54372     -6833339.4      194.35164      197.62951      198.7871       15.631502    
   1280000   699.74335     -6833357.8      194.35164      197.62951      198.7871       13.92933     
   1281000   701.12163     -6833194.1      194.35164      197.62951      198.7871       117.3098     
   1282000   700.37777     -6833358.3      194.35164      197.62951      198.7871       68.615969    
   1283000   700.12538     -6833381.7      194.35164      197.62951      198.7871       4.7648578    
   1284000   700.57681     -6833366.8      194.35164      197.62951      198.7871      -1.3239572    
   1285000   699.88069     -6833346.1      194.35164      197.62951      198.7871       18.15424     
   1286000   699.37194     -6833479.2      194.35164      197.62951      198.7871       80.596312    
   1287000   699.41879     -6833371.3      194.35164      197.62951      198.7871      -52.792109    
   1288000   699.46258     -6833496.7      194.35164      197.62951      198.7871      -74.045898    
   1289000   700.02717     -6833376        194.35164      197.62951      198.7871       76.702863    
   1290000   699.7429      -6833328.3      194.35164      197.62951      198.7871      -6.3002789    
   1291000   700.55969     -6833259.3      194.35164      197.62951      198.7871       54.25455     
   1292000   699.93639     -6833323.3      194.35164      197.62951      198.7871      -82.812648    
   1293000   700.03979     -6833320.1      194.35164      197.62951      198.7871       31.894021    
   1294000   698.95465     -6833374.9      194.35164      197.62951      198.7871       57.639794    
   1295000   700.01354     -6833393.2      194.35164      197.62951      198.7871      -95.427211    
   1296000   699.89672     -6833298.7      194.35164      197.62951      198.7871      -69.50539     
   1297000   700.52009     -6833253.7      194.35164      197.62951      198.7871       28.091887    
   1298000   700.41449     -6833431.7      194.35164      197.62951      198.7871      -116.23848    
   1299000   699.60395     -6833428.9      194.35164      197.62951      198.7871      -84.593868    
   1300000   700.42794     -6833316.3      194.35164      197.62951      198.7871      -36.286468    
   1301000   700.79742     -6833312.5      194.35164      197.62951      198.7871      -41.977742    
   1302000   701.42566     -6833254.6      194.35164      197.62951      198.7871       71.610001    
   1303000   699.43373     -6833543.1      194.35164      197.62951      198.7871      -196.84602    
   1304000   700.85181     -6833291.3      194.35164      197.62951      198.7871       178.88907    
   1305000   701.26371     -6833347.1      194.35164      197.62951      198.7871      -154.06673    
   1306000   699.72144     -6833445        194.35164      197.62951      198.7871      -52.012585    
   1307000   700.2194      -6833312.9      194.35164      197.62951      198.7871       77.726949    
   1308000   700.17467     -6833340        194.35164      197.62951      198.7871      -27.412873    
   1309000   700.69946     -6833281.8      194.35164      197.62951      198.7871       22.024056    
   1310000   699.71425     -6833426.9      194.35164      197.62951      198.7871      -40.343426    
   1311000   699.49392     -6833373        194.35164      197.62951      198.7871      -5.269036     
   1312000   700.03004     -6833282.4      194.35164      197.62951      198.7871       83.769063    
   1313000   699.88047     -6833451.7      194.35164      197.62951      198.7871      -80.198234    
   1314000   698.82288     -6833413.9      194.35164      197.62951      198.7871      -47.615512    
   1315000   701.11398     -6833288.1      194.35164      197.62951      198.7871      -76.737891    
   1316000   700.00632     -6833343.8      194.35164      197.62951      198.7871      -0.28571308   
   1317000   700.1331      -6833286.5      194.35164      197.62951      198.7871      -68.724419    
   1318000   700.49195     -6833390.1      194.35164      197.62951      198.7871      -113.19847    
   1319000   699.54016     -6833414.4      194.35164      197.62951      198.7871      -52.283215    
   1320000   699.67982     -6833400.1      194.35164      197.62951      198.7871      -5.4367214    
   1321000   699.7367      -6833338.4      194.35164      197.62951      198.7871      -15.895218    
   1322000   698.37881     -6833434.2      194.35164      197.62951      198.7871       24.883161    
   1323000   699.4532      -6833373.6      194.35164      197.62951      198.7871       80.140886    
   1324000   699.23511     -6833536.6      194.35164      197.62951      198.7871      -56.490478    
   1325000   700.46937     -6833407.2      194.35164      197.62951      198.7871      -95.420391    
   1326000   699.9394      -6833377.3      194.35164      197.62951      198.7871      -49.951146    
   1327000   701.30083     -6833330.8      194.35164      197.62951      198.7871      -18.642973    
   1328000   700.11452     -6833361.8      194.35164      197.62951      198.7871       8.2304668    
   1329000   698.55627     -6833489.5      194.35164      197.62951      198.7871      -34.872719    
   1330000   699.39849     -6833489.9      194.35164      197.62951      198.7871      -38.230245    
   1331000   699.448       -6833237.4      194.35164      197.62951      198.7871       90.410618    
   1332000   699.26662     -6833485.9      194.35164      197.62951      198.7871       20.537323    
   1333000   698.84063     -6833436.6      194.35164      197.62951      198.7871       69.754798    
   1334000   700.75845     -6833259        194.35164      197.62951      198.7871      -14.085785    
   1335000   699.81669     -6833377.7      194.35164      197.62951      198.7871      -48.515056    
   1336000   701.34286     -6833284.4      194.35164      197.62951      198.7871       112.8558     
   1337000   700.36061     -6833291.9      194.35164      197.62951      198.7871       31.205286    
   1338000   699.27584     -6833484.4      194.35164      197.62951      198.7871       0.6107483    
   1339000   701.62348     -6833151.9      194.35164      197.62951      198.7871       7.5592788    
   1340000   700.40554     -6833356.4      194.35164      197.62951      198.7871       85.236482    
   1341000   700.70994     -6833306.2      194.35164      197.62951      198.7871       11.945192    
   1342000   699.89741     -6833376.9      194.35164      197.62951      198.7871       176.70113    
   1343000   700.55937     -6833380.7      194.35164      197.62951      198.7871       45.166785    
   1344000   700.41885     -6833326.9      194.35164      197.62951      198.7871       50.332312    
   1345000   699.47809     -6833433.7      194.35164      197.62951      198.7871      -18.668339    
   1346000   699.09519     -6833483.5      194.35164      197.62951      198.7871       62.898887    
   1347000   699.67637     -6833399.1      194.35164      197.62951      198.7871       126.39391    
   1348000   701.57777     -6833341.7      194.35164      197.62951      198.7871      -26.015       
   1349000   700.3432      -6833376.1      194.35164      197.62951      198.7871      -37.213402    
   1350000   701.18103     -6833205.3      194.35164      197.62951      198.7871       104.45352    
   1351000   699.20889     -6833506.9      194.35164      197.62951      198.7871       48.793104    
   1352000   700.03481     -6833351.3      194.35164      197.62951      198.7871      -14.221629    
   1353000   700.13813     -6833414.6      194.35164      197.62951      198.7871      -38.429675    
   1354000   700.20709     -6833371.4      194.35164      197.62951      198.7871       54.683422    
   1355000   700.60453     -6833278.8      194.35164      197.62951      198.7871       77.545837    
   1356000   699.3763      -6833420.6      194.35164      197.62951      198.7871      -75.683239    
   1357000   699.63924     -6833316.2      194.35164      197.62951      198.7871       35.108543    
   1358000   699.47052     -6833445.8      194.35164      197.62951      198.7871      -96.081783    
   1359000   699.75276     -6833458.1      194.35164      197.62951      198.7871       166.42508    
   1360000   700.77149     -6833317.2      194.35164      197.62951      198.7871       30.309966    
   1361000   700.00238     -6833441        194.35164      197.62951      198.7871      -17.904902    
   1362000   700.40747     -6833279.5      194.35164      197.62951      198.7871       121.17502    
   1363000   700.2323      -6833337        194.35164      197.62951      198.7871      -23.441322    
   1364000   699.97194     -6833358.2      194.35164      197.62951      198.7871       24.182529    
   1365000   700.4038      -6833332.8      194.35164      197.62951      198.7871       77.361161    
   1366000   699.7504      -6833472.1      194.35164      197.62951      198.7871      -66.864226    
   1367000   699.70164     -6833438.5      194.35164      197.62951      198.7871      -38.929234    
   1368000   699.84406     -6833417.6      194.35164      197.62951      198.7871       5.6681669    
   1369000   698.25248     -6833567.2      194.35164      197.62951      198.7871       53.110342    
   1370000   698.79501     -6833473.3      194.35164      197.62951      198.7871      -91.011267    
   1371000   700.02017     -6833374.9      194.35164      197.62951      198.7871       79.783317    
   1372000   700.06253     -6833393.1      194.35164      197.62951      198.7871       190.64494    
   1373000   700.05586     -6833367.3      194.35164      197.62951      198.7871       28.095073    
   1374000   700.75647     -6833400.1      194.35164      197.62951      198.7871       4.4800085    
   1375000   699.34402     -6833438.7      194.35164      197.62951      198.7871       142.27021    
   1376000   699.22312     -6833428.6      194.35164      197.62951      198.7871       70.200831    
   1377000   699.55888     -6833358        194.35164      197.62951      198.7871       106.66838    
   1378000   699.69625     -6833330.7      194.35164      197.62951      198.7871      -159.29224    
   1379000   699.79967     -6833460.5      194.35164      197.62951      198.7871       48.837505    
   1380000   700.31697     -6833269.6      194.35164      197.62951      198.7871       27.689928    
   1381000   699.87278     -6833397        194.35164      197.62951      198.7871       85.905601    
   1382000   699.37706     -6833354.1      194.35164      197.62951      198.7871       17.838783    
   1383000   700.00462     -6833281.8      194.35164      197.62951      198.7871       45.317182    
   1384000   700.17774     -6833358.7      194.35164      197.62951      198.7871      -52.786546    
   1385000   699.76567     -6833417.3      194.35164      197.62951      198.7871       122.78386    
   1386000   699.50125     -6833467.9      194.35164      197.62951      198.7871      -107.24401    
   1387000   700.43732     -6833313.1      194.35164      197.62951      198.7871       96.538354    
   1388000   700.07764     -6833464.6      194.35164      197.62951      198.7871       31.595753    
   1389000   699.0077      -6833537.6      194.35164      197.62951      198.7871       94.299418    
   1390000   700.60618     -6833321.2      194.35164      197.62951      198.7871      -98.770327    
   1391000   700.05419     -6833291.9      194.35164      197.62951      198.7871      -0.9191361    
   1392000   700.75745     -6833402.7      194.35164      197.62951      198.7871      -3.0203509    
   1393000   700.199       -6833347.3      194.35164      197.62951      198.7871      -35.949191    
   1394000   699.72732     -6833487        194.35164      197.62951      198.7871       148.09628    
   1395000   700.2835      -6833368.2      194.35164      197.62951      198.7871      -36.678043    
   1396000   700.40755     -6833356.7      194.35164      197.62951      198.7871       57.682976    
   1397000   699.64324     -6833478.3      194.35164      197.62951      198.7871      -17.844219    
   1398000   699.85904     -6833385.4      194.35164      197.62951      198.7871      -93.743166    
   1399000   699.848       -6833462.6      194.35164      197.62951      198.7871       23.731032    
   1400000   699.89705     -6833404.4      194.35164      197.62951      198.7871       42.331694    
   1401000   701.03454     -6833322        194.35164      197.62951      198.7871       72.498069    
   1402000   698.97623     -6833417.3      194.35164      197.62951      198.7871      -26.331917    
   1403000   700.17342     -6833354.8      194.35164      197.62951      198.7871       9.5343035    
   1404000   700.09956     -6833367.2      194.35164      197.62951      198.7871      -46.366182    
   1405000   700.31501     -6833366.2      194.35164      197.62951      198.7871       19.167442    
   1406000   700.77447     -6833392.1      194.35164      197.62951      198.7871      -89.712053    
   1407000   700.78252     -6833279.6      194.35164      197.62951      198.7871      -106.83744    
   1408000   700.27543     -6833328        194.35164      197.62951      198.7871      -30.530139    
   1409000   699.99593     -6833402.1      194.35164      197.62951      198.7871       94.892117    
   1410000   699.5557      -6833478.1      194.35164      197.62951      198.7871       113.32472    
   1411000   699.12414     -6833292.5      194.35164      197.62951      198.7871       87.491466    
   1412000   700.83382     -6833323.2      194.35164      197.62951      198.7871       17.947018    
   1413000   701.64811     -6833215.7      194.35164      197.62951      198.7871       30.907331    
   1414000   699.37917     -6833340.5      194.35164      197.62951      198.7871      -16.133317    
   1415000   699.44448     -6833369.6      194.35164      197.62951      198.7871       19.234571    
   1416000   700.43406     -6833420.4      194.35164      197.62951      198.7871      -42.688317    
   1417000   701.12453     -6833315.9      194.35164      197.62951      198.7871       45.312801    
   1418000   699.48164     -6833414        194.35164      197.62951      198.7871       209.55045    
   1419000   699.89879     -6833300.9      194.35164      197.62951      198.7871       53.187168    
   1420000   699.7024      -6833370.7      194.35164      197.62951      198.7871       195.06201    
   1421000   699.9913      -6833398.5      194.35164      197.62951      198.7871      -40.465753    
   1422000   700.46445     -6833315        194.35164      197.62951      198.7871       53.097755    
   1423000   699.6722      -6833354.5      194.35164      197.62951      198.7871       177.66561    
   1424000   700.43442     -6833369        194.35164      197.62951      198.7871       156.59214    
   1425000   699.12424     -6833396.8      194.35164      197.62951      198.7871       17.278904    
   1426000   699.82904     -6833346.6      194.35164      197.62951      198.7871      -27.309282    
   1427000   702.05899     -6833229.2      194.35164      197.62951      198.7871       86.751613    
   1428000   700.34726     -6833285.1      194.35164      197.62951      198.7871       71.07899     
   1429000   699.79233     -6833373.5      194.35164      197.62951      198.7871      -2.3953475    
   1430000   699.67202     -6833360.5      194.35164      197.62951      198.7871       1.5638477    
   1431000   700.70506     -6833240.8      194.35164      197.62951      198.7871       123.64998    
   1432000   700.4122      -6833426.2      194.35164      197.62951      198.7871      -125.20925    
   1433000   699.35949     -6833388.6      194.35164      197.62951      198.7871      -33.300894    
   1434000   699.91529     -6833425.4      194.35164      197.62951      198.7871       26.610915    
   1435000   701.19902     -6833252.4      194.35164      197.62951      198.7871      -42.849468    
   1436000   700.32373     -6833464.3      194.35164      197.62951      198.7871      -10.209016    
   1437000   698.40651     -6833526.7      194.35164      197.62951      198.7871      -25.406277    
   1438000   700.6448      -6833392        194.35164      197.62951      198.7871      -106.00383    
   1439000   700.81019     -6833312.4      194.35164      197.62951      198.7871       25.562558    
   1440000   698.9736      -6833518.9      194.35164      197.62951      198.7871       45.735262    
   1441000   700.53291     -6833302        194.35164      197.62951      198.7871       78.210828    
   1442000   698.18299     -6833476.1      194.35164      197.62951      198.7871       102.62622    
   1443000   700.13355     -6833426.4      194.35164      197.62951      198.7871      -6.3869431    
   1444000   699.79491     -6833500.9      194.35164      197.62951      198.7871      -65.235114    
   1445000   700.2521      -6833408.2      194.35164      197.62951      198.7871       93.61537     
   1446000   699.44784     -6833334.7      194.35164      197.62951      198.7871       94.452458    
   1447000   700.16841     -6833407.3      194.35164      197.62951      198.7871      -12.502813    
   1448000   699.14524     -6833433.3      194.35164      197.62951      198.7871       9.7030126    
   1449000   700.18765     -6833441.6      194.35164      197.62951      198.7871      -150.38415    
   1450000   699.96698     -6833393.7      194.35164      197.62951      198.7871      -2.845023     
   1451000   699.6445      -6833401.3      194.35164      197.62951      198.7871      -38.5598      
   1452000   699.92144     -6833357.4      194.35164      197.62951      198.7871       136.43583    
   1453000   700.15716     -6833308        194.35164      197.62951      198.7871       39.2622      
   1454000   700.04855     -6833314        194.35164      197.62951      198.7871      -6.4876024    
   1455000   702.01204     -6833245.2      194.35164      197.62951      198.7871       50.385537    
   1456000   701.29214     -6833325.5      194.35164      197.62951      198.7871       9.4943886    
   1457000   700.49641     -6833304.6      194.35164      197.62951      198.7871      -12.198931    
   1458000   700.12856     -6833392.4      194.35164      197.62951      198.7871      -22.315062    
   1459000   699.54222     -6833478.3      194.35164      197.62951      198.7871      -18.764024    
   1460000   699.33082     -6833425.9      194.35164      197.62951      198.7871       60.182702    
   1461000   700.54377     -6833240.2      194.35164      197.62951      198.7871       50.237971    
   1462000   700.69863     -6833341.1      194.35164      197.62951      198.7871      -1.014541     
   1463000   698.98257     -6833423.2      194.35164      197.62951      198.7871      -63.844936    
   1464000   701.46111     -6833299.9      194.35164      197.62951      198.7871       19.626565    
   1465000   700.124       -6833382.8      194.35164      197.62951      198.7871      -86.061528    
   1466000   700.06572     -6833268.2      194.35164      197.62951      198.7871       30.641497    
   1467000   701.48408     -6833145.4      194.35164      197.62951      198.7871       187.91189    
   1468000   700.11888     -6833234.3      194.35164      197.62951      198.7871       162.05093    
   1469000   700.00617     -6833402.7      194.35164      197.62951      198.7871       13.597391    
   1470000   699.57672     -6833421.3      194.35164      197.62951      198.7871       60.453374    
   1471000   700.22379     -6833383.1      194.35164      197.62951      198.7871       6.6759292    
   1472000   700.13875     -6833478.4      194.35164      197.62951      198.7871      -144.08869    
   1473000   700.29706     -6833320.7      194.35164      197.62951      198.7871      -2.1783494    
   1474000   699.96517     -6833353.4      194.35164      197.62951      198.7871      -28.367558    
   1475000   699.93267     -6833416.3      194.35164      197.62951      198.7871       0.8050038    
   1476000   699.12492     -6833502.9      194.35164      197.62951      198.7871       11.837187    
   1477000   699.20356     -6833388.2      194.35164      197.62951      198.7871       67.588725    
   1478000   700.11513     -6833357.4      194.35164      197.62951      198.7871       104.25884    
   1479000   700.23995     -6833304.3      194.35164      197.62951      198.7871       95.7857      
   1480000   700.66301     -6833359.6      194.35164      197.62951      198.7871       43.174273    
   1481000   699.9198      -6833324.1      194.35164      197.62951      198.7871       47.967016    
   1482000   699.60859     -6833418.3      194.35164      197.62951      198.7871       29.192732    
   1483000   699.80645     -6833449.7      194.35164      197.62951      198.7871       63.996354    
   1484000   700.3306      -6833384.4      194.35164      197.62951      198.7871       24.13484     
   1485000   699.07062     -6833352.5      194.35164      197.62951      198.7871       17.556358    
   1486000   699.85245     -6833382.3      194.35164      197.62951      198.7871      -34.166536    
   1487000   700.19436     -6833335.2      194.35164      197.62951      198.7871       70.891073    
   1488000   700.31265     -6833350.9      194.35164      197.62951      198.7871       214.25884    
   1489000   699.53121     -6833435        194.35164      197.62951      198.7871       133.85008    
   1490000   700.10282     -6833356.6      194.35164      197.62951      198.7871       232.33744    
   1491000   700.23747     -6833404.6      194.35164      197.62951      198.7871       103.16757    
   1492000   699.95115     -6833377.2      194.35164      197.62951      198.7871       133.07843    
   1493000   699.14801     -6833515.3      194.35164      197.62951      198.7871      -74.792095    
   1494000   699.1452      -6833486.9      194.35164      197.62951      198.7871      -36.366464    
   1495000   700.10726     -6833370        194.35164      197.62951      198.7871      -14.022845    
   1496000   699.83582     -6833488        194.35164      197.62951      198.7871       37.4532      
   1497000   700.18457     -6833350.2      194.35164      197.62951      198.7871       110.19479    
   1498000   701.55323     -6833209.3      194.35164      197.62951      198.7871      -25.288253    
   1499000   700.43801     -6833323.6      194.35164      197.62951      198.7871       8.709238     
   1500000   699.85684     -6833423.5      194.35164      197.62951      198.7871      -24.460351    
   1501000   699.61643     -6833425        194.35164      197.62951      198.7871       14.981585    
   1502000   701.17467     -6833260.3      194.35164      197.62951      198.7871      -76.311675    
   1503000   700.12752     -6833307.4      194.35164      197.62951      198.7871      -4.9031813    
   1504000   699.49288     -6833439        194.35164      197.62951      198.7871      -14.827579    
   1505000   700.4996      -6833386.5      194.35164      197.62951      198.7871      -120.2378     
   1506000   699.85051     -6833390.4      194.35164      197.62951      198.7871       27.934351    
   1507000   700.35571     -6833309.7      194.35164      197.62951      198.7871       79.413083    
   1508000   699.67445     -6833284.7      194.35164      197.62951      198.7871       71.980124    
   1509000   700.65707     -6833351.8      194.35164      197.62951      198.7871      -26.063972    
   1510000   698.87055     -6833462.1      194.35164      197.62951      198.7871       62.955034    
   1511000   700.80185     -6833345.5      194.35164      197.62951      198.7871      -13.507582    
   1512000   699.84416     -6833407.3      194.35164      197.62951      198.7871       49.115857    
   1513000   700.06029     -6833376.4      194.35164      197.62951      198.7871       70.442507    
   1514000   699.58094     -6833460.8      194.35164      197.62951      198.7871       12.601086    
   1515000   700.56158     -6833335.2      194.35164      197.62951      198.7871       33.131735    
   1516000   701.1153      -6833314.7      194.35164      197.62951      198.7871       62.607816    
   1517000   699.20331     -6833434.1      194.35164      197.62951      198.7871      -37.277389    
   1518000   699.1822      -6833452.2      194.35164      197.62951      198.7871      -30.149994    
   1519000   699.76055     -6833499.6      194.35164      197.62951      198.7871      -92.660287    
   1520000   698.87105     -6833572.8      194.35164      197.62951      198.7871       31.656755    
   1521000   700.76379     -6833299.2      194.35164      197.62951      198.7871       56.710008    
   1522000   700.57094     -6833348.2      194.35164      197.62951      198.7871       140.15943    
   1523000   700.00172     -6833397.3      194.35164      197.62951      198.7871      -59.252562    
   1524000   699.99581     -6833287.2      194.35164      197.62951      198.7871       147.80397    
   1525000   699.94843     -6833384.9      194.35164      197.62951      198.7871      -29.651748    
   1526000   700.18664     -6833455.2      194.35164      197.62951      198.7871      -27.837083    
   1527000   699.33729     -6833446.2      194.35164      197.62951      198.7871      -36.706503    
   1528000   699.68521     -6833436.7      194.35164      197.62951      198.7871       27.756218    
   1529000   698.56691     -6833402.7      194.35164      197.62951      198.7871       43.233418    
   1530000   700.19877     -6833413.4      194.35164      197.62951      198.7871       42.472151    
   1531000   699.92992     -6833514.7      194.35164      197.62951      198.7871       5.3314013    
   1532000   700.91624     -6833283.4      194.35164      197.62951      198.7871       61.346629    
   1533000   700.39993     -6833276.7      194.35164      197.62951      198.7871      -10.030707    
   1534000   699.30892     -6833277.6      194.35164      197.62951      198.7871       41.760088    
   1535000   699.97724     -6833384.8      194.35164      197.62951      198.7871       27.68611     
   1536000   699.33591     -6833497.1      194.35164      197.62951      198.7871      -38.302081    
   1537000   701.20231     -6833234.7      194.35164      197.62951      198.7871      -4.1453664    
   1538000   699.57716     -6833294.3      194.35164      197.62951      198.7871       187.22362    
   1539000   701.09548     -6833274.6      194.35164      197.62951      198.7871      -103.95284    
   1540000   699.73622     -6833490.1      194.35164      197.62951      198.7871      -53.170565    
   1541000   700.79337     -6833279.6      194.35164      197.62951      198.7871       52.932507    
   1542000   698.94803     -6833524.5      194.35164      197.62951      198.7871       42.370324    
   1543000   700.17052     -6833359.3      194.35164      197.62951      198.7871       0.46610996   
   1544000   701.13783     -6833251.2      194.35164      197.62951      198.7871       41.342601    
   1545000   700.30313     -6833335.4      194.35164      197.62951      198.7871       14.449519    
   1546000   700.1095      -6833354.8      194.35164      197.62951      198.7871       39.641039    
   1547000   699.97664     -6833422        194.35164      197.62951      198.7871       5.6808795    
   1548000   699.44012     -6833519.6      194.35164      197.62951      198.7871       36.000608    
   1549000   698.09902     -6833486.4      194.35164      197.62951      198.7871       17.769407    
   1550000   700.73169     -6833291.7      194.35164      197.62951      198.7871       25.54163     
   1551000   699.93692     -6833368.3      194.35164      197.62951      198.7871       57.459956    
   1552000   700.46483     -6833348.4      194.35164      197.62951      198.7871       79.247681    
   1553000   700.27215     -6833420.7      194.35164      197.62951      198.7871       152.53946    
   1554000   699.54628     -6833520.5      194.35164      197.62951      198.7871      -66.703269    
   1555000   698.88214     -6833497.6      194.35164      197.62951      198.7871       100.35188    
   1556000   700.42009     -6833422.4      194.35164      197.62951      198.7871      -10.018673    
   1557000   699.59078     -6833348        194.35164      197.62951      198.7871       124.36955    
   1558000   700.16142     -6833377.1      194.35164      197.62951      198.7871       33.835089    
   1559000   700.01418     -6833342        194.35164      197.62951      198.7871       191.24202    
   1560000   698.66718     -6833483.8      194.35164      197.62951      198.7871       123.88719    
   1561000   699.03128     -6833454.3      194.35164      197.62951      198.7871       182.1195     
   1562000   701.26534     -6833245.2      194.35164      197.62951      198.7871       140.09943    
   1563000   700.705       -6833385.7      194.35164      197.62951      198.7871       23.642129    
   1564000   699.56502     -6833408.1      194.35164      197.62951      198.7871      -33.760774    
   1565000   698.97625     -6833499.8      194.35164      197.62951      198.7871       48.99261     
   1566000   699.31058     -6833492.7      194.35164      197.62951      198.7871      -42.708409    
   1567000   697.96077     -6833561.7      194.35164      197.62951      198.7871       49.15428     
   1568000   700.97496     -6833293.1      194.35164      197.62951      198.7871       49.898776    
   1569000   700.00838     -6833366        194.35164      197.62951      198.7871       96.805033    
   1570000   700.73889     -6833263.8      194.35164      197.62951      198.7871       83.892893    
   1571000   698.69168     -6833517.1      194.35164      197.62951      198.7871       15.08245     
   1572000   699.49986     -6833404.1      194.35164      197.62951      198.7871      -36.58221     
   1573000   699.54444     -6833373.7      194.35164      197.62951      198.7871       78.130329    
   1574000   699.75038     -6833377.1      194.35164      197.62951      198.7871       24.71016     
   1575000   698.84559     -6833492.2      194.35164      197.62951      198.7871       49.59663     
   1576000   699.84098     -6833303.9      194.35164      197.62951      198.7871       10.198246    
   1577000   699.28078     -6833482.3      194.35164      197.62951      198.7871       77.201451    
   1578000   700.18541     -6833380        194.35164      197.62951      198.7871      -30.85564     
   1579000   699.6536      -6833520.1      194.35164      197.62951      198.7871      -58.076264    
   1580000   700.06022     -6833512.6      194.35164      197.62951      198.7871      -82.308832    
   1581000   700.48259     -6833347.7      194.35164      197.62951      198.7871       13.2724      
   1582000   699.31461     -6833414.2      194.35164      197.62951      198.7871       175.37044    
   1583000   699.18287     -6833498.9      194.35164      197.62951      198.7871       88.530997    
   1584000   700.56243     -6833361.9      194.35164      197.62951      198.7871      -21.105013    
   1585000   698.70328     -6833441.3      194.35164      197.62951      198.7871      -36.309327    
   1586000   699.76179     -6833480.4      194.35164      197.62951      198.7871      -4.4665216    
   1587000   700.10466     -6833353.3      194.35164      197.62951      198.7871      -50.425463    
   1588000   699.74439     -6833348        194.35164      197.62951      198.7871      -17.941314    
   1589000   699.45533     -6833492        194.35164      197.62951      198.7871      -87.723827    
   1590000   699.15438     -6833476.1      194.35164      197.62951      198.7871       92.771481    
   1591000   700.29559     -6833376.9      194.35164      197.62951      198.7871      -26.92547     
   1592000   699.96743     -6833432.6      194.35164      197.62951      198.7871      -11.515392    
   1593000   699.30687     -6833435.8      194.35164      197.62951      198.7871       21.780638    
   1594000   698.19656     -6833584.3      194.35164      197.62951      198.7871      -97.2656      
   1595000   699.15898     -6833505.1      194.35164      197.62951      198.7871       37.575657    
   1596000   700.09064     -6833298.1      194.35164      197.62951      198.7871       37.919391    
   1597000   698.70563     -6833443.6      194.35164      197.62951      198.7871       79.701827    
   1598000   699.99972     -6833331.4      194.35164      197.62951      198.7871       111.46534    
   1599000   700.67639     -6833323.1      194.35164      197.62951      198.7871       22.100321    
   1600000   700.34052     -6833348.3      194.35164      197.62951      198.7871       204.74478    
   1601000   699.10889     -6833509.6      194.35164      197.62951      198.7871       73.53172     
   1602000   699.82308     -6833448.2      194.35164      197.62951      198.7871       50.759186    
   1603000   701.33266     -6833309.4      194.35164      197.62951      198.7871      -15.124715    
   1604000   700.50394     -6833343.5      194.35164      197.62951      198.7871      -53.09865     
   1605000   699.00401     -6833439.9      194.35164      197.62951      198.7871      -100.18078    
   1606000   700.22095     -6833419        194.35164      197.62951      198.7871      -104.70493    
   1607000   701.26476     -6833218.7      194.35164      197.62951      198.7871       34.885745    
   1608000   700.45915     -6833262        194.35164      197.62951      198.7871      -11.462378    
   1609000   699.77342     -6833480.2      194.35164      197.62951      198.7871      -7.5654239    
   1610000   699.61067     -6833461.3      194.35164      197.62951      198.7871       48.7817      
   1611000   699.4989      -6833437.7      194.35164      197.62951      198.7871       23.555083    
   1612000   700.04114     -6833532.3      194.35164      197.62951      198.7871      -15.395059    
   1613000   700.11746     -6833460.1      194.35164      197.62951      198.7871      -137.89635    
   1614000   699.52824     -6833425.9      194.35164      197.62951      198.7871      -2.0664843    
   1615000   700.04304     -6833273.3      194.35164      197.62951      198.7871      -121.49697    
   1616000   699.75761     -6833357.4      194.35164      197.62951      198.7871      -4.2906923    
   1617000   699.27854     -6833452.5      194.35164      197.62951      198.7871      -107.97569    
   1618000   699.84127     -6833369.3      194.35164      197.62951      198.7871      -4.9886908    
   1619000   700.51172     -6833325.4      194.35164      197.62951      198.7871       30.561987    
   1620000   699.94407     -6833290.1      194.35164      197.62951      198.7871       80.402127    
   1621000   701.00153     -6833127.4      194.35164      197.62951      198.7871       59.594784    
   1622000   699.41393     -6833497.9      194.35164      197.62951      198.7871       49.562872    
   1623000   699.68956     -6833409.5      194.35164      197.62951      198.7871       69.135034    
   1624000   700.20586     -6833354.2      194.35164      197.62951      198.7871       36.419099    
   1625000   699.81178     -6833329.8      194.35164      197.62951      198.7871       42.131341    
   1626000   701.3263      -6833321.1      194.35164      197.62951      198.7871      -67.414832    
   1627000   700.11743     -6833342        194.35164      197.62951      198.7871      -17.568317    
   1628000   698.80547     -6833549.6      194.35164      197.62951      198.7871      -22.850766    
   1629000   699.18884     -6833311        194.35164      197.62951      198.7871       6.3627203    
   1630000   700.72076     -6833338.4      194.35164      197.62951      198.7871       24.384839    
   1631000   699.44412     -6833418        194.35164      197.62951      198.7871       14.750869    
   1632000   700.5077      -6833350.7      194.35164      197.62951      198.7871       49.146045    
   1633000   700.40387     -6833377.4      194.35164      197.62951      198.7871       14.403002    
   1634000   699.35749     -6833446.6      194.35164      197.62951      198.7871       26.939117    
   1635000   699.86695     -6833412.4      194.35164      197.62951      198.7871       105.45686    
   1636000   700.99063     -6833276        194.35164      197.62951      198.7871       44.971385    
   1637000   700.40454     -6833345        194.35164      197.62951      198.7871       82.75506     
   1638000   699.67907     -6833430.2      194.35164      197.62951      198.7871       29.098414    
   1639000   699.73929     -6833435.2      194.35164      197.62951      198.7871       72.398382    
   1640000   700.75685     -6833417.4      194.35164      197.62951      198.7871      -42.267313    
   1641000   700.05861     -6833325        194.35164      197.62951      198.7871      -28.394258    
   1642000   699.88424     -6833312.8      194.35164      197.62951      198.7871       28.201173    
   1643000   700.21969     -6833420.1      194.35164      197.62951      198.7871      -25.567838    
   1644000   698.91592     -6833507.8      194.35164      197.62951      198.7871      -69.57593     
   1645000   699.09512     -6833399.4      194.35164      197.62951      198.7871      -23.181353    
   1646000   700.74201     -6833395.2      194.35164      197.62951      198.7871       1.095337     
   1647000   698.5778      -6833469.3      194.35164      197.62951      198.7871       62.870439    
   1648000   698.50335     -6833598.8      194.35164      197.62951      198.7871      -89.784818    
   1649000   699.03454     -6833487.6      194.35164      197.62951      198.7871      -51.980515    
   1650000   700.59153     -6833265.3      194.35164      197.62951      198.7871       91.858059    
   1651000   700.10114     -6833335.1      194.35164      197.62951      198.7871       80.834132    
   1652000   699.09593     -6833603.7      194.35164      197.62951      198.7871      -17.453616    
   1653000   699.61434     -6833375.7      194.35164      197.62951      198.7871       19.146384    
   1654000   700.18284     -6833428.1      194.35164      197.62951      198.7871       1.46935      
   1655000   700.87748     -6833305.6      194.35164      197.62951      198.7871       51.367063    
   1656000   698.83839     -6833433.1      194.35164      197.62951      198.7871       103.32348    
   1657000   699.52085     -6833411.9      194.35164      197.62951      198.7871      -53.58483     
   1658000   699.58332     -6833345.3      194.35164      197.62951      198.7871       71.716275    
   1659000   701.0985      -6833357.2      194.35164      197.62951      198.7871      -26.111737    
   1660000   701.69588     -6833267.2      194.35164      197.62951      198.7871       92.228599    
   1661000   700.26649     -6833382.8      194.35164      197.62951      198.7871      -54.664424    
   1662000   698.04778     -6833551.7      194.35164      197.62951      198.7871       7.907404     
   1663000   700.77306     -6833385.4      194.35164      197.62951      198.7871       144.47452    
   1664000   701.25576     -6833239.1      194.35164      197.62951      198.7871       51.967343    
   1665000   699.82116     -6833417.9      194.35164      197.62951      198.7871       66.61741     
   1666000   699.64954     -6833334.8      194.35164      197.62951      198.7871       99.129493    
   1667000   699.64923     -6833391.1      194.35164      197.62951      198.7871      -15.314042    
   1668000   700.13828     -6833317.8      194.35164      197.62951      198.7871       62.764553    
   1669000   699.07426     -6833532.9      194.35164      197.62951      198.7871      -9.8956284    
   1670000   700.84405     -6833291.2      194.35164      197.62951      198.7871      -10.375443    
   1671000   700.63395     -6833219.3      194.35164      197.62951      198.7871       31.233448    
   1672000   700.20906     -6833347.4      194.35164      197.62951      198.7871       187.09719    
   1673000   699.05407     -6833557.6      194.35164      197.62951      198.7871      -84.572269    
   1674000   700.84778     -6833366.6      194.35164      197.62951      198.7871       92.977539    
   1675000   700.02166     -6833377.8      194.35164      197.62951      198.7871       28.909298    
   1676000   699.62441     -6833462.9      194.35164      197.62951      198.7871      -42.391289    
   1677000   700.96358     -6833306.1      194.35164      197.62951      198.7871      -9.6778383    
   1678000   699.66707     -6833441.7      194.35164      197.62951      198.7871      -37.942161    
   1679000   698.25323     -6833590.6      194.35164      197.62951      198.7871       15.809779    
   1680000   699.25911     -6833333.9      194.35164      197.62951      198.7871       18.901951    
   1681000   698.90643     -6833467.8      194.35164      197.62951      198.7871       64.548949    
   1682000   700.92673     -6833218.5      194.35164      197.62951      198.7871       6.2271802    
   1683000   699.18648     -6833354.8      194.35164      197.62951      198.7871      -1.5370237    
   1684000   699.51604     -6833388.6      194.35164      197.62951      198.7871       89.425544    
   1685000   700.84841     -6833339        194.35164      197.62951      198.7871      -28.562387    
   1686000   699.83192     -6833279.5      194.35164      197.62951      198.7871       138.50914    
   1687000   699.20996     -6833401.6      194.35164      197.62951      198.7871       49.655831    
   1688000   700.45039     -6833384.9      194.35164      197.62951      198.7871       128.33427    
   1689000   700.48778     -6833344.8      194.35164      197.62951      198.7871      -35.121665    
   1690000   700.22376     -6833257.1      194.35164      197.62951      198.7871       23.544062    
   1691000   699.60549     -6833377.8      194.35164      197.62951      198.7871       124.97739    
   1692000   700.23772     -6833341.4      194.35164      197.62951      198.7871      -11.104039    
   1693000   701.35725     -6833292.3      194.35164      197.62951      198.7871      -81.462225    
   1694000   700.03056     -6833281.7      194.35164      197.62951      198.7871       97.500121    
   1695000   699.2251      -6833438.9      194.35164      197.62951      198.7871       129.9321     
   1696000   699.05637     -6833465.4      194.35164      197.62951      198.7871       20.123935    
   1697000   700.58147     -6833370.1      194.35164      197.62951      198.7871       132.88457    
   1698000   699.27223     -6833469.5      194.35164      197.62951      198.7871      -56.216115    
   1699000   700.71466     -6833358.6      194.35164      197.62951      198.7871       36.40003     
   1700000   700.85833     -6833273.5      194.35164      197.62951      198.7871       68.327264    
   1701000   699.5313      -6833452.4      194.35164      197.62951      198.7871      -104.91354    
   1702000   699.80803     -6833392.7      194.35164      197.62951      198.7871       151.80599    
   1703000   700.96857     -6833308.4      194.35164      197.62951      198.7871       166.22386    
   1704000   700.89161     -6833271.9      194.35164      197.62951      198.7871      -54.91078     
   1705000   700.56129     -6833382.2      194.35164      197.62951      198.7871       88.230357    
   1706000   700.65426     -6833325.3      194.35164      197.62951      198.7871       4.2286896    
   1707000   699.30246     -6833407.9      194.35164      197.62951      198.7871       75.067175    
   1708000   700.51319     -6833339.5      194.35164      197.62951      198.7871       13.161627    
   1709000   699.49176     -6833400.5      194.35164      197.62951      198.7871       2.0497494    
   1710000   698.76844     -6833482.9      194.35164      197.62951      198.7871      -8.3414016    
   1711000   699.78106     -6833338.4      194.35164      197.62951      198.7871      -11.041552    
   1712000   700.9363      -6833446.7      194.35164      197.62951      198.7871      -32.434399    
   1713000   699.70301     -6833386.1      194.35164      197.62951      198.7871       38.268471    
   1714000   699.46619     -6833377.4      194.35164      197.62951      198.7871       81.653878    
   1715000   699.71262     -6833413.9      194.35164      197.62951      198.7871       4.3580648    
   1716000   700.33958     -6833389.8      194.35164      197.62951      198.7871      -28.591091    
   1717000   701.11083     -6833329.3      194.35164      197.62951      198.7871       109.08501    
   1718000   701.0385      -6833336.3      194.35164      197.62951      198.7871       7.3154086    
   1719000   700.59242     -6833281.2      194.35164      197.62951      198.7871      -58.608899    
   1720000   699.3866      -6833481.2      194.35164      197.62951      198.7871      -28.502199    
   1721000   699.94114     -6833410.7      194.35164      197.62951      198.7871       8.96794      
   1722000   700.2469      -6833321.8      194.35164      197.62951      198.7871      -96.03269     
   1723000   699.59331     -6833389.7      194.35164      197.62951      198.7871       29.032363    
   1724000   700.20194     -6833318.3      194.35164      197.62951      198.7871       142.72321    
   1725000   700.63508     -6833287.7      194.35164      197.62951      198.7871       16.774429    
   1726000   700.96805     -6833293.6      194.35164      197.62951      198.7871      -9.2994027    
   1727000   700.41169     -6833302        194.35164      197.62951      198.7871       13.984003    
   1728000   699.15191     -6833559.3      194.35164      197.62951      198.7871      -17.373305    
   1729000   700.14298     -6833225.3      194.35164      197.62951      198.7871      -60.061349    
   1730000   700.82838     -6833304.5      194.35164      197.62951      198.7871       54.695596    
   1731000   701.24069     -6833250.4      194.35164      197.62951      198.7871      -54.506497    
   1732000   699.25826     -6833452.3      194.35164      197.62951      198.7871       27.667011    
   1733000   700.31486     -6833368.2      194.35164      197.62951      198.7871      -112.95236    
   1734000   699.70719     -6833374.9      194.35164      197.62951      198.7871      -210.30725    
   1735000   700.14326     -6833408.5      194.35164      197.62951      198.7871      -7.4727146    
   1736000   699.92804     -6833409.5      194.35164      197.62951      198.7871      -10.412171    
   1737000   700.86135     -6833481.3      194.35164      197.62951      198.7871      -94.191013    
   1738000   701.4577      -6833300.3      194.35164      197.62951      198.7871       1.1314552    
   1739000   700.28716     -6833367.4      194.35164      197.62951      198.7871       67.234605    
   1740000   700.35942     -6833347.5      194.35164      197.62951      198.7871      -140.45253    
   1741000   699.76935     -6833413.2      194.35164      197.62951      198.7871      -48.088988    
   1742000   699.92755     -6833425.8      194.35164      197.62951      198.7871      -34.354578    
   1743000   700.73714     -6833399.3      194.35164      197.62951      198.7871      -31.942186    
   1744000   700.47455     -6833459        194.35164      197.62951      198.7871      -95.542445    
   1745000   698.82697     -6833337.9      194.35164      197.62951      198.7871      -32.197623    
   1746000   700.25682     -6833398        194.35164      197.62951      198.7871       77.767935    
   1747000   700.21289     -6833372.2      194.35164      197.62951      198.7871      -5.6977251    
   1748000   700.48621     -6833305        194.35164      197.62951      198.7871       16.220188    
   1749000   699.66096     -6833436.5      194.35164      197.62951      198.7871      -18.537777    
   1750000   699.65629     -6833429.9      194.35164      197.62951      198.7871      -44.137301    
   1751000   699.59291     -6833438.3      194.35164      197.62951      198.7871      -34.719689    
   1752000   699.26847     -6833433.3      194.35164      197.62951      198.7871      -44.579731    
   1753000   699.48936     -6833361.2      194.35164      197.62951      198.7871       162.62137    
   1754000   700.35838     -6833299.3      194.35164      197.62951      198.7871       21.413869    
   1755000   699.68001     -6833375.2      194.35164      197.62951      198.7871       114.30622    
   1756000   699.53783     -6833329.9      194.35164      197.62951      198.7871       106.69677    
   1757000   699.48437     -6833509.4      194.35164      197.62951      198.7871       4.9864582    
   1758000   699.78505     -6833398.6      194.35164      197.62951      198.7871       153.2388     
   1759000   700.63352     -6833401.1      194.35164      197.62951      198.7871       136.48209    
   1760000   700.87346     -6833357.1      194.35164      197.62951      198.7871       11.612753    
   1761000   700.71882     -6833342        194.35164      197.62951      198.7871      -77.79927     
   1762000   699.5893      -6833398.7      194.35164      197.62951      198.7871       37.707969    
   1763000   700.42869     -6833425.2      194.35164      197.62951      198.7871      -146.96889    
   1764000   699.71957     -6833371.9      194.35164      197.62951      198.7871       30.323726    
   1765000   699.42819     -6833472.7      194.35164      197.62951      198.7871      -111.0657     
   1766000   700.45178     -6833401.6      194.35164      197.62951      198.7871       20.8838      
   1767000   699.67681     -6833408.6      194.35164      197.62951      198.7871       32.605273    
   1768000   698.78631     -6833466.1      194.35164      197.62951      198.7871       58.617522    
   1769000   701.35087     -6833317.8      194.35164      197.62951      198.7871      -10.967839    
   1770000   700.04061     -6833346.6      194.35164      197.62951      198.7871       87.972766    
   1771000   700.03421     -6833392.8      194.35164      197.62951      198.7871      -31.119364    
   1772000   700.60576     -6833256.8      194.35164      197.62951      198.7871       70.310348    
   1773000   699.3548      -6833512.8      194.35164      197.62951      198.7871       112.36821    
   1774000   699.58626     -6833445.6      194.35164      197.62951      198.7871      -24.04239     
   1775000   700.60308     -6833432.2      194.35164      197.62951      198.7871       53.583299    
   1776000   700.68201     -6833323.4      194.35164      197.62951      198.7871       122.6267     
   1777000   700.26632     -6833316.3      194.35164      197.62951      198.7871       16.484927    
   1778000   699.72292     -6833473.4      194.35164      197.62951      198.7871       72.14957     
   1779000   700.71389     -6833283.5      194.35164      197.62951      198.7871       76.402529    
   1780000   701.00946     -6833356.4      194.35164      197.62951      198.7871       59.05482     
   1781000   699.62677     -6833384.4      194.35164      197.62951      198.7871       37.942347    
   1782000   699.7999      -6833449.1      194.35164      197.62951      198.7871       71.220711    
   1783000   699.19295     -6833426.4      194.35164      197.62951      198.7871      -7.1039468    
   1784000   699.46897     -6833378.6      194.35164      197.62951      198.7871       158.24335    
   1785000   700.63573     -6833416        194.35164      197.62951      198.7871       46.110226    
   1786000   698.99968     -6833474.2      194.35164      197.62951      198.7871      -32.808172    
   1787000   700.57212     -6833368.9      194.35164      197.62951      198.7871       20.263767    
   1788000   701.49963     -6833324.6      194.35164      197.62951      198.7871       31.902439    
   1789000   699.75873     -6833355.8      194.35164      197.62951      198.7871       173.59518    
   1790000   700.52475     -6833375.6      194.35164      197.62951      198.7871       130.42679    
   1791000   698.0737      -6833643.6      194.35164      197.62951      198.7871      -157.30275    
   1792000   700.36616     -6833351.2      194.35164      197.62951      198.7871       95.967136    
   1793000   699.38729     -6833379.1      194.35164      197.62951      198.7871      -72.311683    
   1794000   700.10119     -6833485.2      194.35164      197.62951      198.7871       72.151804    
   1795000   700.87059     -6833376.6      194.35164      197.62951      198.7871       8.3770144    
   1796000   700.44182     -6833300.8      194.35164      197.62951      198.7871      -92.49419     
   1797000   700.2147      -6833384.2      194.35164      197.62951      198.7871       36.371176    
   1798000   700.32973     -6833403.8      194.35164      197.62951      198.7871       1.0936307    
   1799000   700.10328     -6833364.9      194.35164      197.62951      198.7871      -2.6047194    
   1800000   699.96384     -6833370.6      194.35164      197.62951      198.7871       48.361266    
   1801000   698.81989     -6833521.3      194.35164      197.62951      198.7871       87.614864    
   1802000   700.44608     -6833360.4      194.35164      197.62951      198.7871       11.285334    
   1803000   700.15907     -6833444.4      194.35164      197.62951      198.7871      -31.368076    
   1804000   700.7139      -6833323.8      194.35164      197.62951      198.7871       56.745884    
   1805000   699.35789     -6833415.9      194.35164      197.62951      198.7871       108.7976     
   1806000   699.46368     -6833397.5      194.35164      197.62951      198.7871      -44.728323    
   1807000   698.97505     -6833486.5      194.35164      197.62951      198.7871       95.529305    
   1808000   700.27774     -6833303.2      194.35164      197.62951      198.7871       70.265599    
   1809000   701.50417     -6833311.8      194.35164      197.62951      198.7871       83.958262    
   1810000   700.22541     -6833500.7      194.35164      197.62951      198.7871       22.228452    
   1811000   699.90062     -6833432        194.35164      197.62951      198.7871       76.69659     
   1812000   699.48998     -6833532.6      194.35164      197.62951      198.7871       77.370091    
   1813000   700.07159     -6833360        194.35164      197.62951      198.7871       16.140655    
   1814000   698.97722     -6833434.6      194.35164      197.62951      198.7871       91.655799    
   1815000   700.54577     -6833439.4      194.35164      197.62951      198.7871      -118.42508    
   1816000   700.27962     -6833269.8      194.35164      197.62951      198.7871       94.99176     
   1817000   700.33131     -6833442.2      194.35164      197.62951      198.7871      -128.56352    
   1818000   699.55347     -6833415.1      194.35164      197.62951      198.7871       45.991117    
   1819000   699.55694     -6833437.5      194.35164      197.62951      198.7871       155.1352     
   1820000   700.20515     -6833445.6      194.35164      197.62951      198.7871       55.877808    
   1821000   700.11722     -6833382.5      194.35164      197.62951      198.7871      -54.692041    
   1822000   698.62444     -6833523.3      194.35164      197.62951      198.7871       6.1857026    
   1823000   700.8693      -6833284.8      194.35164      197.62951      198.7871       72.198015    
   1824000   699.25936     -6833448.2      194.35164      197.62951      198.7871      -12.806387    
   1825000   698.93633     -6833544.9      194.35164      197.62951      198.7871       63.286755    
   1826000   700.34051     -6833278.1      194.35164      197.62951      198.7871      -64.658352    
   1827000   700.48201     -6833322.3      194.35164      197.62951      198.7871       89.844274    
   1828000   700.72836     -6833365.8      194.35164      197.62951      198.7871      -40.169658    
   1829000   699.46551     -6833420.9      194.35164      197.62951      198.7871       92.70359     
   1830000   700.76977     -6833384.4      194.35164      197.62951      198.7871       5.927776     
   1831000   698.74617     -6833494.3      194.35164      197.62951      198.7871      -12.479991    
   1832000   698.23044     -6833480.4      194.35164      197.62951      198.7871      -86.003949    
   1833000   699.60684     -6833391.4      194.35164      197.62951      198.7871      -2.3573879    
   1834000   700.07918     -6833297.1      194.35164      197.62951      198.7871       61.202172    
   1835000   700.49097     -6833459.1      194.35164      197.62951      198.7871       105.2521     
   1836000   699.02661     -6833450.2      194.35164      197.62951      198.7871       114.30525    
   1837000   700.50651     -6833331.8      194.35164      197.62951      198.7871       2.770255     
   1838000   700.09832     -6833570.8      194.35164      197.62951      198.7871      -246.3387     
   1839000   700.04708     -6833375.8      194.35164      197.62951      198.7871      -48.507396    
   1840000   700.99499     -6833225.8      194.35164      197.62951      198.7871       29.097704    
   1841000   701.44498     -6833299.1      194.35164      197.62951      198.7871      -106.04953    
   1842000   700.41689     -6833421.5      194.35164      197.62951      198.7871      -46.394536    
   1843000   699.65191     -6833495.6      194.35164      197.62951      198.7871       64.801282    
   1844000   700.87132     -6833287.1      194.35164      197.62951      198.7871       7.230208     
   1845000   699.86916     -6833314.4      194.35164      197.62951      198.7871       35.902234    
   1846000   700.04153     -6833379.7      194.35164      197.62951      198.7871       66.72746     
   1847000   699.18425     -6833368.5      194.35164      197.62951      198.7871       2.2296885    
   1848000   700.69351     -6833312.9      194.35164      197.62951      198.7871       57.204685    
   1849000   698.88917     -6833412.6      194.35164      197.62951      198.7871       40.139448    
   1850000   699.39494     -6833316.2      194.35164      197.62951      198.7871       140.23245    
   1851000   701.29524     -6833253.5      194.35164      197.62951      198.7871      -128.62538    
   1852000   700.35495     -6833368.1      194.35164      197.62951      198.7871      -53.480655    
   1853000   699.82999     -6833363        194.35164      197.62951      198.7871       86.931348    
   1854000   699.66006     -6833432.7      194.35164      197.62951      198.7871      -131.83014    
   1855000   700.46239     -6833282.9      194.35164      197.62951      198.7871       3.6348235    
   1856000   699.46473     -6833398.4      194.35164      197.62951      198.7871      -59.891098    
   1857000   699.10253     -6833398.1      194.35164      197.62951      198.7871       84.029475    
   1858000   700.19326     -6833371.2      194.35164      197.62951      198.7871       1.8094617    
   1859000   699.97716     -6833450        194.35164      197.62951      198.7871      -14.257976    
   1860000   701.03136     -6833222.3      194.35164      197.62951      198.7871      -90.259139    
   1861000   699.81887     -6833305.5      194.35164      197.62951      198.7871       35.26457     
   1862000   699.75166     -6833423.8      194.35164      197.62951      198.7871       56.56983     
   1863000   698.61381     -6833532.9      194.35164      197.62951      198.7871      -109.13327    
   1864000   701.73472     -6833252        194.35164      197.62951      198.7871       32.951206    
   1865000   699.89785     -6833336.3      194.35164      197.62951      198.7871       114.62105    
   1866000   699.12528     -6833375.3      194.35164      197.62951      198.7871      -50.75025     
   1867000   699.90509     -6833332.9      194.35164      197.62951      198.7871      -57.839957    
   1868000   698.86242     -6833506.3      194.35164      197.62951      198.7871       88.539166    
   1869000   699.12768     -6833457.7      194.35164      197.62951      198.7871       172.08741    
   1870000   701.48221     -6833316.6      194.35164      197.62951      198.7871      -1.7101795    
   1871000   699.3631      -6833597.1      194.35164      197.62951      198.7871      -22.209404    
   1872000   700.72441     -6833304.8      194.35164      197.62951      198.7871      -60.732993    
   1873000   700.24937     -6833355.8      194.35164      197.62951      198.7871      -13.577951    
   1874000   700.06824     -6833441.5      194.35164      197.62951      198.7871      -180.09373    
   1875000   699.15382     -6833523.4      194.35164      197.62951      198.7871      -48.615145    
   1876000   699.57788     -6833502.2      194.35164      197.62951      198.7871      -136.99502    
   1877000   699.95874     -6833434.2      194.35164      197.62951      198.7871       45.145299    
   1878000   699.23824     -6833380.5      194.35164      197.62951      198.7871      -33.682823    
   1879000   700.07275     -6833397.3      194.35164      197.62951      198.7871       86.950554    
   1880000   699.4204      -6833461.6      194.35164      197.62951      198.7871      -55.524153    
   1881000   700.50187     -6833261.7      194.35164      197.62951      198.7871       90.547839    
   1882000   699.0592      -6833513.1      194.35164      197.62951      198.7871       4.3156091    
   1883000   699.2853      -6833459.3      194.35164      197.62951      198.7871       56.718753    
   1884000   700.88282     -6833296.6      194.35164      197.62951      198.7871       75.865736    
   1885000   701.46524     -6833225.6      194.35164      197.62951      198.7871       24.727691    
   1886000   699.7218      -6833358.3      194.35164      197.62951      198.7871       12.25985     
   1887000   701.08998     -6833299.9      194.35164      197.62951      198.7871       69.835893    
   1888000   699.01732     -6833452.7      194.35164      197.62951      198.7871       99.144671    
   1889000   700.62891     -6833372.9      194.35164      197.62951      198.7871       120.31607    
   1890000   701.40231     -6833279.4      194.35164      197.62951      198.7871      -13.276677    
   1891000   699.16924     -6833573.9      194.35164      197.62951      198.7871      -41.736151    
   1892000   699.41279     -6833390.5      194.35164      197.62951      198.7871      -88.008044    
   1893000   699.64223     -6833440.5      194.35164      197.62951      198.7871       10.851865    
   1894000   698.47323     -6833402.5      194.35164      197.62951      198.7871      -22.709369    
   1895000   699.25666     -6833425.2      194.35164      197.62951      198.7871      -17.603332    
   1896000   699.13199     -6833480.3      194.35164      197.62951      198.7871       34.799861    
   1897000   700.15168     -6833448.8      194.35164      197.62951      198.7871       21.823429    
   1898000   700.30719     -6833354.1      194.35164      197.62951      198.7871       42.962313    
   1899000   700.86563     -6833316.3      194.35164      197.62951      198.7871      -36.620515    
   1900000   699.63268     -6833377.2      194.35164      197.62951      198.7871       8.076634     
   1901000   700.12707     -6833415.7      194.35164      197.62951      198.7871      -62.897005    
   1902000   702.21485     -6833220.3      194.35164      197.62951      198.7871       125.56212    
   1903000   699.41429     -6833489.6      194.35164      197.62951      198.7871      -55.567643    
   1904000   699.65789     -6833523.6      194.35164      197.62951      198.7871      -15.517646    
   1905000   700.79683     -6833261        194.35164      197.62951      198.7871       177.63883    
   1906000   700.63263     -6833245.1      194.35164      197.62951      198.7871       112.68377    
   1907000   699.89558     -6833350.9      194.35164      197.62951      198.7871       77.162056    
   1908000   699.35973     -6833442.7      194.35164      197.62951      198.7871       81.574789    
   1909000   700.02006     -6833416.1      194.35164      197.62951      198.7871      -26.736217    
   1910000   700.95154     -6833231.5      194.35164      197.62951      198.7871       57.072533    
   1911000   700.07471     -6833335.7      194.35164      197.62951      198.7871       55.919291    
   1912000   699.23345     -6833480.2      194.35164      197.62951      198.7871       59.459164    
   1913000   699.73005     -6833507.8      194.35164      197.62951      198.7871      -84.166603    
   1914000   700.38034     -6833335        194.35164      197.62951      198.7871       95.364282    
   1915000   698.80209     -6833381.2      194.35164      197.62951      198.7871       118.28925    
   1916000   701.08761     -6833275.5      194.35164      197.62951      198.7871       62.316986    
   1917000   700.15203     -6833457.8      194.35164      197.62951      198.7871       103.73676    
   1918000   699.78067     -6833372        194.35164      197.62951      198.7871      -29.797924    
   1919000   700.22106     -6833309.6      194.35164      197.62951      198.7871       121.28486    
   1920000   700.05583     -6833324.7      194.35164      197.62951      198.7871      -23.80051     
   1921000   699.30575     -6833425.3      194.35164      197.62951      198.7871       83.864431    
   1922000   701.04022     -6833356.2      194.35164      197.62951      198.7871      -82.175253    
   1923000   699.64926     -6833264.6      194.35164      197.62951      198.7871      -5.3696945    
   1924000   699.14439     -6833539.1      194.35164      197.62951      198.7871      -122.70854    
   1925000   699.67363     -6833387.9      194.35164      197.62951      198.7871      -10.346242    
   1926000   700.16327     -6833316.9      194.35164      197.62951      198.7871      -52.372113    
   1927000   700.70781     -6833358.1      194.35164      197.62951      198.7871       160.20622    
   1928000   699.07678     -6833340.5      194.35164      197.62951      198.7871      -11.629364    
   1929000   699.05263     -6833484.2      194.35164      197.62951      198.7871      -60.7096      
   1930000   700.02252     -6833332.2      194.35164      197.62951      198.7871       6.848383     
   1931000   699.52526     -6833521.1      194.35164      197.62951      198.7871       20.123757    
   1932000   700.29686     -6833424.7      194.35164      197.62951      198.7871       5.7486397    
   1933000   700.25762     -6833390        194.35164      197.62951      198.7871      -83.186938    
   1934000   700.46745     -6833356.9      194.35164      197.62951      198.7871       148.31377    
   1935000   700.3356      -6833351.3      194.35164      197.62951      198.7871      -23.847118    
   1936000   701.17103     -6833387.4      194.35164      197.62951      198.7871       118.47907    
   1937000   701.3936      -6833185.2      194.35164      197.62951      198.7871      -19.794655    
   1938000   700.68918     -6833389.9      194.35164      197.62951      198.7871      -62.744481    
   1939000   699.38662     -6833445.4      194.35164      197.62951      198.7871       127.33266    
   1940000   700.75453     -6833436.9      194.35164      197.62951      198.7871      -37.707572    
   1941000   699.17076     -6833431.2      194.35164      197.62951      198.7871      -80.793852    
   1942000   699.16471     -6833383.2      194.35164      197.62951      198.7871      -0.54685956   
   1943000   700.25021     -6833410.3      194.35164      197.62951      198.7871      -32.277268    
   1944000   700.25827     -6833327.8      194.35164      197.62951      198.7871      -47.988369    
   1945000   699.67134     -6833451.2      194.35164      197.62951      198.7871      -102.59541    
   1946000   701.03115     -6833243.6      194.35164      197.62951      198.7871       67.938836    
   1947000   700.63124     -6833352.6      194.35164      197.62951      198.7871       42.406887    
   1948000   699.32571     -6833433.8      194.35164      197.62951      198.7871       90.714262    
   1949000   699.83482     -6833396.4      194.35164      197.62951      198.7871       16.338983    
   1950000   700.21986     -6833352.4      194.35164      197.62951      198.7871       48.67109     
   1951000   700.11617     -6833399.8      194.35164      197.62951      198.7871       19.692963    
   1952000   699.72925     -6833413.4      194.35164      197.62951      198.7871      -86.159977    
   1953000   700.63293     -6833195.1      194.35164      197.62951      198.7871       100.70108    
   1954000   700.35884     -6833353        194.35164      197.62951      198.7871      -40.654561    
   1955000   700.99932     -6833319.8      194.35164      197.62951      198.7871       102.45297    
   1956000   699.47744     -6833450.9      194.35164      197.62951      198.7871       30.870156    
   1957000   699.30168     -6833459.6      194.35164      197.62951      198.7871       92.237866    
   1958000   700.50168     -6833401.4      194.35164      197.62951      198.7871      -38.946509    
   1959000   700.84841     -6833231        194.35164      197.62951      198.7871       21.311039    
   1960000   699.40507     -6833395.5      194.35164      197.62951      198.7871       38.619449    
   1961000   698.95411     -6833562.6      194.35164      197.62951      198.7871      -72.83279     
   1962000   701.18803     -6833302.1      194.35164      197.62951      198.7871      -4.2500922    
   1963000   701.24582     -6833305.1      194.35164      197.62951      198.7871      -12.371147    
   1964000   699.90742     -6833477        194.35164      197.62951      198.7871       47.078053    
   1965000   700.35757     -6833435.1      194.35164      197.62951      198.7871      -10.521461    
   1966000   699.95005     -6833458.9      194.35164      197.62951      198.7871      -40.873069    
   1967000   698.77207     -6833416.6      194.35164      197.62951      198.7871      -80.666856    
   1968000   699.1634      -6833364.8      194.35164      197.62951      198.7871       96.049395    
   1969000   701.05133     -6833214.1      194.35164      197.62951      198.7871       97.286225    
   1970000   699.67239     -6833481.5      194.35164      197.62951      198.7871      -22.301266    
   1971000   700.08131     -6833365        194.35164      197.62951      198.7871      -129.75619    
   1972000   701.35704     -6833289.9      194.35164      197.62951      198.7871      -103.40204    
   1973000   701.13234     -6833369        194.35164      197.62951      198.7871       27.928335    
   1974000   698.68446     -6833555.4      194.35164      197.62951      198.7871      -73.811174    
   1975000   699.54041     -6833387.7      194.35164      197.62951      198.7871       73.760147    
   1976000   699.51593     -6833462.2      194.35164      197.62951      198.7871      -12.291842    
   1977000   700.34024     -6833450        194.35164      197.62951      198.7871      -35.585098    
   1978000   700.83913     -6833264.8      194.35164      197.62951      198.7871      -188.78372    
   1979000   699.73828     -6833493.7      194.35164      197.62951      198.7871       3.378548     
   1980000   699.55663     -6833393.9      194.35164      197.62951      198.7871      -33.641524    
   1981000   700.12249     -6833377.1      194.35164      197.62951      198.7871       40.616731    
   1982000   698.86557     -6833478.8      194.35164      197.62951      198.7871       26.228549    
   1983000   701.82437     -6833265.4      194.35164      197.62951      198.7871      -53.294183    
   1984000   699.62291     -6833378.5      194.35164      197.62951      198.7871       50.572963    
   1985000   697.94146     -6833627.5      194.35164      197.62951      198.7871      -72.218949    
   1986000   697.53902     -6833572.8      194.35164      197.62951      198.7871      -42.875576    
   1987000   700.06733     -6833479.5      194.35164      197.62951      198.7871      -30.189009    
   1988000   698.61139     -6833601.8      194.35164      197.62951      198.7871      -77.76925     
   1989000   699.39538     -6833481.2      194.35164      197.62951      198.7871      -168.59827    
   1990000   700.66539     -6833257.7      194.35164      197.62951      198.7871      -40.444713    
   1991000   699.48578     -6833384.7      194.35164      197.62951      198.7871       45.317294    
   1992000   700.34017     -6833512        194.35164      197.62951      198.7871      -6.7119424    
   1993000   700.36656     -6833433        194.35164      197.62951      198.7871       52.30453     
   1994000   699.68301     -6833387.1      194.35164      197.62951      198.7871       59.655301    
   1995000   699.29406     -6833398.2      194.35164      197.62951      198.7871       132.09942    
   1996000   700.62499     -6833441.6      194.35164      197.62951      198.7871      -51.315792    
   1997000   701.26828     -6833433        194.35164      197.62951      198.7871       21.321648    
   1998000   699.52402     -6833510.9      194.35164      197.62951      198.7871      -70.884114    
   1999000   700.35839     -6833403.9      194.35164      197.62951      198.7871       72.302641    
   2000000   700.92961     -6833306.4      194.35164      197.62951      198.7871       66.284295    
   2001000   701.06543     -6833335.8      194.35164      197.62951      198.7871       104.67353    
   2002000   700.77776     -6833392.9      194.35164      197.62951      198.7871      -82.173072    
   2003000   700.02947     -6833498.5      194.35164      197.62951      198.7871      -71.183197    
   2004000   701.09701     -6833302.5      194.35164      197.62951      198.7871       83.538535    
   2005000   700.44547     -6833323.2      194.35164      197.62951      198.7871       38.009497    
   2006000   699.67908     -6833427.5      194.35164      197.62951      198.7871       78.522712    
   2007000   700.81495     -6833306.8      194.35164      197.62951      198.7871       31.45211     
   2008000   699.77556     -6833364.1      194.35164      197.62951      198.7871       50.360159    
   2009000   700.21667     -6833318.2      194.35164      197.62951      198.7871       7.0365452    
   2010000   698.49772     -6833576.2      194.35164      197.62951      198.7871      -60.877365    
   2011000   699.22965     -6833423.1      194.35164      197.62951      198.7871       118.29686    
   2012000   699.59111     -6833356.8      194.35164      197.62951      198.7871       61.344522    
   2013000   701.06332     -6833333.7      194.35164      197.62951      198.7871       183.19644    
   2014000   699.3069      -6833399.6      194.35164      197.62951      198.7871       134.58903    
   2015000   699.96873     -6833370.9      194.35164      197.62951      198.7871       2.6736919    
   2016000   700.56175     -6833296.4      194.35164      197.62951      198.7871      -66.505558    
   2017000   699.20181     -6833460.8      194.35164      197.62951      198.7871      -46.423217    
   2018000   700.70115     -6833302.8      194.35164      197.62951      198.7871       60.776276    
   2019000   699.18709     -6833420.7      194.35164      197.62951      198.7871      -8.1203657    
   2020000   700.38389     -6833299.5      194.35164      197.62951      198.7871       32.396594    
   2021000   699.2935      -6833397.7      194.35164      197.62951      198.7871      -7.701479     
   2022000   700.17281     -6833389.9      194.35164      197.62951      198.7871       136.26203    
   2023000   699.98616     -6833376        194.35164      197.62951      198.7871      -61.450289    
   2024000   700.58864     -6833485.2      194.35164      197.62951      198.7871       13.472572    
   2025000   699.97482     -6833495.5      194.35164      197.62951      198.7871      -106.39052    
   2026000   700.13226     -6833492.9      194.35164      197.62951      198.7871       188.9342     
   2027000   699.22541     -6833373.2      194.35164      197.62951      198.7871       197.19479    
   2028000   701.09497     -6833415.2      194.35164      197.62951      198.7871       1.3911399    
   2029000   701.3312      -6833290.7      194.35164      197.62951      198.7871       109.7553     
   2030000   701.82493     -6833209.6      194.35164      197.62951      198.7871       40.983739    
   2031000   699.62641     -6833357.1      194.35164      197.62951      198.7871       66.312829    
   2032000   701.10645     -6833372.6      194.35164      197.62951      198.7871      -32.270264    
   2033000   700.5059      -6833305.2      194.35164      197.62951      198.7871       90.049491    
   2034000   699.88443     -6833255.9      194.35164      197.62951      198.7871       89.009963    
   2035000   699.9385      -6833390.7      194.35164      197.62951      198.7871       35.673061    
   2036000   700.01884     -6833333.6      194.35164      197.62951      198.7871       48.282928    
   2037000   701.95826     -6833214.8      194.35164      197.62951      198.7871       139.69157    
   2038000   700.12659     -6833508.8      194.35164      197.62951      198.7871      -72.207007    
   2039000   698.85477     -6833544.5      194.35164      197.62951      198.7871      -6.7573027    
   2040000   701.07239     -6833488        194.35164      197.62951      198.7871       44.742827    
   2041000   700.75306     -6833432.9      194.35164      197.62951      198.7871       23.211414    
   2042000   700.4519      -6833306.3      194.35164      197.62951      198.7871       117.05414    
   2043000   701.23707     -6833161.5      194.35164      197.62951      198.7871       200.52794    
   2044000   700.84623     -6833197.9      194.35164      197.62951      198.7871       196.5822     
   2045000   698.46209     -6833533.8      194.35164      197.62951      198.7871      -8.9154234    
   2046000   701.06211     -6833342.7      194.35164      197.62951      198.7871      -124.989      
   2047000   699.04285     -6833394.5      194.35164      197.62951      198.7871      -52.868598    
   2048000   700.44465     -6833413.7      194.35164      197.62951      198.7871      -143.35546    
   2049000   700.1869      -6833305.5      194.35164      197.62951      198.7871       71.927432    
   2050000   700.36064     -6833373.4      194.35164      197.62951      198.7871      -33.268413    
   2051000   699.94948     -6833483.7      194.35164      197.62951      198.7871      -61.319327    
   2052000   700.88308     -6833257.5      194.35164      197.62951      198.7871       22.926517    
   2053000   699.54927     -6833450        194.35164      197.62951      198.7871      -8.6672992    
   2054000   700.6229      -6833407.9      194.35164      197.62951      198.7871       58.674242    
   2055000   700.16663     -6833432        194.35164      197.62951      198.7871      -16.851832    
   2056000   698.75387     -6833471.9      194.35164      197.62951      198.7871      -1.819264     
   2057000   699.53596     -6833438.1      194.35164      197.62951      198.7871      -117.06642    
   2058000   699.77015     -6833388.6      194.35164      197.62951      198.7871       61.281998    
   2059000   699.81548     -6833386.9      194.35164      197.62951      198.7871       51.162291    
   2060000   700.30612     -6833423.3      194.35164      197.62951      198.7871       21.402471    
   2061000   699.90351     -6833376        194.35164      197.62951      198.7871       83.236553    
   2062000   699.35251     -6833462        194.35164      197.62951      198.7871      -44.574875    
   2063000   699.39423     -6833463        194.35164      197.62951      198.7871       39.505237    
   2064000   701.20215     -6833293.6      194.35164      197.62951      198.7871       77.279916    
   2065000   701.28895     -6833277.4      194.35164      197.62951      198.7871       126.42703    
   2066000   699.80003     -6833396.6      194.35164      197.62951      198.7871      -57.738067    
   2067000   700.08305     -6833482.7      194.35164      197.62951      198.7871       30.809139    
   2068000   700.67441     -6833340.5      194.35164      197.62951      198.7871       27.397397    
   2069000   699.4434      -6833477.9      194.35164      197.62951      198.7871       14.289072    
   2070000   699.26469     -6833556.5      194.35164      197.62951      198.7871       10.065657    
   2071000   700.04945     -6833511        194.35164      197.62951      198.7871      -120.71957    
   2072000   700.25517     -6833393.9      194.35164      197.62951      198.7871      -22.434442    
   2073000   700.1074      -6833397.7      194.35164      197.62951      198.7871       41.392219    
   2074000   699.56174     -6833421.8      194.35164      197.62951      198.7871      -19.156687    
   2075000   699.98811     -6833377.7      194.35164      197.62951      198.7871       17.38647     
   2076000   699.87357     -6833268.3      194.35164      197.62951      198.7871       115.74063    
   2077000   700.90053     -6833277.5      194.35164      197.62951      198.7871       57.682007    
   2078000   699.0834      -6833376.3      194.35164      197.62951      198.7871       105.37849    
   2079000   700.03137     -6833313.4      194.35164      197.62951      198.7871       215.52839    
   2080000   700.41486     -6833452.1      194.35164      197.62951      198.7871      -57.811151    
   2081000   699.16088     -6833485.9      194.35164      197.62951      198.7871      -5.228922     
   2082000   699.29144     -6833548.4      194.35164      197.62951      198.7871      -6.3850304    
   2083000   699.43614     -6833479.2      194.35164      197.62951      198.7871      -28.411704    
   2084000   699.67886     -6833319.5      194.35164      197.62951      198.7871       112.28502    
   2085000   700.0312      -6833523.1      194.35164      197.62951      198.7871       12.922149    
   2086000   700.3597      -6833367.4      194.35164      197.62951      198.7871       93.405375    
   2087000   699.71952     -6833387.8      194.35164      197.62951      198.7871       28.524187    
   2088000   699.94262     -6833399.8      194.35164      197.62951      198.7871       4.4028899    
   2089000   700.41889     -6833418.8      194.35164      197.62951      198.7871      -60.799568    
   2090000   700.96441     -6833352.6      194.35164      197.62951      198.7871      -0.70193135   
   2091000   700.0219      -6833319.3      194.35164      197.62951      198.7871       21.816533    
   2092000   700.23726     -6833350.8      194.35164      197.62951      198.7871       22.201353    
   2093000   700.11978     -6833331.8      194.35164      197.62951      198.7871       65.501228    
   2094000   699.81068     -6833395.2      194.35164      197.62951      198.7871       14.98933     
   2095000   699.38882     -6833440        194.35164      197.62951      198.7871       63.34404     
   2096000   700.26674     -6833369.9      194.35164      197.62951      198.7871       31.536734    
   2097000   699.84289     -6833404.9      194.35164      197.62951      198.7871       15.41526     
   2098000   699.98741     -6833466        194.35164      197.62951      198.7871      -11.89248     
   2099000   699.37124     -6833474.9      194.35164      197.62951      198.7871       13.344508    
   2100000   701.18173     -6833187.6      194.35164      197.62951      198.7871       156.79911    
   2101000   699.82928     -6833402.2      194.35164      197.62951      198.7871       117.33465    
   2102000   699.75326     -6833403.4      194.35164      197.62951      198.7871      -18.826909    
   2103000   700.6176      -6833410.7      194.35164      197.62951      198.7871      -97.476658    
   2104000   701.54272     -6833307.6      194.35164      197.62951      198.7871      -110.33529    
   2105000   699.64616     -6833405.9      194.35164      197.62951      198.7871      -20.65451     
   2106000   699.60413     -6833453.5      194.35164      197.62951      198.7871      -62.124983    
   2107000   700.43986     -6833385        194.35164      197.62951      198.7871       163.88113    
   2108000   699.92554     -6833483.3      194.35164      197.62951      198.7871       30.164918    
   2109000   699.20552     -6833366.8      194.35164      197.62951      198.7871       149.34946    
   2110000   700.6347      -6833248.4      194.35164      197.62951      198.7871       79.92561     
   2111000   699.52841     -6833368.4      194.35164      197.62951      198.7871       87.97265     
   2112000   697.57457     -6833566.4      194.35164      197.62951      198.7871      -11.140548    
   2113000   699.94604     -6833393.3      194.35164      197.62951      198.7871       35.21669     
   2114000   698.7395      -6833469.6      194.35164      197.62951      198.7871       70.972518    
   2115000   698.26186     -6833438.9      194.35164      197.62951      198.7871       118.60328    
   2116000   700.35022     -6833357        194.35164      197.62951      198.7871      -25.424221    
   2117000   700.29969     -6833355        194.35164      197.62951      198.7871      -7.8508732    
   2118000   699.73471     -6833500.1      194.35164      197.62951      198.7871       10.121834    
   2119000   699.5472      -6833421.2      194.35164      197.62951      198.7871      -39.312525    
   2120000   699.36748     -6833465.3      194.35164      197.62951      198.7871       19.235242    
   2121000   699.3541      -6833503.5      194.35164      197.62951      198.7871      -169.67265    
   2122000   699.40165     -6833413.8      194.35164      197.62951      198.7871      -15.982797    
   2123000   698.90722     -6833485.1      194.35164      197.62951      198.7871       10.093684    
   2124000   699.96002     -6833441.6      194.35164      197.62951      198.7871       51.286153    
   2125000   699.63339     -6833447.9      194.35164      197.62951      198.7871       17.043077    
   2126000   698.86149     -6833529.3      194.35164      197.62951      198.7871      -75.43401     
   2127000   699.67801     -6833592.7      194.35164      197.62951      198.7871       17.027418    
   2128000   699.98815     -6833236.1      194.35164      197.62951      198.7871       80.347642    
   2129000   701.09474     -6833287.4      194.35164      197.62951      198.7871       158.31063    
   2130000   699.36747     -6833553.1      194.35164      197.62951      198.7871      -121.84451    
   2131000   699.17467     -6833472.3      194.35164      197.62951      198.7871       161.60123    
   2132000   700.73762     -6833468.9      194.35164      197.62951      198.7871       55.268994    
   2133000   698.64823     -6833511.9      194.35164      197.62951      198.7871       43.66376     
   2134000   699.36104     -6833448.6      194.35164      197.62951      198.7871      -23.379708    
   2135000   700.11758     -6833488.9      194.35164      197.62951      198.7871       120.7351     
   2136000   698.99056     -6833551        194.35164      197.62951      198.7871       117.55062    
   2137000   700.74379     -6833351.2      194.35164      197.62951      198.7871       13.925837    
   2138000   698.86915     -6833457.6      194.35164      197.62951      198.7871       67.060767    
   2139000   701.14344     -6833279.7      194.35164      197.62951      198.7871       176.86094    
   2140000   700.6983      -6833373.2      194.35164      197.62951      198.7871      -64.933211    
   2141000   700.75912     -6833373.9      194.35164      197.62951      198.7871       86.293573    
   2142000   701.19103     -6833366        194.35164      197.62951      198.7871      -28.550614    
   2143000   701.37683     -6833261.9      194.35164      197.62951      198.7871       29.806546    
   2144000   699.83989     -6833413.6      194.35164      197.62951      198.7871       10.234233    
   2145000   700.48444     -6833334.6      194.35164      197.62951      198.7871       50.845747    
   2146000   700.1444      -6833351.6      194.35164      197.62951      198.7871       56.226054    
   2147000   701.26081     -6833231.7      194.35164      197.62951      198.7871       69.425226    
   2148000   700.42287     -6833382.4      194.35164      197.62951      198.7871       128.00848    
   2149000   700.05511     -6833394.1      194.35164      197.62951      198.7871       5.6687872    
   2150000   698.79281     -6833466        194.35164      197.62951      198.7871       58.653598    
   2151000   700.00359     -6833316.4      194.35164      197.62951      198.7871       22.962021    
   2152000   699.91616     -6833398.2      194.35164      197.62951      198.7871      -57.325811    
   2153000   699.22608     -6833446.6      194.35164      197.62951      198.7871      -128.41393    
   2154000   700.49279     -6833451.9      194.35164      197.62951      198.7871       7.1325091    
   2155000   698.69217     -6833469.7      194.35164      197.62951      198.7871      -21.287575    
   2156000   698.71864     -6833496.5      194.35164      197.62951      198.7871      -25.939408    
   2157000   699.37128     -6833459.7      194.35164      197.62951      198.7871      -6.4944185    
   2158000   701.10348     -6833306        194.35164      197.62951      198.7871       56.593119    
   2159000   700.53096     -6833367.6      194.35164      197.62951      198.7871       17.174846    
   2160000   700.89608     -6833306.7      194.35164      197.62951      198.7871       37.062851    
   2161000   699.61116     -6833447.1      194.35164      197.62951      198.7871       9.9498151    
   2162000   700.20073     -6833337.8      194.35164      197.62951      198.7871       138.58107    
   2163000   700.67446     -6833252.9      194.35164      197.62951      198.7871       128.51969    
   2164000   700.46377     -6833375.7      194.35164      197.62951      198.7871       54.575767    
   2165000   698.88947     -6833447.5      194.35164      197.62951      198.7871       119.28499    
   2166000   700.6114      -6833335.2      194.35164      197.62951      198.7871       159.68166    
   2167000   701.26354     -6833262.8      194.35164      197.62951      198.7871       11.502895    
   2168000   699.77823     -6833403.1      194.35164      197.62951      198.7871       36.371837    
   2169000   700.7341      -6833334.1      194.35164      197.62951      198.7871      -23.518771    
   2170000   700.4732      -6833377.8      194.35164      197.62951      198.7871       110.22556    
   2171000   699.96639     -6833400        194.35164      197.62951      198.7871       72.63366     
   2172000   699.63897     -6833430.9      194.35164      197.62951      198.7871       49.020739    
   2173000   700.04547     -6833374.9      194.35164      197.62951      198.7871       32.604203    
   2174000   700.58901     -6833382.1      194.35164      197.62951      198.7871       192.84318    
   2175000   700.08637     -6833401.4      194.35164      197.62951      198.7871      -46.11166     
   2176000   699.98068     -6833385        194.35164      197.62951      198.7871       30.351432    
   2177000   697.77595     -6833543.5      194.35164      197.62951      198.7871      -61.750072    
   2178000   700.95469     -6833362.4      194.35164      197.62951      198.7871       153.18851    
   2179000   698.3714      -6833492.8      194.35164      197.62951      198.7871       4.3788487    
   2180000   699.92988     -6833418.2      194.35164      197.62951      198.7871      -114.39585    
   2181000   700.29412     -6833397.8      194.35164      197.62951      198.7871      -46.946732    
   2182000   700.79834     -6833323.2      194.35164      197.62951      198.7871       4.8528696    
   2183000   700.64816     -6833445.6      194.35164      197.62951      198.7871       55.509563    
   2184000   700.33791     -6833243.5      194.35164      197.62951      198.7871       103.97591    
   2185000   699.21943     -6833399.9      194.35164      197.62951      198.7871      -16.355567    
   2186000   698.96886     -6833467.7      194.35164      197.62951      198.7871      -10.188472    
   2187000   700.92211     -6833340        194.35164      197.62951      198.7871       43.788759    
   2188000   699.44322     -6833447.3      194.35164      197.62951      198.7871      -46.579607    
   2189000   700.03789     -6833411.3      194.35164      197.62951      198.7871      -25.627985    
   2190000   699.89387     -6833329.8      194.35164      197.62951      198.7871       48.926559    
   2191000   699.10812     -6833500.7      194.35164      197.62951      198.7871      -76.270047    
   2192000   700.04989     -6833316        194.35164      197.62951      198.7871       71.678656    
   2193000   700.15496     -6833383.5      194.35164      197.62951      198.7871       164.67138    
   2194000   698.21209     -6833547.9      194.35164      197.62951      198.7871       55.698033    
   2195000   699.02139     -6833473.3      194.35164      197.62951      198.7871      -47.459651    
   2196000   700.53696     -6833344.7      194.35164      197.62951      198.7871       125.20533    
   2197000   698.42969     -6833576.2      194.35164      197.62951      198.7871       65.387112    
   2198000   700.52572     -6833382.5      194.35164      197.62951      198.7871      -12.552363    
   2199000   699.62681     -6833481.4      194.35164      197.62951      198.7871       28.591974    
   2200000   700.34492     -6833355.8      194.35164      197.62951      198.7871       140.05201    
   2201000   701.26766     -6833339.2      194.35164      197.62951      198.7871       34.316053    
   2202000   699.95922     -6833387.9      194.35164      197.62951      198.7871       139.43265    
   2203000   699.5446      -6833463.5      194.35164      197.62951      198.7871       13.65341     
   2204000   700.46795     -6833440.3      194.35164      197.62951      198.7871       182.82096    
   2205000   700.29697     -6833385.6      194.35164      197.62951      198.7871       90.254707    
   2206000   700.63379     -6833339.2      194.35164      197.62951      198.7871       121.67035    
   2207000   700.18701     -6833428.9      194.35164      197.62951      198.7871       81.272094    
   2208000   699.53926     -6833397.4      194.35164      197.62951      198.7871       71.84351     
   2209000   699.92401     -6833411.3      194.35164      197.62951      198.7871       179.45058    
   2210000   699.26876     -6833404        194.35164      197.62951      198.7871       202.3925     
   2211000   700.92533     -6833368.5      194.35164      197.62951      198.7871       58.988928    
   2212000   699.79455     -6833563.8      194.35164      197.62951      198.7871       142.16082    
   2213000   701.52705     -6833316.7      194.35164      197.62951      198.7871      -6.705638     
   2214000   700.69977     -6833314.3      194.35164      197.62951      198.7871       124.52876    
   2215000   701.03286     -6833352.2      194.35164      197.62951      198.7871      -70.115799    
   2216000   700.19568     -6833322.3      194.35164      197.62951      198.7871      -92.43001     
   2217000   700.03169     -6833370.2      194.35164      197.62951      198.7871       60.058621    
   2218000   699.31591     -6833536.3      194.35164      197.62951      198.7871       16.933137    
   2219000   700.27056     -6833360.2      194.35164      197.62951      198.7871       4.0480557    
   2220000   701.07832     -6833348.5      194.35164      197.62951      198.7871       23.960655    
   2221000   699.44418     -6833382.9      194.35164      197.62951      198.7871       134.64153    
   2222000   700.09012     -6833357.9      194.35164      197.62951      198.7871       28.500004    
   2223000   700.05599     -6833326.7      194.35164      197.62951      198.7871       98.985199    
   2224000   699.40766     -6833416.1      194.35164      197.62951      198.7871       118.99353    
   2225000   699.61766     -6833352.5      194.35164      197.62951      198.7871       75.459867    
   2226000   697.97129     -6833590.3      194.35164      197.62951      198.7871       8.6726937    
   2227000   699.45714     -6833317.3      194.35164      197.62951      198.7871      -0.6581432    
   2228000   701.3183      -6833280.8      194.35164      197.62951      198.7871       61.922063    
   2229000   699.09879     -6833428.5      194.35164      197.62951      198.7871       82.376009    
   2230000   700.8799      -6833203.3      194.35164      197.62951      198.7871       150.67155    
   2231000   699.5898      -6833484.3      194.35164      197.62951      198.7871       7.0691812    
   2232000   698.97766     -6833534.9      194.35164      197.62951      198.7871       88.676655    
   2233000   700.40556     -6833380.7      194.35164      197.62951      198.7871       1.0973111    
   2234000   700.1667      -6833308.7      194.35164      197.62951      198.7871       56.304924    
   2235000   701.12037     -6833303        194.35164      197.62951      198.7871      -16.897937    
   2236000   699.84406     -6833453.7      194.35164      197.62951      198.7871      -14.939247    
   2237000   700.7502      -6833441        194.35164      197.62951      198.7871      -11.3605      
   2238000   699.89708     -6833429        194.35164      197.62951      198.7871       107.72755    
   2239000   699.82554     -6833514.5      194.35164      197.62951      198.7871      -65.920602    
   2240000   700.78863     -6833208.2      194.35164      197.62951      198.7871       82.492477    
   2241000   700.65381     -6833343.9      194.35164      197.62951      198.7871       33.789824    
   2242000   699.50756     -6833444.4      194.35164      197.62951      198.7871       31.554848    
   2243000   699.97501     -6833423.6      194.35164      197.62951      198.7871      -17.133553    
   2244000   700.00832     -6833417.2      194.35164      197.62951      198.7871       86.224631    
   2245000   700.47793     -6833392.8      194.35164      197.62951      198.7871      -58.803458    
   2246000   699.85508     -6833348.4      194.35164      197.62951      198.7871      -1.5365157    
   2247000   699.94963     -6833445        194.35164      197.62951      198.7871      -19.140141    
   2248000   699.69131     -6833415.2      194.35164      197.62951      198.7871       167.93781    
   2249000   700.55734     -6833379.6      194.35164      197.62951      198.7871      -77.219296    
   2250000   699.31665     -6833486.1      194.35164      197.62951      198.7871       72.545874    
   2251000   701.51421     -6833282        194.35164      197.62951      198.7871       4.3875453    
   2252000   701.38301     -6833213.8      194.35164      197.62951      198.7871       81.918648    
   2253000   700.21369     -6833337.4      194.35164      197.62951      198.7871       115.57811    
   2254000   700.56648     -6833306        194.35164      197.62951      198.7871       6.9457494    
   2255000   699.60253     -6833410.2      194.35164      197.62951      198.7871      -79.011336    
   2256000   700.54805     -6833467.7      194.35164      197.62951      198.7871      -120.17571    
   2257000   700.39111     -6833385.7      194.35164      197.62951      198.7871       83.35305     
   2258000   700.22969     -6833446.6      194.35164      197.62951      198.7871       118.60241    
   2259000   700.31051     -6833341.2      194.35164      197.62951      198.7871       61.019125    
   2260000   700.50276     -6833422.3      194.35164      197.62951      198.7871      -70.109254    
   2261000   699.32658     -6833451.7      194.35164      197.62951      198.7871       57.605464    
   2262000   699.91695     -6833497.3      194.35164      197.62951      198.7871      -76.251543    
   2263000   699.45528     -6833393.1      194.35164      197.62951      198.7871      -64.005287    
   2264000   700.54841     -6833271.5      194.35164      197.62951      198.7871      -16.176101    
   2265000   699.47298     -6833415.2      194.35164      197.62951      198.7871       1.6175907    
   2266000   698.72511     -6833563.1      194.35164      197.62951      198.7871       10.730671    
   2267000   699.80807     -6833474.6      194.35164      197.62951      198.7871      -91.605119    
   2268000   699.4727      -6833524.5      194.35164      197.62951      198.7871      -7.9090321    
   2269000   699.27769     -6833460.8      194.35164      197.62951      198.7871       13.9976      
   2270000   699.6168      -6833430.4      194.35164      197.62951      198.7871       30.471033    
   2271000   698.2913      -6833573.2      194.35164      197.62951      198.7871      -81.872437    
   2272000   700.94897     -6833229        194.35164      197.62951      198.7871       96.750894    
   2273000   699.51629     -6833377.7      194.35164      197.62951      198.7871       28.108626    
   2274000   700.38964     -6833408.5      194.35164      197.62951      198.7871      -30.596094    
   2275000   700.25902     -6833357        194.35164      197.62951      198.7871       109.52126    
   2276000   700.28886     -6833347.4      194.35164      197.62951      198.7871       76.470612    
   2277000   699.14752     -6833435.4      194.35164      197.62951      198.7871      -92.368979    
   2278000   700.31743     -6833357.5      194.35164      197.62951      198.7871       74.260497    
   2279000   700.73237     -6833409.4      194.35164      197.62951      198.7871      -11.637392    
   2280000   701.04911     -6833250.6      194.35164      197.62951      198.7871       95.378385    
   2281000   699.32152     -6833440.1      194.35164      197.62951      198.7871       125.75086    
   2282000   701.5719      -6833211.4      194.35164      197.62951      198.7871       31.122006    
   2283000   699.92436     -6833390.5      194.35164      197.62951      198.7871       73.548881    
   2284000   700.19912     -6833459.7      194.35164      197.62951      198.7871      -48.249507    
   2285000   699.66242     -6833468.5      194.35164      197.62951      198.7871      -5.7994857    
   2286000   700.36662     -6833376        194.35164      197.62951      198.7871       100.11734    
   2287000   700.06197     -6833443.7      194.35164      197.62951      198.7871      -33.547478    
   2288000   700.4762      -6833333.1      194.35164      197.62951      198.7871       102.86135    
   2289000   699.92205     -6833387.6      194.35164      197.62951      198.7871      -10.737512    
   2290000   699.2039      -6833459.6      194.35164      197.62951      198.7871       75.954612    
   2291000   701.1436      -6833359.7      194.35164      197.62951      198.7871      -19.055726    
   2292000   699.56082     -6833543.5      194.35164      197.62951      198.7871       19.387675    
   2293000   699.80782     -6833467.5      194.35164      197.62951      198.7871      -173.07336    
   2294000   700.69323     -6833318.7      194.35164      197.62951      198.7871       61.112527    
   2295000   700.20109     -6833334.9      194.35164      197.62951      198.7871      -20.311916    
   2296000   698.68594     -6833491.4      194.35164      197.62951      198.7871       12.916047    
   2297000   700.25295     -6833408.4      194.35164      197.62951      198.7871       50.899413    
   2298000   698.82793     -6833515.7      194.35164      197.62951      198.7871       11.998261    
   2299000   699.45177     -6833381.7      194.35164      197.62951      198.7871       156.71884    
   2300000   699.63726     -6833536.7      194.35164      197.62951      198.7871      -135.506      
   2301000   700.7862      -6833333.8      194.35164      197.62951      198.7871      -14.027603    
   2302000   701.26774     -6833240.7      194.35164      197.62951      198.7871       17.060463    
   2303000   699.88384     -6833274.5      194.35164      197.62951      198.7871       37.867367    
   2304000   700.48651     -6833337.1      194.35164      197.62951      198.7871       87.021044    
   2305000   700.31108     -6833409.4      194.35164      197.62951      198.7871      -38.952848    
   2306000   699.85456     -6833311.7      194.35164      197.62951      198.7871       233.88292    
   2307000   700.0469      -6833393.3      194.35164      197.62951      198.7871       8.0437239    
   2308000   699.95748     -6833473.4      194.35164      197.62951      198.7871       23.522862    
   2309000   699.58564     -6833376.1      194.35164      197.62951      198.7871       167.2368     
   2310000   700.13109     -6833274.6      194.35164      197.62951      198.7871       218.38855    
   2311000   698.85685     -6833472.7      194.35164      197.62951      198.7871       46.044707    
   2312000   699.07295     -6833621.7      194.35164      197.62951      198.7871      -72.315812    
   2313000   700.16584     -6833482.4      194.35164      197.62951      198.7871       77.403546    
   2314000   699.93147     -6833402.3      194.35164      197.62951      198.7871       17.90347     
   2315000   700.50487     -6833369.4      194.35164      197.62951      198.7871      -13.300673    
   2316000   699.40285     -6833541.4      194.35164      197.62951      198.7871       54.027313    
   2317000   699.98322     -6833380.6      194.35164      197.62951      198.7871       44.78724     
   2318000   699.77194     -6833513.8      194.35164      197.62951      198.7871       30.940515    
   2319000   699.50512     -6833435.1      194.35164      197.62951      198.7871       53.714166    
   2320000   699.12168     -6833486.4      194.35164      197.62951      198.7871       102.3505     
   2321000   700.11445     -6833435.9      194.35164      197.62951      198.7871       33.062075    
   2322000   700.04325     -6833534.2      194.35164      197.62951      198.7871      -25.010506    
   2323000   698.06453     -6833506.2      194.35164      197.62951      198.7871       98.760395    
   2324000   699.62141     -6833425.9      194.35164      197.62951      198.7871       72.008762    
   2325000   700.10327     -6833304.8      194.35164      197.62951      198.7871       115.74885    
   2326000   699.717       -6833396.6      194.35164      197.62951      198.7871       174.42788    
   2327000   700.18347     -6833372.3      194.35164      197.62951      198.7871      -105.55268    
   2328000   700.56675     -6833254.5      194.35164      197.62951      198.7871       148.38133    
   2329000   700.19898     -6833319.2      194.35164      197.62951      198.7871      -2.7977429    
   2330000   700.28483     -6833390.2      194.35164      197.62951      198.7871       82.922579    
   2331000   699.09666     -6833450        194.35164      197.62951      198.7871      -9.4696911    
   2332000   699.43125     -6833307.4      194.35164      197.62951      198.7871       135.40602    
   2333000   700.81106     -6833316.9      194.35164      197.62951      198.7871       43.759946    
   2334000   700.04452     -6833338.9      194.35164      197.62951      198.7871       114.44487    
   2335000   699.90342     -6833356.8      194.35164      197.62951      198.7871      -32.793808    
   2336000   699.80026     -6833485.3      194.35164      197.62951      198.7871      -28.322859    
   2337000   699.63468     -6833446.4      194.35164      197.62951      198.7871       37.970071    
   2338000   700.42707     -6833318.1      194.35164      197.62951      198.7871       113.43498    
   2339000   699.19668     -6833428.7      194.35164      197.62951      198.7871       98.161347    
   2340000   698.7213      -6833500.2      194.35164      197.62951      198.7871      -8.0171284    
   2341000   699.10187     -6833368.9      194.35164      197.62951      198.7871       99.328581    
   2342000   700.08965     -6833420.7      194.35164      197.62951      198.7871      -149.93174    
   2343000   698.73012     -6833445.9      194.35164      197.62951      198.7871      -1.4863273    
   2344000   700.4648      -6833422.7      194.35164      197.62951      198.7871      -124.22963    
   2345000   699.08829     -6833425.7      194.35164      197.62951      198.7871       31.684895    
   2346000   699.50578     -6833305.1      194.35164      197.62951      198.7871       7.0979795    
   2347000   699.26689     -6833482        194.35164      197.62951      198.7871      -65.406706    
   2348000   699.09248     -6833454.3      194.35164      197.62951      198.7871       4.4083835    
   2349000   699.20697     -6833579.1      194.35164      197.62951      198.7871      -83.515644    
   2350000   699.61387     -6833442.3      194.35164      197.62951      198.7871       149.25049    
   2351000   700.45405     -6833399.5      194.35164      197.62951      198.7871      -58.320923    
   2352000   700.12548     -6833445.7      194.35164      197.62951      198.7871      -43.292211    
   2353000   700.13387     -6833410.7      194.35164      197.62951      198.7871       32.515853    
   2354000   699.26083     -6833428.2      194.35164      197.62951      198.7871       8.6283708    
   2355000   700.68161     -6833316.1      194.35164      197.62951      198.7871      -10.813498    
   2356000   699.11203     -6833576        194.35164      197.62951      198.7871      -72.466065    
   2357000   700.44201     -6833368.4      194.35164      197.62951      198.7871      -4.0824606    
   2358000   699.8998      -6833429.2      194.35164      197.62951      198.7871       110.89887    
   2359000   699.84955     -6833479.4      194.35164      197.62951      198.7871       57.675046    
   2360000   701.29971     -6833312.4      194.35164      197.62951      198.7871      -47.091512    
   2361000   700.08353     -6833478.9      194.35164      197.62951      198.7871       31.151264    
   2362000   700.25549     -6833449.4      194.35164      197.62951      198.7871       13.633559    
   2363000   699.24749     -6833430.9      194.35164      197.62951      198.7871       40.822407    
   2364000   700.4331      -6833401.2      194.35164      197.62951      198.7871       95.432351    
   2365000   699.19772     -6833359.9      194.35164      197.62951      198.7871       91.208656    
   2366000   698.89816     -6833410.6      194.35164      197.62951      198.7871       34.634342    
   2367000   699.73392     -6833530.1      194.35164      197.62951      198.7871       46.216088    
   2368000   699.62351     -6833420        194.35164      197.62951      198.7871       99.88857     
   2369000   700.5095      -6833301        194.35164      197.62951      198.7871       31.826011    
   2370000   699.73386     -6833366.7      194.35164      197.62951      198.7871       88.687284    
   2371000   700.11189     -6833365.9      194.35164      197.62951      198.7871       9.9616797    
   2372000   699.79488     -6833362        194.35164      197.62951      198.7871       74.374993    
   2373000   698.18686     -6833500.6      194.35164      197.62951      198.7871       36.505634    
   2374000   699.57831     -6833399.2      194.35164      197.62951      198.7871       132.08997    
   2375000   699.4746      -6833389.9      194.35164      197.62951      198.7871       211.6781     
   2376000   700.46031     -6833389.5      194.35164      197.62951      198.7871       78.745058    
   2377000   698.60696     -6833415.1      194.35164      197.62951      198.7871       10.349037    
   2378000   700.7436      -6833377.7      194.35164      197.62951      198.7871       27.113053    
   2379000   700.17076     -6833364        194.35164      197.62951      198.7871       163.72719    
   2380000   699.27        -6833380.7      194.35164      197.62951      198.7871       171.13502    
   2381000   700.6954      -6833298.9      194.35164      197.62951      198.7871      -57.08942     
   2382000   700.94105     -6833359.5      194.35164      197.62951      198.7871       116.59531    
   2383000   699.8117      -6833350.3      194.35164      197.62951      198.7871       97.949068    
   2384000   699.52758     -6833442.4      194.35164      197.62951      198.7871       16.7902      
   2385000   699.80881     -6833431.3      194.35164      197.62951      198.7871       56.084947    
   2386000   699.52036     -6833410.1      194.35164      197.62951      198.7871      -14.186705    
   2387000   698.31864     -6833495.1      194.35164      197.62951      198.7871       64.81782     
   2388000   701.47446     -6833222.8      194.35164      197.62951      198.7871       111.78197    
   2389000   699.07489     -6833497.6      194.35164      197.62951      198.7871      -86.266834    
   2390000   699.55011     -6833424.6      194.35164      197.62951      198.7871      -37.735344    
   2391000   701.66242     -6833233.9      194.35164      197.62951      198.7871       147.5901     
   2392000   701.22706     -6833385.7      194.35164      197.62951      198.7871      -129.478      
   2393000   699.86726     -6833441.1      194.35164      197.62951      198.7871       40.419507    
   2394000   701.18732     -6833289.3      194.35164      197.62951      198.7871       128.08901    
   2395000   699.11779     -6833499.5      194.35164      197.62951      198.7871       20.558529    
   2396000   698.76826     -6833489.5      194.35164      197.62951      198.7871       80.885226    
   2397000   699.81434     -6833481.9      194.35164      197.62951      198.7871      -123.31503    
   2398000   699.0658      -6833553.6      194.35164      197.62951      198.7871       79.72601     
   2399000   701.10967     -6833320        194.35164      197.62951      198.7871       64.168471    
   2400000   700.35047     -6833387.3      194.35164      197.62951      198.7871       71.4454      
   2401000   699.43083     -6833495.3      194.35164      197.62951      198.7871      -96.142524    
   2402000   700.6299      -6833330.2      194.35164      197.62951      198.7871      -24.852389    
   2403000   699.96933     -6833440.5      194.35164      197.62951      198.7871      -3.756116     
   2404000   698.89419     -6833439.8      194.35164      197.62951      198.7871       29.59492     
   2405000   700.98873     -6833359.2      194.35164      197.62951      198.7871      -22.910403    
   2406000   699.31133     -6833521.7      194.35164      197.62951      198.7871      -60.671894    
   2407000   699.92325     -6833298.9      194.35164      197.62951      198.7871       39.927335    
   2408000   699.92612     -6833295        194.35164      197.62951      198.7871       111.76194    
   2409000   698.34378     -6833588.6      194.35164      197.62951      198.7871      -28.213622    
   2410000   701.69337     -6833431.9      194.35164      197.62951      198.7871      -90.914082    
   2411000   699.91611     -6833453.5      194.35164      197.62951      198.7871       7.3542289    
   2412000   700.398       -6833359.5      194.35164      197.62951      198.7871      -28.468569    
   2413000   699.49269     -6833470.2      194.35164      197.62951      198.7871      -95.052505    
   2414000   700.13654     -6833291.2      194.35164      197.62951      198.7871       186.70727    
   2415000   699.98235     -6833365        194.35164      197.62951      198.7871       51.554434    
   2416000   700.69848     -6833311        194.35164      197.62951      198.7871       95.146256    
   2417000   701.03114     -6833351.6      194.35164      197.62951      198.7871       155.06638    
   2418000   699.64465     -6833349.6      194.35164      197.62951      198.7871      -50.651596    
   2419000   699.21937     -6833529.2      194.35164      197.62951      198.7871      -38.923017    
   2420000   700.20056     -6833424.3      194.35164      197.62951      198.7871      -149.96938    
   2421000   698.9002      -6833512.3      194.35164      197.62951      198.7871       88.953215    
   2422000   700.21941     -6833362        194.35164      197.62951      198.7871       46.444346    
   2423000   699.88805     -6833446.6      194.35164      197.62951      198.7871      -136.84999    
   2424000   699.28701     -6833541.1      194.35164      197.62951      198.7871      -8.7165729    
   2425000   698.85581     -6833574.7      194.35164      197.62951      198.7871      -43.45027     
   2426000   700.30247     -6833357.8      194.35164      197.62951      198.7871       17.443447    
   2427000   701.05252     -6833210.7      194.35164      197.62951      198.7871       87.15754     
   2428000   698.92379     -6833543.2      194.35164      197.62951      198.7871      -48.246529    
   2429000   700.64241     -6833452.7      194.35164      197.62951      198.7871      -101.41235    
   2430000   700.9504      -6833301.9      194.35164      197.62951      198.7871       24.401449    
   2431000   700.61631     -6833405        194.35164      197.62951      198.7871       4.3481743    
   2432000   699.64392     -6833435.1      194.35164      197.62951      198.7871       121.31018    
   2433000   699.90774     -6833312.4      194.35164      197.62951      198.7871       24.806377    
   2434000   699.93228     -6833449.2      194.35164      197.62951      198.7871      -14.72409     
   2435000   700.58014     -6833427.8      194.35164      197.62951      198.7871       9.792198     
   2436000   699.24207     -6833507.4      194.35164      197.62951      198.7871      -12.251499    
   2437000   699.82125     -6833434.3      194.35164      197.62951      198.7871      -14.242147    
   2438000   699.60209     -6833447        194.35164      197.62951      198.7871      -71.85701     
   2439000   700.5646      -6833327.8      194.35164      197.62951      198.7871      -146.40895    
   2440000   699.17365     -6833503.5      194.35164      197.62951      198.7871      -72.815308    
   2441000   699.69219     -6833408.2      194.35164      197.62951      198.7871      -18.339933    
   2442000   699.32522     -6833459.8      194.35164      197.62951      198.7871       14.87304     
   2443000   700.25225     -6833321        194.35164      197.62951      198.7871       80.487903    
   2444000   700.1328      -6833360        194.35164      197.62951      198.7871      -18.994726    
   2445000   699.91079     -6833407.7      194.35164      197.62951      198.7871       94.941626    
   2446000   700.1204      -6833421        194.35164      197.62951      198.7871      -120.21648    
   2447000   699.89614     -6833490.1      194.35164      197.62951      198.7871      -55.379304    
   2448000   700.23541     -6833391.3      194.35164      197.62951      198.7871       11.979253    
   2449000   700.06402     -6833284.3      194.35164      197.62951      198.7871       46.995296    
   2450000   700.80547     -6833316.2      194.35164      197.62951      198.7871       36.244819    
   2451000   700.15299     -6833400.7      194.35164      197.62951      198.7871       10.134259    
   2452000   699.29053     -6833575        194.35164      197.62951      198.7871      -1.8148817    
   2453000   699.53928     -6833404.8      194.35164      197.62951      198.7871       103.50176    
   2454000   700.81948     -6833358.6      194.35164      197.62951      198.7871      -92.02078     
   2455000   699.69936     -6833373.5      194.35164      197.62951      198.7871      -36.683359    
   2456000   699.66449     -6833387.8      194.35164      197.62951      198.7871       67.237739    
   2457000   700.32683     -6833340.2      194.35164      197.62951      198.7871      -37.217218    
   2458000   699.81417     -6833461.3      194.35164      197.62951      198.7871      -56.274945    
   2459000   699.53513     -6833428.2      194.35164      197.62951      198.7871       31.163239    
   2460000   700.46804     -6833358        194.35164      197.62951      198.7871       53.012432    
   2461000   700.37983     -6833372.6      194.35164      197.62951      198.7871      -127.55205    
   2462000   700.33029     -6833361.3      194.35164      197.62951      198.7871       14.32629     
   2463000   700.78905     -6833253.6      194.35164      197.62951      198.7871      -21.611283    
   2464000   699.8023      -6833330.6      194.35164      197.62951      198.7871      -40.512863    
   2465000   699.12192     -6833471.4      194.35164      197.62951      198.7871      -113.37629    
   2466000   699.4533      -6833486.9      194.35164      197.62951      198.7871      -222.95827    
   2467000   698.99835     -6833544.1      194.35164      197.62951      198.7871      -176.49419    
   2468000   699.22969     -6833474.7      194.35164      197.62951      198.7871      -91.568362    
   2469000   699.20275     -6833430.2      194.35164      197.62951      198.7871      -6.728411     
   2470000   699.37557     -6833464.5      194.35164      197.62951      198.7871      -120.14022    
   2471000   700.62874     -6833322.6      194.35164      197.62951      198.7871      -113.08236    
   2472000   700.15856     -6833441.2      194.35164      197.62951      198.7871      -145.66084    
   2473000   700.12845     -6833398.4      194.35164      197.62951      198.7871      -12.626463    
   2474000   698.38623     -6833424.2      194.35164      197.62951      198.7871       38.871791    
   2475000   698.46841     -6833602.9      194.35164      197.62951      198.7871      -47.801375    
   2476000   700.19656     -6833379.2      194.35164      197.62951      198.7871       0.037260156  
   2477000   700.71899     -6833412.1      194.35164      197.62951      198.7871       35.929407    
   2478000   700.27511     -6833362.8      194.35164      197.62951      198.7871       34.967673    
   2479000   699.56751     -6833434.9      194.35164      197.62951      198.7871       71.1721      
   2480000   698.97124     -6833436.6      194.35164      197.62951      198.7871       103.23937    
   2481000   698.71682     -6833587        194.35164      197.62951      198.7871      -43.725007    
   2482000   700.50373     -6833363.3      194.35164      197.62951      198.7871      -46.558146    
   2483000   699.86071     -6833345.3      194.35164      197.62951      198.7871       134.85253    
   2484000   700.04508     -6833408.7      194.35164      197.62951      198.7871      -13.283801    
   2485000   700.328       -6833364.6      194.35164      197.62951      198.7871      -39.858852    
   2486000   699.43157     -6833502.3      194.35164      197.62951      198.7871       21.063014    
   2487000   700.19365     -6833391.2      194.35164      197.62951      198.7871       23.214473    
   2488000   699.60067     -6833346.8      194.35164      197.62951      198.7871       73.67413     
   2489000   699.99644     -6833344.8      194.35164      197.62951      198.7871      -29.327968    
   2490000   700.78981     -6833315.9      194.35164      197.62951      198.7871       92.340076    
   2491000   699.31513     -6833368.4      194.35164      197.62951      198.7871       64.224786    
   2492000   700.80554     -6833354.8      194.35164      197.62951      198.7871       57.224394    
   2493000   700.64805     -6833331.5      194.35164      197.62951      198.7871      -4.4401973    
   2494000   700.40934     -6833431.3      194.35164      197.62951      198.7871       112.01423    
   2495000   699.84911     -6833482.2      194.35164      197.62951      198.7871      -112.37476    
   2496000   699.71976     -6833367.5      194.35164      197.62951      198.7871      -0.50211083   
   2497000   700.5175      -6833326.2      194.35164      197.62951      198.7871       10.809618    
   2498000   700.39109     -6833360.8      194.35164      197.62951      198.7871       37.924019    
   2499000   699.67379     -6833389.6      194.35164      197.62951      198.7871      -83.243637    
   2500000   700.19475     -6833387.3      194.35164      197.62951      198.7871       81.018468    
   2501000   698.51384     -6833521.2      194.35164      197.62951      198.7871      -12.723341    
   2502000   700.34523     -6833317.1      194.35164      197.62951      198.7871       10.650327    
   2503000   699.56811     -6833505.9      194.35164      197.62951      198.7871       89.360053    
   2504000   698.88204     -6833452.5      194.35164      197.62951      198.7871       38.331507    
   2505000   701.45406     -6833183.8      194.35164      197.62951      198.7871       111.17527    
   2506000   699.67768     -6833390        194.35164      197.62951      198.7871       57.976115    
   2507000   699.87327     -6833378.1      194.35164      197.62951      198.7871      -12.574497    
   2508000   699.38488     -6833450        194.35164      197.62951      198.7871       63.388534    
   2509000   700.14416     -6833353.4      194.35164      197.62951      198.7871       115.82732    
   2510000   700.93448     -6833335.8      194.35164      197.62951      198.7871       26.169981    
Loop time of 202969 on 16384 procs for 2500000 steps with 601956 atoms

Performance: 2.128 ns/day, 11.276 hours/ns, 12.317 timesteps/s, 7.414 Matom-step/s
88.8% CPU use with 128 MPI tasks x 128 OpenMP threads

MPI task timing breakdown:
Section |  min time  |  avg time  |  max time  |%varavg| %total
---------------------------------------------------------------
Pair    | 1.1934e+05 | 1.3151e+05 | 1.4316e+05 |2302.3 | 64.79
Bond    | 0.48112    | 0.69302    | 1.1117     |  13.7 |  0.00
Kspace  | 33518      | 46728      | 60655      |4418.7 | 23.02
Neigh   | 15973      | 17810      | 19462      | 949.8 |  8.77
Comm    | 5038.6     | 5620.2     | 6162.7     | 337.7 |  2.77
Output  | 0.42773    | 0.44472    | 0.49392    |   1.5 |  0.00
Modify  | 541.29     | 890        | 1232.6     | 621.9 |  0.44
Other   |            | 413.6      |            |       |  0.20

Nlocal:        4702.78 ave        4995 max        4410 min
Histogram: 45 19 0 0 0 0 0 0 13 51
Nghost:        14491.8 ave       15291 max       13691 min
Histogram: 64 0 0 0 0 0 0 0 0 64
Neighs:    1.22896e+06 ave 1.35074e+06 max 1.10052e+06 min
Histogram: 17 19 17 11 0 0 0 31 6 27

Total # of neighbors = 1.573071e+08
Ave neighs/atom = 261.32657
Ave special neighs/atom = 0
Neighbor list builds = 426115
Dangerous builds = 0
Total wall time: 56:38:35
