LAMMPS (8 Feb 2023)
WARNING: Using I/O redirection is unreliable with parallel runs. Better to use the -in switch to read input files. (src/src/lammps.cpp:531)
  using 128 OpenMP thread(s) per MPI task
Reading data file ...
  orthogonal box = (-0.16843113 -0.17127184 -0.17227504) to (192.81798 196.06999 197.21844)
  4 by 4 by 8 MPI processor grid
  reading atoms ...
  601956 atoms
  reading velocities ...
  601956 velocities
Finding 1-2 1-3 1-4 neighbors ...
  special bond factors lj:    0        0        0       
  special bond factors coul:  0        0        0       
     0 = max # of 1-2 neighbors
     0 = max # of 1-3 neighbors
     0 = max # of 1-4 neighbors
     1 = max # of special neighbors
  special bonds CPU = 0.090 seconds
  read_data CPU = 4.052 seconds
159986 atoms in group Li
PPPM initialization ...
  using 12-bit tables for long-range coulomb (src/src/kspace.cpp:342)
  G vector (1/distance) = 0.27729172
  grid = 135 135 135
  stencil order = 5
  estimated absolute RMS force accuracy = 0.0017822213
  estimated relative force accuracy = 0.00012376842
  using double precision MKL FFT
  3d grid and FFT values/proc = 36800 36450
Generated 0 of 10 mixed pair_coeff terms from geometric mixing rule
Neighbor list info ...
  update: every = 1 steps, delay = 0 steps, check = yes
  max neighbors/atom: 5000, page size: 100000
  master list distance cutoff = 11.3
  ghost atom cutoff = 11.3
  binsize = 5.65, bins = 35 35 35
  3 neighbor lists, perpetual/occasional/extra = 3 0 0
  (1) pair buck/coul/long, perpetual
      attributes: half, newton on
      pair build: half/bin/newton
      stencil: half/bin/3d
      bin: standard
  (2) pair lennard/mdf, perpetual, skip from (3)
      attributes: half, newton on, cut 3.8
      pair build: skip
      stencil: none
      bin: none
  (3) neighbor class addition, perpetual, trim from (1)
      attributes: half, newton on, cut 3.8
      pair build: trim
      stencil: none
      bin: none
Setting up cg style minimization ...
  Unit style    : metal
  Current step  : 0
Per MPI rank memory allocation (min/avg/max) = 298.3 | 298.9 | 300.9 Mbytes
   Step          Temp          E_pair         E_mol          TotEng         Press     
         0   299.98704     -6922138.2      0             -6898796.5     -275.41697    
       436   299.98704     -6945624.9      0             -6922283.3     -10461.103    
Loop time of 88.1287 on 16384 procs for 436 steps with 601956 atoms

80.5% CPU use with 128 MPI tasks x 128 OpenMP threads

Minimization stats:
  Stopping criterion = linesearch alpha is zero
  Energy initial, next-to-last, final = 
     -6922138.16353339  -6945624.90422825  -6945624.90422825
  Force two-norm initial, final = 746.02999 0.1560051
  Force max component initial, final = 4.0738615 0.035096896
  Final line search alpha, max atom move = 4.7683716e-07 1.6735504e-08
  Iterations, force evaluations = 436 854

MPI task timing breakdown:
Section |  min time  |  avg time  |  max time  |%varavg| %total
---------------------------------------------------------------
Pair    | 50.044     | 55.533     | 73.424     |  51.6 | 63.01
Bond    | 0.00015261 | 0.00020974 | 0.00035127 |   0.0 |  0.00
Kspace  | 10.854     | 28.91      | 34.537     |  73.7 | 32.80
Neigh   | 1.2627     | 1.4132     | 1.553      |   8.7 |  1.60
Comm    | 1.5755     | 1.7427     | 1.9183     |   6.6 |  1.98
Output  | 0          | 0          | 0          |   0.0 |  0.00
Modify  | 0          | 0          | 0          |   0.0 |  0.00
Other   |            | 0.5301     |            |       |  0.60

Nlocal:        4702.78 ave        4999 max        4412 min
Histogram: 50 14 0 0 0 0 0 0 21 43
Nghost:        14326.6 ave       15140 max       13550 min
Histogram: 64 0 0 0 0 0 0 0 4 60
Neighs:    1.19446e+06 ave 1.31312e+06 max 1.07008e+06 min
Histogram: 17 22 16 9 0 0 0 28 10 26

Total # of neighbors = 1.5289052e+08
Ave neighs/atom = 253.98953
Ave special neighs/atom = 0
Neighbor list builds = 36
Dangerous builds = 0
PPPM initialization ...
  using 12-bit tables for long-range coulomb (src/src/kspace.cpp:342)
  G vector (1/distance) = 0.27729172
  grid = 135 135 135
  stencil order = 5
  estimated absolute RMS force accuracy = 0.0017822213
  estimated relative force accuracy = 0.00012376842
  using double precision MKL FFT
  3d grid and FFT values/proc = 36800 36450
Generated 0 of 10 mixed pair_coeff terms from geometric mixing rule
Setting up Verlet run ...
  Unit style    : metal
  Current step  : 0
  Time step     : 0.002
Per MPI rank memory allocation (min/avg/max) = 296 | 296.7 | 298.7 Mbytes
   Step          Temp          TotEng           Lx             Ly             Lz           Press     
         0   299.98704     -6922283.3      192.98641      196.24126      197.39072     -10461.103    
      1000   307.32442     -6897481.2      193.03328      196.28893      197.43866      95.920706    
      2000   316.08784     -6896052.2      193.08691      196.34345      197.49351      20.047593    
      3000   323.55421     -6894835.5      193.09455      196.35122      197.50132      50.183976    
      4000   331.92017     -6893476.1      193.11223      196.36921      197.51941      33.810146    
      5000   339.90389     -6892246.5      193.14567      196.40321      197.55361     -72.280436    
      6000   347.76035     -6890949.4      193.15348      196.41115      197.5616      -100.48334    
      7000   355.72876     -6889688.2      193.1789       196.437        197.5876       185.88613    
      8000   363.52109     -6888427.6      193.19159      196.44991      197.60058     -90.628514    
      9000   372.39593     -6887103.2      193.21722      196.47596      197.62679      52.189521    
     10000   379.90396     -6885810.9      193.24663      196.50587      197.65688     -1.4104102    
     11000   388.42624     -6884491.3      193.2712       196.53085      197.682       -46.865259    
     12000   395.40031     -6883220.3      193.30413      196.56434      197.71569     -29.462626    
     13000   403.9379      -6881870.9      193.32363      196.58417      197.73563     -58.229102    
     14000   412.13675     -6880563.3      193.35311      196.61415      197.76579      1.367631     
     15000   420.12153     -6879257        193.37422      196.63561      197.78737     -53.465471    
     16000   427.87694     -6878002.4      193.41051      196.67251      197.82449     -51.924818    
     17000   435.63071     -6876699.3      193.42731      196.6896       197.84168     -25.818673    
     18000   444.28832     -6875354.3      193.45515      196.71791      197.87015     -19.997979    
     19000   451.62768     -6874028.4      193.48152      196.74473      197.89713      26.726383    
     20000   460.49824     -6872744.4      193.50332      196.76689      197.91943      31.201987    
     21000   467.32235     -6871417.5      193.53486      196.79896      197.95168      133.38437    
     22000   475.75614     -6870124.6      193.55236      196.81676      197.96958      220.26194    
     23000   483.45702     -6868831.3      193.59273      196.8578       198.01087     -75.987912    
     24000   491.03872     -6867548.2      193.6209       196.88645      198.03969     -27.944609    
     25000   499.70796     -6866168.1      193.6474       196.91341      198.0668       45.365357    
     26000   507.52295     -6864862.2      193.67037      196.93676      198.09029      42.966328    
     27000   515.92545     -6863520.3      193.70132      196.96823      198.12195      60.379467    
     28000   523.63607     -6862280.2      193.72477      196.99207      198.14592      36.173245    
     29000   532.42057     -6860852.1      193.75616      197.024        198.17804      154.55789    
     30000   540.07536     -6859581.9      193.78853      197.05691      198.21114     -47.929662    
     31000   547.69576     -6858229.1      193.81912      197.08802      198.24244     -141.12311    
     32000   555.15331     -6856986.7      193.86157      197.13118      198.28585     -203.77877    
     33000   564.1055      -6855578.5      193.88009      197.15002      198.30479      34.718469    
     34000   571.82118     -6854239.4      193.89806      197.16829      198.32317      57.908825    
     35000   580.23024     -6852884.2      193.92266      197.1933       198.34833      203.58381    
     36000   587.90984     -6851648        193.9598       197.23107      198.38632      26.009056    
     37000   596.58318     -6850292.7      193.99076      197.26255      198.41799     -51.548967    
     38000   603.91711     -6848987.5      194.01281      197.28497      198.44054      49.290162    
     39000   612.00474     -6847628.8      194.04933      197.32211      198.4779      -9.6425939    
     40000   620.07852     -6846321.9      194.06527      197.33831      198.49419      130.92218    
     41000   628.76673     -6844938.1      194.11757      197.3915       198.5477      -233.53508    
     42000   635.8773      -6843667.3      194.14135      197.41568      198.57201     -57.552246    
     43000   642.68216     -6842454.8      194.1616       197.43628      198.59273      58.28388     
     44000   651.82751     -6841046.8      194.1885       197.46363      198.62024      135.91859    
     45000   660.39646     -6839705.5      194.20324      197.47862      198.63532      208.11564    
     46000   668.96214     -6838366        194.24016      197.51616      198.67308      198.20137    
     47000   674.72781     -6837075.5      194.27529      197.55188      198.70901      180.7991     
     48000   684.03772     -6835754.1      194.31237      197.58958      198.74693     -113.99062    
     49000   690.50058     -6834439.1      194.33958      197.61726      198.77477     -34.545484    
     50000   700.38066     -6832909.6      194.36703      197.64517      198.80285     -49.052289    
Loop time of 4345.19 on 16384 procs for 50000 steps with 601956 atoms

Performance: 1.988 ns/day, 12.070 hours/ns, 11.507 timesteps/s, 6.927 Matom-step/s
87.3% CPU use with 128 MPI tasks x 128 OpenMP threads

MPI task timing breakdown:
Section |  min time  |  avg time  |  max time  |%varavg| %total
---------------------------------------------------------------
Pair    | 2300.4     | 2562.7     | 2774.4     | 334.9 | 58.98
Bond    | 0.0096382  | 0.012968   | 0.018837   |   1.6 |  0.00
Kspace  | 713.14     | 956.94     | 1255.2     | 638.2 | 22.02
Neigh   | 322.56     | 361.97     | 394.93     | 142.2 |  8.33
Comm    | 99.946     | 112.83     | 122.34     |  53.0 |  2.60
Output  | 0.0072867  | 0.0078808  | 0.0089244  |   0.3 |  0.00
Modify  | 171.06     | 200.1      | 345.52     | 239.1 |  4.61
Other   |            | 150.7      |            |       |  3.47

Nlocal:        4702.78 ave        4988 max        4422 min
Histogram: 59 5 0 0 0 0 0 0 8 56
Nghost:        14105.6 ave       14890 max       13325 min
Histogram: 64 0 0 0 0 0 0 0 0 64
Neighs:    1.16529e+06 ave  1.2809e+06 max 1.03953e+06 min
Histogram: 9 24 22 9 0 0 1 19 22 22

Total # of neighbors = 1.4915699e+08
Ave neighs/atom = 247.7872
Ave special neighs/atom = 0
Neighbor list builds = 9112
Dangerous builds = 0
PPPM initialization ...
  using 12-bit tables for long-range coulomb (src/src/kspace.cpp:342)
  G vector (1/distance) = 0.27679088
  grid = 135 135 135
  stencil order = 5
  estimated absolute RMS force accuracy = 0.0018200422
  estimated relative force accuracy = 0.00012639494
  using double precision MKL FFT
  3d grid and FFT values/proc = 36800 36450
Generated 0 of 10 mixed pair_coeff terms from geometric mixing rule
Setting up Verlet run ...
  Unit style    : metal
  Current step  : 0
  Time step     : 0.002
Per MPI rank memory allocation (min/avg/max) = 297.7 | 298.4 | 300.4 Mbytes
   Step          Temp          TotEng           Lx             Ly             Lz           Press     
         0   700.38066     -6832910.9      194.36703      197.64517      198.80285     -51.19369     
      1000   700.58787     -6833062.9      194.35896      197.63696      198.79459      77.380871    
      2000   699.09448     -6833134.8      194.37053      197.64873      198.80643     -111.35747    
      3000   700.31555     -6833012.2      194.37523      197.6535       198.81123     -126.97372    
      4000   701.20789     -6832997.9      194.35708      197.63504      198.79266      145.78457    
      5000   700.32888     -6833058.2      194.37042      197.64861      198.80631     -133.40855    
      6000   699.53867     -6832984.6      194.38691      197.66539      198.82318     -215.62295    
      7000   699.93377     -6832967.3      194.36132      197.63936      198.797        130.53371    
      8000   699.58144     -6833120.3      194.36782      197.64597      198.80365     -39.531245    
      9000   699.38392     -6833005.4      194.37532      197.6536       198.81133     -179.45605    
     10000   700.11185     -6833081.3      194.36384      197.64193      198.79959     -33.722966    
     11000   700.91346     -6832943.7      194.35577      197.63372      198.79133      186.15012    
     12000   700.44305     -6832891.7      194.38033      197.65869      198.81645     -148.21441    
     13000   700.35699     -6833100.1      194.3579       197.63589      198.79351      10.389674    
     14000   698.67343     -6833168.9      194.36635      197.64447      198.80215     -102.66399    
     15000   699.96722     -6833059.5      194.35082      197.62868      198.78626      279.00391    
     16000   700.24146     -6833139        194.36806      197.64621      198.8039      -129.70184    
     17000   699.02115     -6833188.7      194.36368      197.64176      198.79942     -53.513599    
     18000   700.4678      -6832970.9      194.37713      197.65544      198.81317     -85.110548    
     19000   699.59044     -6833129.8      194.37205      197.65028      198.80798      17.11848     
     20000   701.27783     -6833014.6      194.37034      197.64853      198.80623     -99.715346    
     21000   699.60697     -6833163.2      194.35029      197.62814      198.78572      217.49563    
     22000   700.95706     -6832988.6      194.35389      197.6318       198.7894       113.08296    
     23000   700.71495     -6833063.1      194.35377      197.63168      198.78928      21.580487    
     24000   699.92527     -6833028.1      194.36947      197.64764      198.80534     -35.20533     
     25000   699.34833     -6833186.9      194.35119      197.62906      198.78664      141.93467    
     26000   699.92131     -6833014.1      194.3661       197.64422      198.80189      47.967646    
     27000   699.98047     -6833081        194.36538      197.64349      198.80115      41.231009    
     28000   700.31664     -6833127.2      194.36109      197.63913      198.79677      36.980742    
     29000   700.21566     -6833032        194.35868      197.63668      198.79431      13.801569    
     30000   698.60434     -6833200.2      194.35543      197.63337      198.79098     -13.903207    
     31000   700.07794     -6833139.8      194.36753      197.64567      198.80335     -24.975858    
     32000   699.8823      -6833037.8      194.36759      197.64574      198.80342     -116.23449    
     33000   699.35557     -6833155        194.36363      197.64171      198.79937     -12.645408    
     34000   699.4894      -6833109.6      194.36863      197.6468       198.80448      29.216913    
     35000   699.57916     -6833149.1      194.36815      197.6463       198.80399     -52.511753    
     36000   699.50007     -6833049.8      194.35561      197.63356      198.79117      47.946009    
     37000   699.74936     -6833129.5      194.36699      197.64513      198.80281     -78.583565    
     38000   699.82335     -6833150        194.3708       197.649        198.8067      -125.82765    
     39000   699.82381     -6833117.5      194.34861      197.62644      198.78401      262.26495    
     40000   699.31417     -6833220.5      194.36779      197.64594      198.80363     -168.11602    
     41000   699.45285     -6833186.3      194.36495      197.64306      198.80072      38.009956    
     42000   700.28098     -6833147.5      194.36513      197.64324      198.8009      -53.061661    
     43000   700.77154     -6833087        194.36278      197.64085      198.7985       2.8870715    
     44000   699.67166     -6833165.6      194.36068      197.63871      198.79635      21.402059    
     45000   699.75807     -6833201.8      194.36969      197.64787      198.80557     -246.46609    
     46000   700.82782     -6833091.3      194.36158      197.63963      198.79727      5.8057976    
     47000   699.6019      -6833227.4      194.35474      197.63267      198.79027      65.803496    
     48000   699.52276     -6833219.7      194.36233      197.64039      198.79804     -2.5947122    
     49000   701.28243     -6833088.7      194.35539      197.63333      198.79094      82.927951    
     50000   698.75677     -6833171.3      194.36774      197.64589      198.80358     -125.82955    
     51000   699.97406     -6833162.3      194.37138      197.64959      198.80729     -164.28518    
     52000   700.02833     -6833040.7      194.35767      197.63565      198.79327      15.741068    
     53000   700.2824      -6833111.3      194.36845      197.64661      198.8043      -57.416041    
     54000   701.16562     -6833183.4      194.36285      197.64092      198.79857     -30.401906    
     55000   698.54504     -6833231.8      194.36086      197.63889      198.79653     -74.736152    
     56000   700.58685     -6833082.2      194.3675       197.64565      198.80333     -37.202944    
     57000   699.01573     -6833202.7      194.36822      197.64638      198.80407     -218.94469    
     58000   699.32886     -6833115.5      194.3607       197.63873      198.79637     -19.158062    
     59000   699.55056     -6833070.6      194.35974      197.63775      198.79539      38.910098    
     60000   699.07598     -6833198.4      194.36256      197.64062      198.79827     -40.52587     
     61000   698.80411     -6833113.4      194.37388      197.65213      198.80985     -73.457968    
     62000   699.35205     -6833211.8      194.37253      197.65076      198.80847     -134.9408     
     63000   699.54096     -6833211.7      194.37171      197.64992      198.80763     -142.14552    
     64000   699.87079     -6833048.7      194.36774      197.64589      198.80357      160.74902    
     65000   699.60233     -6833053.9      194.36444      197.64253      198.8002      -61.684045    
     66000   699.58517     -6833189        194.36635      197.64447      198.80215     -110.88633    
     67000   700.21432     -6833232.8      194.36113      197.63917      198.79681     -79.130233    
     68000   699.38114     -6833279        194.36635      197.64448      198.80215     -105.69968    
     69000   699.19715     -6833225.8      194.35749      197.63547      198.79309     -47.431       
     70000   699.33651     -6833200.7      194.36898      197.64715      198.80484     -127.91764    
     71000   700.42794     -6833125.5      194.36666      197.6448       198.80247     -110.27257    
     72000   699.32525     -6833149.4      194.36648      197.64461      198.80228     -11.511175    
     73000   700.85394     -6832998.2      194.35874      197.63674      198.79437      2.8195668    
     74000   700.16338     -6833264.8      194.34976      197.6276       198.78518      134.98735    
     75000   701.15291     -6832952.5      194.35506      197.63299      198.7906       121.81457    
     76000   700.87434     -6833035.2      194.36371      197.64179      198.79945     -28.997659    
     77000   699.85787     -6833222.8      194.35715      197.63512      198.79274     -11.580283    
     78000   699.2494      -6833162.7      194.35688      197.63485      198.79246      74.869694    
     79000   699.08994     -6833327.7      194.36757      197.64571      198.80339     -149.84255    
     80000   700.44762     -6833187.3      194.34683      197.62462      198.78218      186.29109    
     81000   699.14056     -6833267.6      194.37589      197.65418      198.81191     -247.63293    
     82000   699.48193     -6833263.1      194.3581       197.63609      198.79371     -132.89921    
     83000   698.77179     -6833172.7      194.37005      197.64824      198.80594     -94.310646    
     84000   700.03223     -6833186.5      194.35795      197.63594      198.79356     -53.615088    
     85000   699.08826     -6833255.4      194.35253      197.63043      198.78802      138.72462    
     86000   700.55102     -6833106        194.36283      197.6409       198.79855     -153.03671    
     87000   700.08231     -6833127.4      194.3677       197.64585      198.80354      12.646712    
     88000   699.72163     -6833183.4      194.3612       197.63924      198.79688      24.913566    
     89000   699.09911     -6833204.2      194.36554      197.64365      198.80132      59.962219    
     90000   701.22132     -6832938.7      194.36059      197.63862      198.79626      165.0188     
     91000   700.07936     -6833150.5      194.36072      197.63875      198.79639      91.547034    
     92000   699.8771      -6833110.9      194.36582      197.64394      198.80161     -59.902421    
     93000   699.14432     -6833139.3      194.36816      197.64631      198.804       -80.863582    
     94000   700.27639     -6833112.1      194.34551      197.62329      198.78084      147.19945    
     95000   698.67961     -6833188.5      194.36367      197.64175      198.7994      -29.708535    
     96000   700.6234      -6833017.1      194.36808      197.64623      198.80392     -3.1620836    
     97000   700.39808     -6833146.5      194.35489      197.63282      198.79043      67.978486    
     98000   699.44834     -6833099.2      194.36515      197.64326      198.80092     -110.05033    
     99000   700.87839     -6832934        194.3593       197.63731      198.79494      105.80037    
    100000   700.68451     -6833113.6      194.36455      197.64265      198.80031     -119.6088     
    101000   698.70369     -6833256.6      194.3573       197.63527      198.79289      41.359233    
    102000   699.23276     -6833223.7      194.35578      197.63373      198.79134      51.43165     
    103000   701.18156     -6833082.5      194.35278      197.63068      198.78827      126.43743    
    104000   700.5568      -6833091.7      194.36818      197.64634      198.80402     -6.9536075    
    105000   700.72113     -6833025.8      194.37653      197.65482      198.81256     -277.82411    
    106000   700.68919     -6833173.3      194.36221      197.64027      198.79791     -66.544285    
    107000   698.40825     -6833251.1      194.37424      197.6525       198.81022     -114.45544    
    108000   700.15117     -6833150.8      194.35576      197.6337       198.79131      196.09231    
    109000   699.13625     -6833211.9      194.36757      197.64571      198.80339     -35.772828    
    110000   700.04022     -6832987.5      194.37254      197.65077      198.80848     -22.152628    
    111000   699.44535     -6833124.8      194.36812      197.64628      198.80396     -103.3492     
    112000   700.74592     -6833127.2      194.36654      197.64467      198.80235     -45.6279      
    113000   699.99235     -6833202.5      194.35503      197.63297      198.79057      33.978381    
    114000   700.12325     -6833242.6      194.35135      197.62922      198.78681      65.4537      
    115000   700.45867     -6833091.5      194.36557      197.64368      198.80135     -216.85482    
    116000   699.29121     -6833139.3      194.36499      197.64309      198.80076      8.7472479    
    117000   700.0215      -6833039        194.36049      197.63852      198.79616      46.251598    
    118000   700.53634     -6833139.3      194.36829      197.64645      198.80414     -70.659367    
    119000   700.37145     -6833088.5      194.36154      197.63958      198.79723      95.411495    
    120000   700.75966     -6833181.2      194.34854      197.62636      198.78393      153.5218     
    121000   700.28659     -6833178.7      194.34597      197.62375      198.78131      265.43139    
    122000   699.91424     -6833178.7      194.35119      197.62906      198.78664      268.64115    
    123000   700.44574     -6833117.4      194.37391      197.65216      198.80988     -229.71978    
    124000   700.73504     -6833076.1      194.3649       197.64301      198.80067      113.06978    
    125000   700.80312     -6833058.8      194.36896      197.64713      198.80482     -25.814908    
    126000   701.49629     -6833083.1      194.3574       197.63538      198.793        181.40722    
    127000   700.38325     -6833151.9      194.36743      197.64558      198.80326     -134.01882    
    128000   700.4975      -6833221.2      194.35865      197.63665      198.79428      74.686882    
    129000   700.01676     -6833131.9      194.35653      197.63449      198.79211      84.634613    
    130000   699.29417     -6833222.9      194.36485      197.64295      198.80061     -55.118648    
    131000   699.1038      -6833240.9      194.37228      197.65051      198.80822     -93.090884    
    132000   698.78613     -6833405.5      194.34971      197.62755      198.78513      200.45191    
    133000   700.01839     -6833146        194.36844      197.6466       198.80429     -75.710179    
    134000   701.06161     -6833041.2      194.38303      197.66143      198.81921     -169.4422     
    135000   700.66846     -6833162.8      194.36697      197.64511      198.80279     -140.15799    
    136000   699.65921     -6833143.8      194.36773      197.64588      198.80356     -76.664708    
    137000   699.12972     -6833267        194.35807      197.63605      198.79368     -56.386137    
    138000   700.04039     -6833076        194.35588      197.63383      198.79144      184.74862    
    139000   700.00505     -6833113.7      194.36975      197.64793      198.80563     -96.98963     
    140000   700.78166     -6832992.6      194.36397      197.64205      198.79971     -38.074739    
    141000   700.18115     -6833098.5      194.35928      197.63729      198.79492      28.85144     
    142000   701.73251     -6833144.4      194.35455      197.63248      198.79008      69.356361    
    143000   699.99412     -6833141.9      194.36669      197.64482      198.80249     -64.175615    
    144000   700.19164     -6833185.9      194.35673      197.63469      198.79231      229.97362    
    145000   698.53802     -6833204.3      194.37019      197.64838      198.80608     -35.544553    
    146000   700.26394     -6833035.9      194.36992      197.64811      198.80581     -78.240576    
    147000   700.67123     -6833149.3      194.35341      197.63131      198.78891      24.310339    
    148000   699.37666     -6833241.5      194.36183      197.63988      198.79753     -61.821279    
    149000   699.55955     -6833177.4      194.36868      197.64685      198.80454     -86.874748    
    150000   701.22151     -6833120.9      194.36197      197.64002      198.79767      19.487536    
    151000   699.58053     -6833230.8      194.36198      197.64003      198.79768     -11.431878    
    152000   700.11902     -6833179.7      194.36306      197.64113      198.79878     -56.699294    
    153000   700.48714     -6833186        194.35847      197.63646      198.79409      128.95422    
    154000   699.13998     -6833201.1      194.37604      197.65433      198.81206     -183.6928     
    155000   698.78342     -6833244        194.36171      197.63976      198.79741     -13.423781    
    156000   699.35861     -6833329        194.34526      197.62303      198.78058      183.47627    
    157000   700.26059     -6833182        194.35421      197.63213      198.78974      28.188541    
    158000   700.12003     -6833192.5      194.37007      197.64825      198.80595     -225.85621    
    159000   698.92306     -6833189.5      194.37568      197.65396      198.81169     -70.571858    
    160000   699.11188     -6833159.6      194.36719      197.64533      198.80301     -46.512912    
    161000   700.44976     -6833139        194.36966      197.64784      198.80553      71.155645    
    162000   700.46171     -6833011        194.36368      197.64177      198.79942      201.59581    
    163000   699.05391     -6833222.4      194.35088      197.62875      198.78633      52.404581    
    164000   701.20093     -6833164.3      194.36445      197.64254      198.8002       2.7595791    
    165000   698.59271     -6833285.7      194.36886      197.64703      198.80472     -43.643397    
    166000   699.02933     -6833314.3      194.35936      197.63737      198.795       -203.07203    
    167000   700.08696     -6833221.7      194.36515      197.64326      198.80093     -33.850627    
    168000   699.33008     -6833284        194.35441      197.63233      198.78993      168.69269    
    169000   700.15339     -6833146.7      194.3601       197.63812      198.79576     -8.7209697    
    170000   699.92903     -6833186.1      194.34327      197.62101      198.77855      229.29368    
    171000   700.67945     -6833029.1      194.35738      197.63536      198.79298      46.737792    
    172000   699.92726     -6833140.4      194.35916      197.63717      198.7948      -70.308055    
    173000   700.32098     -6833157.9      194.35949      197.6375       198.79513      10.284819    
    174000   699.67444     -6833245.7      194.36225      197.64031      198.79795     -115.67531    
    175000   701.29782     -6833186.8      194.34205      197.61976      198.77729      144.78394    
    176000   700.35144     -6833202.8      194.34927      197.6271       198.78468      90.520509    
    177000   699.15802     -6833289        194.34498      197.62274      198.78029      6.1800203    
    178000   700.29259     -6833172.8      194.35877      197.63677      198.7944      -122.14095    
    179000   699.89194     -6833095.1      194.36504      197.64314      198.80081     -174.87984    
    180000   699.88584     -6833106.7      194.36934      197.64752      198.80521     -105.6036     
    181000   699.06121     -6833289.3      194.35709      197.63506      198.79268     -57.637399    
    182000   700.09413     -6833173.8      194.35427      197.63219      198.78979     -56.222836    
    183000   700.67284     -6833042.5      194.37111      197.64931      198.80701     -16.877588    
    184000   699.38372     -6833163.7      194.36471      197.6428       198.80047     -26.470667    
    185000   700.35368     -6833056.7      194.36884      197.647        198.80469     -11.269617    
    186000   699.71205     -6833214.5      194.35595      197.63391      198.79152      60.324604    
    187000   699.14395     -6833184.8      194.35431      197.63224      198.78984     -21.891395    
    188000   700.47654     -6833133.7      194.36835      197.64651      198.8042       3.1588024    
    189000   700.70056     -6833124.1      194.3681       197.64625      198.80394     -150.39713    
    190000   699.67864     -6833237        194.35215      197.63004      198.78763      68.959627    
    191000   698.883       -6833406.3      194.36029      197.63831      198.79595     -14.277987    
    192000   700.76388     -6833154        194.34344      197.62118      198.77871      209.62412    
    193000   700.20299     -6833136        194.36103      197.63906      198.79671     -38.371297    
    194000   700.1837      -6833162.6      194.3635       197.64157      198.79923     -24.032004    
    195000   699.75458     -6833224.2      194.36455      197.64265      198.80031     -93.407788    
    196000   699.25511     -6833225.5      194.36331      197.64138      198.79904     -40.062469    
    197000   699.48149     -6833101.6      194.36793      197.64608      198.80376     -15.12233     
    198000   700.30624     -6833273.3      194.37416      197.65242      198.81014     -188.73845    
    199000   701.02026     -6833081        194.36412      197.64221      198.79987      26.7012      
    200000   699.36541     -6833183.3      194.37285      197.65108      198.8088      -168.99989    
    201000   698.73072     -6833278.4      194.3602       197.63822      198.79586     -106.4438     
    202000   699.26721     -6833238.7      194.35424      197.63216      198.78977      25.805301    
    203000   700.30327     -6833153.3      194.35411      197.63203      198.78964     -1.3912758    
    204000   699.37648     -6833285.3      194.3615       197.63955      198.79719     -134.485      
    205000   701.79679     -6833052.2      194.35615      197.63411      198.79172      24.991711    
    206000   700.29196     -6833290.4      194.35164      197.62952      198.78711      82.30356     
    207000   700.37428     -6833283.8      194.33422      197.61181      198.76929      230.39182    
    208000   699.49992     -6833190.4      194.35926      197.63727      198.7949       81.663306    
    209000   700.45975     -6833146.9      194.33802      197.61567      198.77317      334.78352    
    210000   699.84919     -6833231.5      194.3549       197.63284      198.79044     -57.734673    
    211000   700.19201     -6833259.5      194.37271      197.65094      198.80865     -102.90798    
    212000   700.33858     -6833204.2      194.35666      197.63462      198.79224      49.682089    
    213000   700.1153      -6833145.5      194.35893      197.63693      198.79456      131.45264    
    214000   699.55522     -6833239.1      194.35574      197.63369      198.7913       23.537357    
    215000   699.92155     -6833238        194.36208      197.64013      198.79778     -33.070858    
    216000   700.75359     -6833318.5      194.35464      197.63256      198.79017      193.72326    
    217000   700.58252     -6833051.1      194.3482       197.62602      198.78359      270.77151    
    218000   700.47038     -6833162.4      194.36924      197.64741      198.8051      -53.820406    
    219000   699.54584     -6833208.3      194.36315      197.64122      198.79888     -65.50971     
    220000   699.2217      -6833257.5      194.36262      197.64069      198.79834      88.581422    
    221000   699.80402     -6833067.9      194.36313      197.64121      198.79886      85.527366    
    222000   700.92216     -6833144.2      194.37225      197.65047      198.80818     -71.63378     
    223000   699.87987     -6833297.6      194.36775      197.6459       198.80358     -169.29866    
    224000   699.81316     -6833145.1      194.35417      197.63209      198.78969      88.787998    
    225000   701.0166      -6833208.1      194.35939      197.6374       198.79503     -79.634119    
    226000   698.76288     -6833388.2      194.35425      197.63217      198.78977     -30.897716    
    227000   699.40406     -6833256.8      194.35347      197.63137      198.78897      75.410126    
    228000   700.10984     -6833199.2      194.36763      197.64578      198.80346      22.466934    
    229000   700.38492     -6833144.9      194.36244      197.6405       198.79815     -23.663158    
    230000   699.40839     -6833290.4      194.3458       197.62358      198.78113      66.239778    
    231000   699.90833     -6833219.3      194.36021      197.63823      198.79587      40.539229    
    232000   699.87055     -6833119.7      194.3535       197.63141      198.789        160.15676    
    233000   699.2888      -6833309.4      194.36416      197.64225      198.79991     -78.098267    
    234000   699.22266     -6833341.9      194.36693      197.64507      198.80274     -188.07821    
    235000   699.44674     -6833322.5      194.36115      197.63919      198.79683     -155.51601    
    236000   700.48077     -6833037.9      194.35927      197.63728      198.79491      15.037476    
    237000   701.81958     -6833015.2      194.36728      197.64542      198.8031      -36.591405    
    238000   699.88739     -6833155.1      194.35472      197.63265      198.79026      105.16658    
    239000   700.59887     -6833187.6      194.36758      197.64573      198.80341     -19.312496    
    240000   699.84953     -6833176.6      194.35998      197.638        198.79563      80.031646    
    241000   700.3492      -6833230.6      194.35305      197.63095      198.78854      101.82459    
    242000   701.35785     -6833158.8      194.34785      197.62566      198.78322      245.75928    
    243000   699.34495     -6833257.8      194.36151      197.63956      198.7972      -115.8332     
    244000   700.14308     -6833072.3      194.35022      197.62808      198.78566      156.53581    
    245000   699.7822      -6833122.2      194.36873      197.64689      198.80458      11.594637    
    246000   701.482       -6833149.5      194.33807      197.61572      198.77322      137.47208    
    247000   700.94663     -6832990.4      194.37343      197.65167      198.80939     -46.302356    
    248000   700.433       -6833194.8      194.34904      197.62687      198.78445      167.72045    
    249000   701.39643     -6833063.5      194.366        197.64412      198.80179      1.2866417    
    250000   700.85839     -6833085.8      194.35728      197.63525      198.79287      12.027157    
    251000   700.03277     -6833193.1      194.36608      197.6442       198.80188     -120.69865    
    252000   699.76401     -6833290        194.3635       197.64158      198.79923     -229.0057     
    253000   699.85798     -6833201.6      194.36701      197.64515      198.80282     -41.056268    
    254000   701.67965     -6833008.5      194.35449      197.63241      198.79002     -37.098776    
    255000   700.47287     -6833266.6      194.36094      197.63897      198.79662     -116.53023    
    256000   701.30462     -6833164.3      194.34967      197.62751      198.78509      115.10639    
    257000   701.20411     -6833038.2      194.35521      197.63315      198.79076      22.813491    
    258000   698.32312     -6833333        194.36108      197.63911      198.79676     -112.29895    
    259000   700.14324     -6833148.9      194.34749      197.6253       198.78286      258.12346    
    260000   700.78174     -6833075.3      194.37444      197.6527       198.81042     -55.154337    
    261000   701.48073     -6833144.9      194.35497      197.63291      198.79051      134.03165    
    262000   699.41133     -6833358.1      194.36102      197.63905      198.7967      -139.18869    
    263000   698.94324     -6833327.4      194.36221      197.64026      198.79791     -71.348241    
    264000   700.66344     -6833202.3      194.35729      197.63527      198.79289      116.51791    
    265000   699.55854     -6833241.8      194.33731      197.61495      198.77245      323.55278    
    266000   699.57778     -6833229.4      194.35791      197.63589      198.79351      10.896753    
    267000   698.96381     -6833330.7      194.36582      197.64394      198.80161     -133.85688    
    268000   699.27135     -6833194.5      194.37202      197.65024      198.80795     -178.3043     
    269000   699.83296     -6833258.6      194.3641       197.64219      198.79985     -93.784845    
    270000   699.74254     -6833219.7      194.3617       197.63974      198.79739     -32.550018    
    271000   700.24292     -6833274        194.35378      197.6317       198.7893       35.818301    
    272000   698.8144      -6833285.5      194.35505      197.63299      198.7906       105.01706    
    273000   699.42871     -6833243.1      194.36155      197.6396       198.79724     -85.516258    
    274000   698.49244     -6833276.3      194.3585       197.63649      198.79412      22.188913    
    275000   700.022       -6833324.6      194.3683       197.64645      198.80414     -138.42978    
    276000   699.75889     -6833306        194.35821      197.6362       198.79383      32.211412    
    277000   698.86634     -6833278.6      194.36428      197.64237      198.80003     -46.963013    
    278000   699.41088     -6833228.1      194.35745      197.63543      198.79305      42.286504    
    279000   699.0214      -6833206.4      194.36705      197.64519      198.80287      16.789746    
    280000   699.13964     -6833368.8      194.3612       197.63924      198.79688      45.779249    
    281000   699.87993     -6833290.5      194.37315      197.65139      198.80911     -308.35357    
    282000   699.35186     -6833288.3      194.36213      197.64018      198.79783     -219.0209     
    283000   701.42668     -6833269.6      194.36215      197.64021      198.79785     -36.930245    
    284000   700.37452     -6833279.4      194.35954      197.63755      198.79519      53.154164    
    285000   701.28152     -6833091.4      194.36969      197.64787      198.80557     -18.490604    
    286000   700.43446     -6833208.5      194.35775      197.63573      198.79335     -116.85528    
    287000   701.52694     -6833184.1      194.3573       197.63527      198.79289      30.724091    
    288000   700.89543     -6833152.3      194.35961      197.63762      198.79526      59.589783    
    289000   701.17428     -6833182.2      194.35959      197.63761      198.79524     -10.819807    
    290000   699.79371     -6833215.9      194.35732      197.63529      198.79291      157.10885    
    291000   701.56937     -6833065.4      194.35762      197.6356       198.79322      29.459637    
    292000   700.83926     -6833265.7      194.35427      197.63219      198.78979     -37.509113    
    293000   700.64718     -6833262.7      194.35763      197.63561      198.79324      30.646396    
    294000   701.1444      -6833132.2      194.36225      197.64031      198.79796     -24.748816    
    295000   700.26584     -6833205        194.35787      197.63586      198.79348      39.815416    
    296000   700.26806     -6833225.7      194.35716      197.63513      198.79275      4.2792629    
    297000   699.63525     -6833348.5      194.36032      197.63835      198.79598     -84.491735    
    298000   698.71518     -6833473.5      194.35698      197.63495      198.79257     -16.23815     
    299000   699.99188     -6833269.8      194.36248      197.64054      198.79819     -40.886358    
    300000   698.66049     -6833396.4      194.35028      197.62813      198.78571      183.9631     
    301000   699.96254     -6833199.5      194.36207      197.64012      198.79777      33.434703    
    302000   700.43814     -6833238.4      194.38249      197.66089      198.81866     -288.6214     
    303000   701.15022     -6833117.5      194.35309      197.63099      198.78859      201.13631    
    304000   698.69077     -6833442.1      194.36459      197.64269      198.80035     -105.55739    
    305000   699.05614     -6833264.7      194.35951      197.63752      198.79516      102.94172    
    306000   700.20626     -6833277.1      194.366        197.64412      198.80179     -111.34511    
    307000   700.47082     -6833256.9      194.35942      197.63742      198.79506      27.381124    
    308000   698.95946     -6833360.2      194.36469      197.64279      198.80045     -81.900112    
    309000   700.51573     -6833179        194.35525      197.63319      198.7908      -8.5972895    
    310000   699.17335     -6833282.9      194.35525      197.63319      198.7908       158.42206    
    311000   699.44924     -6833244.8      194.36428      197.64237      198.80003     -188.51277    
    312000   700.78043     -6833227.2      194.36124      197.63928      198.79692     -57.792025    
    313000   699.18463     -6833349.5      194.34959      197.62743      198.78501      154.37678    
    314000   700.08595     -6833196.7      194.36966      197.64784      198.80554     -146.73907    
    315000   699.92867     -6833299.3      194.34042      197.61811      198.77563      292.04631    
    316000   700.22776     -6833164.9      194.35817      197.63616      198.79378     -95.766206    
    317000   701.38638     -6833162.6      194.36772      197.64587      198.80355      12.001855    
    318000   699.13296     -6833307.9      194.36244      197.6405       198.79815     -98.710565    
    319000   700.10741     -6833257.1      194.3486       197.62643      198.784        134.04689    
    320000   700.35805     -6833212.7      194.33908      197.61674      198.77426      269.33834    
    321000   699.06861     -6833337.8      194.35778      197.63577      198.79339     -91.014691    
    322000   700.45496     -6833226.8      194.34101      197.61871      198.77623      134.93986    
    323000   700.71958     -6833221.8      194.36023      197.63825      198.79589     -182.08617    
    324000   698.51284     -6833408.4      194.35342      197.63133      198.78893     -17.936997    
    325000   700.04722     -6833229.1      194.35938      197.63739      198.79502      78.904465    
    326000   699.84879     -6833332.7      194.34683      197.62463      198.78218      162.37385    
    327000   699.94272     -6833252.3      194.37452      197.65278      198.8105      -165.44049    
    328000   699.20684     -6833444.8      194.35742      197.63539      198.79301     -110.226      
    329000   701.48151     -6833076.3      194.34878      197.62661      198.78418      193.01305    
    330000   700.16632     -6833282.6      194.35703      197.635        198.79262     -5.4912079    
    331000   700.02458     -6833229.5      194.36772      197.64587      198.80356     -155.21704    
    332000   699.47819     -6833249.9      194.35952      197.63753      198.79517     -145.5101     
    333000   700.91761     -6833219.9      194.36663      197.64476      198.80244     -78.453471    
    334000   699.64343     -6833218.6      194.3661       197.64422      198.80189     -70.157055    
    335000   699.60495     -6833270.3      194.362        197.64005      198.7977       3.1264578    
    336000   698.80686     -6833293.7      194.34951      197.62735      198.78492      285.59625    
    337000   699.63015     -6833184.2      194.35854      197.63654      198.79416      168.98372    
    338000   699.47939     -6833322.2      194.36093      197.63897      198.79661     -19.318514    
    339000   700.31169     -6833323.1      194.35933      197.63733      198.79497      159.94129    
    340000   699.53461     -6833274.3      194.35272      197.63062      198.78821      254.34601    
    341000   699.3355      -6833226        194.34339      197.62113      198.77867      342.6757     
    342000   700.80501     -6833128.5      194.37037      197.64856      198.80626     -134.82958    
    343000   701.53643     -6833059.6      194.36457      197.64266      198.80032     -29.333694    
    344000   698.01571     -6833419.4      194.34728      197.62509      198.78265     -4.6845723    
    345000   699.19451     -6833272.2      194.35869      197.63669      198.79431      98.609924    
    346000   698.9034      -6833322        194.35097      197.62883      198.78642     -6.7613497    
    347000   699.8579      -6833351.2      194.36566      197.64377      198.80144     -123.9543     
    348000   700.83891     -6833111.7      194.37452      197.65278      198.8105      -199.34029    
    349000   700.28642     -6833209.6      194.35447      197.6324       198.79        -60.673544    
    350000   700.60954     -6833164.8      194.35554      197.63349      198.7911       65.087225    
    351000   699.63055     -6833244        194.35141      197.62928      198.78687     -0.38110528   
    352000   700.47766     -6833401.8      194.33184      197.60938      198.76685      292.46374    
    353000   700.68082     -6833192.8      194.36642      197.64454      198.80222     -129.72996    
    354000   700.78398     -6833165.9      194.35291      197.63081      198.7884       74.209996    
    355000   701.25939     -6833135.5      194.36192      197.63997      198.79762     -32.839479    
    356000   698.98338     -6833294.3      194.34951      197.62735      198.78492      140.56702    
    357000   700.44097     -6833189.1      194.3751       197.65337      198.8111      -174.41321    
    358000   700.11558     -6833236.4      194.35261      197.6305       198.78809      168.78739    
    359000   698.69937     -6833461.4      194.36199      197.64004      198.79769     -75.439854    
    360000   699.64533     -6833269.2      194.35921      197.63721      198.79484      47.147321    
    361000   698.12089     -6833256        194.35485      197.63278      198.79038      89.671695    
    362000   699.84186     -6833267.7      194.34988      197.62773      198.7853       178.47874    
    363000   699.19318     -6833290.9      194.35479      197.63272      198.79032      50.636217    
    364000   700.32318     -6833266.1      194.36059      197.63861      198.79625     -177.46179    
    365000   699.78811     -6833253.3      194.36206      197.64011      198.79776     -78.60699     
    366000   699.50744     -6833263.5      194.34099      197.61869      198.77621      115.72553    
    367000   699.92734     -6833275.2      194.37047      197.64866      198.80636     -125.34755    
    368000   700.13757     -6833230.7      194.35719      197.63516      198.79278     -3.9070304    
    369000   699.66355     -6833169.3      194.3727       197.65094      198.80865     -18.250327    
    370000   698.51797     -6833417.2      194.36254      197.6406       198.79825     -132.97197    
    371000   699.71092     -6833249        194.36352      197.6416       198.79926      85.20515     
    372000   700.96817     -6833229.1      194.36007      197.63809      198.79572     -34.442377    
    373000   700.0979      -6833251        194.36106      197.6391       198.79674     -132.41781    
    374000   700.24758     -6833231.1      194.36223      197.64029      198.79794     -47.927732    
    375000   700.25808     -6833252.9      194.35999      197.63801      198.79565     -59.980844    
    376000   700.94587     -6833137.4      194.36038      197.6384       198.79604     -63.540512    
    377000   701.07181     -6833120.1      194.36524      197.64335      198.80102     -94.643123    
    378000   698.52497     -6833442.3      194.36788      197.64604      198.80372     -224.19631    
    379000   699.4098      -6833234.9      194.36841      197.64657      198.80425     -153.5514     
    380000   699.33165     -6833276.2      194.37926      197.6576       198.81535     -257.48031    
    381000   699.76126     -6833249.7      194.36473      197.64283      198.80049     -203.77105    
    382000   698.52223     -6833451        194.34818      197.626        198.78357      60.764383    
    383000   699.3968      -6833280.2      194.35124      197.62911      198.7867      -23.255783    
    384000   700.8205      -6833107.7      194.34497      197.62273      198.78028      147.25749    
    385000   699.3784      -6833298.1      194.35515      197.63309      198.7907      -2.652662     
    386000   699.40971     -6833300.8      194.35678      197.63475      198.79236      6.5365671    
    387000   700.25331     -6833096.1      194.36288      197.64095      198.79861     -19.175871    
    388000   700.3101      -6833253.9      194.35102      197.62889      198.78647      27.722547    
    389000   700.35174     -6833129.5      194.36061      197.63864      198.79628      10.305967    
    390000   699.39816     -6833209.1      194.35668      197.63464      198.79226      120.92021    
    391000   701.19438     -6833201        194.35305      197.63095      198.78854     -45.301358    
    392000   700.19019     -6833162.4      194.35127      197.62914      198.78672      86.747936    
    393000   700.4825      -6833149.3      194.37224      197.65046      198.80817     -141.96664    
    394000   700.76156     -6833228.7      194.33852      197.61618      198.77369      177.21732    
    395000   699.30376     -6833248.7      194.3686       197.64676      198.80445     -228.27232    
    396000   700.1415      -6833224        194.37912      197.65746      198.81521     -237.81389    
    397000   699.70899     -6833274.6      194.34977      197.62761      198.78519      112.4951     
    398000   698.92379     -6833326        194.35815      197.63614      198.79376     -50.845442    
    399000   700.14183     -6833213        194.35262      197.63051      198.7881       112.71079    
    400000   700.18922     -6833364.7      194.33709      197.61472      198.77222      231.18426    
    401000   699.8399      -6833231.6      194.36381      197.64189      198.79955     -99.820764    
    402000   700.10708     -6833214.2      194.34041      197.6181       198.77562      169.40133    
    403000   700.01939     -6833219.1      194.35402      197.63194      198.78954      0.26951149   
    404000   700.93129     -6833192        194.35091      197.62877      198.78636      136.78416    
    405000   701.24491     -6833109.3      194.36272      197.64079      198.79844     -37.775177    
    406000   698.94062     -6833376.2      194.35014      197.62799      198.78557     -28.784938    
    407000   699.87467     -6833135.4      194.35496      197.63289      198.7905      -175.80607    
    408000   700.07796     -6833190.1      194.35764      197.63562      198.79324     -15.385958    
    409000   699.55745     -6833350.1      194.34057      197.61827      198.77579      171.25295    
    410000   699.61282     -6833294.3      194.35727      197.63524      198.79286     -5.2079045    
    411000   700.27798     -6833294.2      194.3518       197.62969      198.78727     -44.224482    
    412000   699.20592     -6833334.2      194.36054      197.63857      198.79621      60.976869    
    413000   699.03444     -6833315.4      194.34578      197.62356      198.78111      5.1916286    
    414000   699.83769     -6833351.3      194.35186      197.62974      198.78732      84.750085    
    415000   700.93439     -6833240.9      194.35306      197.63097      198.78856     -111.57132    
    416000   700.15977     -6833208.1      194.36378      197.64186      198.79952     -206.4579     
    417000   700.21536     -6833283.7      194.34398      197.62173      198.77927      165.516      
    418000   699.85355     -6833309.5      194.35943      197.63744      198.79507     -9.1799601    
    419000   699.38687     -6833268.6      194.36777      197.64592      198.80361     -239.34388    
    420000   700.68286     -6833190.6      194.36232      197.64038      198.79803     -173.60889    
    421000   700.17419     -6833304.9      194.35631      197.63427      198.79189     -104.03146    
    422000   699.8695      -6833259.7      194.3521       197.62999      198.78758      177.32581    
    423000   699.99047     -6833158.2      194.3478       197.62561      198.78318      66.866633    
    424000   700.63682     -6833143.4      194.34923      197.62707      198.78464      226.70744    
    425000   701.13525     -6833189        194.36074      197.63877      198.79641      31.138193    
    426000   699.58621     -6833295.4      194.37999      197.65835      198.81611     -402.44069    
    427000   699.47011     -6833450.8      194.3534       197.63131      198.78891      66.733631    
    428000   699.96006     -6833278.8      194.35677      197.63473      198.79235      61.562256    
    429000   700.08603     -6833162        194.36202      197.64007      198.79772     -21.813668    
    430000   700.97885     -6833261.4      194.36243      197.64049      198.79814     -61.305034    
    431000   699.22345     -6833264.6      194.35722      197.6352       198.79282      29.160527    
    432000   700.49197     -6833231.6      194.3512       197.62907      198.78666      69.588224    
    433000   701.00585     -6833063.5      194.37611      197.6544       198.81213     -248.07197    
    434000   700.23118     -6833130.8      194.37175      197.64996      198.80767     -147.98022    
    435000   698.66679     -6833402.2      194.3339       197.61148      198.76896      367.37368    
    436000   699.20945     -6833296.6      194.35819      197.63618      198.7938      -126.62609    
    437000   700.38076     -6833170.9      194.35654      197.6345       198.79212     -15.264469    
    438000   699.20286     -6833362.1      194.35534      197.63328      198.79089      69.344548    
    439000   698.92453     -6833279.1      194.36694      197.64508      198.80275     -138.45016    
    440000   700.79076     -6833189.9      194.35931      197.63732      198.79495      108.94487    
    441000   700.11183     -6833217.5      194.35631      197.63427      198.79189      120.29607    
    442000   699.90945     -6833258.4      194.35667      197.63463      198.79225     -127.48559    
    443000   699.84581     -6833210.4      194.35995      197.63797      198.7956       80.662098    
    444000   700.00687     -6833260        194.35326      197.63116      198.78876     -57.777652    
    445000   699.55361     -6833307.8      194.35044      197.6283       198.78588      197.21082    
    446000   699.64901     -6833330.3      194.34552      197.62329      198.78084      57.631197    
    447000   700.02944     -6833198.3      194.36273      197.6408       198.79845     -43.572164    
    448000   699.94185     -6833029.5      194.37585      197.65414      198.81187     -24.231184    
    449000   699.38347     -6833398.5      194.36417      197.64226      198.79992     -203.28149    
    450000   699.7264      -6833464.5      194.34608      197.62386      198.78141      15.722931    
    451000   700.33579     -6833332.4      194.3429       197.62063      198.77817      233.76045    
    452000   700.27606     -6833311.6      194.35933      197.63734      198.79497     -72.57855     
    453000   700.82503     -6833230.8      194.34568      197.62345      198.781        158.54191    
    454000   699.77321     -6833317.9      194.35745      197.63543      198.79305     -28.084516    
    455000   700.41487     -6833255.7      194.355        197.63294      198.79054     -73.234387    
    456000   700.00663     -6833182.1      194.36249      197.64055      198.7982      -33.951213    
    457000   700.26346     -6833152.3      194.35883      197.63683      198.79446      86.708421    
    458000   700.60849     -6833239.9      194.36765      197.6458       198.80348     -206.89545    
    459000   700.26162     -6833156.1      194.35052      197.62838      198.78596      86.773377    
    460000   700.11701     -6833213.6      194.34526      197.62304      198.78058      174.97721    
    461000   700.55371     -6833267.2      194.36373      197.64181      198.79947     -123.45048    
    462000   700.58085     -6833275.1      194.37337      197.65162      198.80933     -284.88356    
    463000   699.74165     -6833298.2      194.36367      197.64175      198.79941     -102.16046    
    464000   699.97977     -6833227.8      194.35902      197.63702      198.79465      49.411814    
    465000   700.07656     -6833203.6      194.36823      197.64639      198.80408     -108.22236    
    466000   700.36594     -6833326.1      194.34805      197.62586      198.78343     -13.690212    
    467000   700.02251     -6833311        194.34566      197.62344      198.78099      180.84795    
    468000   700.88563     -6833241.5      194.34913      197.62697      198.78454      123.57073    
    469000   700.30625     -6833259.7      194.35223      197.63012      198.78771      31.776983    
    470000   700.78008     -6833059.7      194.36568      197.64379      198.80146     -45.401656    
    471000   699.61859     -6833277.6      194.35788      197.63586      198.79348     -14.996234    
    472000   699.64837     -6833266.6      194.3625       197.64056      198.79821     -73.306705    
    473000   700.00578     -6833297.5      194.35796      197.63594      198.79356     -64.447906    
    474000   700.55134     -6833176.4      194.35095      197.62882      198.7864       274.63533    
    475000   699.63234     -6833270.3      194.36073      197.63876      198.7964      -79.471904    
    476000   699.57342     -6833411.1      194.34621      197.624        198.78155      17.357948    
    477000   700.18626     -6833321.7      194.34295      197.62068      198.77821      194.59065    
    478000   702.0963      -6833141.8      194.34728      197.62509      198.78265      208.49197    
    479000   699.99171     -6833221.7      194.35402      197.63194      198.78954      52.273445    
    480000   700.51232     -6833273.5      194.36108      197.63912      198.79676     -160.43794    
    481000   701.25502     -6833107.3      194.3562       197.63415      198.79177      33.484732    
    482000   700.23986     -6833196.7      194.3703       197.64849      198.80619     -150.08841    
    483000   699.46933     -6833194.4      194.36475      197.64285      198.80051     -38.74173     
    484000   700.42583     -6833225.2      194.37469      197.65296      198.81068     -265.1435     
    485000   700.30306     -6833203.1      194.36231      197.64037      198.79802     -121.61997    
    486000   700.6715      -6833096.9      194.36048      197.63851      198.79615     -58.437954    
    487000   700.10448     -6833276.3      194.35696      197.63493      198.79254     -29.269892    
    488000   700.26728     -6833262        194.36741      197.64555      198.80323     -128.18601    
    489000   698.79522     -6833375.1      194.36006      197.63808      198.79572     -36.654582    
    490000   699.89382     -6833187.4      194.35623      197.63419      198.7918       22.072403    
    491000   700.16494     -6833326        194.34802      197.62584      198.7834       101.73613    
    492000   699.86854     -6833183.1      194.36617      197.64429      198.80197     -74.657856    
    493000   700.66233     -6833253.7      194.34675      197.62455      198.7821       105.11607    
    494000   700.97383     -6833177.1      194.36458      197.64267      198.80033     -227.09641    
    495000   699.83802     -6833232.6      194.35572      197.63367      198.79128     -114.80412    
    496000   700.15144     -6833366.6      194.35239      197.63028      198.78787     -56.260021    
    497000   700.0389      -6833277.8      194.36054      197.63857      198.79621     -74.426625    
    498000   701.10804     -6833157.9      194.36576      197.64388      198.80155     -157.60764    
    499000   699.93966     -6833324.9      194.34491      197.62267      198.78022      9.4544182    
    500000   700.14152     -6833337.2      194.35164      197.62951      198.7871       63.622457    
Loop time of 43976.9 on 16384 procs for 500000 steps with 601956 atoms

Performance: 1.965 ns/day, 12.216 hours/ns, 11.370 timesteps/s, 6.844 Matom-step/s
87.4% CPU use with 128 MPI tasks x 128 OpenMP threads

MPI task timing breakdown:
Section |  min time  |  avg time  |  max time  |%varavg| %total
---------------------------------------------------------------
Pair    | 22785      | 25462      | 27732      |1091.0 | 57.90
Bond    | 0.089267   | 0.12859    | 0.19205    |   5.6 |  0.00
Kspace  | 7069.6     | 9684.3     | 12773      |2094.2 | 22.02
Neigh   | 3677.7     | 4153.2     | 4545.3     | 489.9 |  9.44
Comm    | 1068.9     | 1179.6     | 1286.2     | 163.4 |  2.68
Output  | 0.074782   | 0.078601   | 0.091183   |   0.6 |  0.00
Modify  | 1694.6     | 1998.7     | 3439.7     | 753.2 |  4.54
Other   |            | 1499       |            |       |  3.41

Nlocal:        4702.78 ave        4991 max        4413 min
Histogram: 50 14 0 0 0 0 0 0 8 56
Nghost:        14107.8 ave       14904 max       13331 min
Histogram: 64 0 0 0 0 0 0 0 1 63
Neighs:    1.16524e+06 ave 1.27817e+06 max 1.04679e+06 min
Histogram: 13 26 19 6 0 0 1 18 24 21

Total # of neighbors = 1.4915124e+08
Ave neighs/atom = 247.77765
Ave special neighs/atom = 0
Neighbor list builds = 104474
Dangerous builds = 0
PPPM initialization ...
  using 12-bit tables for long-range coulomb (src/src/kspace.cpp:342)
  G vector (1/distance) = 0.27679647
  grid = 135 135 135
  stencil order = 5
  estimated absolute RMS force accuracy = 0.0018196166
  estimated relative force accuracy = 0.00012636538
  using double precision MKL FFT
  3d grid and FFT values/proc = 36800 36450
Generated 0 of 10 mixed pair_coeff terms from geometric mixing rule
Setting up Verlet run ...
  Unit style    : metal
  Current step  : 0
  Time step     : 0.002
Per MPI rank memory allocation (min/avg/max) = 297.7 | 298.4 | 300.4 Mbytes
   Step          Temp          TotEng           Lx             Ly             Lz           Press     
         0   700.14152     -6833337.2      194.35164      197.62951      198.7871       63.646823    
      1000   699.62079     -6833262.9      194.35164      197.62951      198.7871      -17.916989    
      2000   700.07848     -6833247.2      194.35164      197.62951      198.7871       149.40928    
      3000   700.62033     -6833338.1      194.35164      197.62951      198.7871      -118.29131    
      4000   700.11364     -6833235.5      194.35164      197.62951      198.7871       108.27517    
      5000   700.93708     -6833181        194.35164      197.62951      198.7871      -45.794296    
      6000   700.48258     -6833216.8      194.35164      197.62951      198.7871       226.12342    
      7000   701.33729     -6833178.7      194.35164      197.62951      198.7871      -20.326576    
      8000   700.60501     -6833286.3      194.35164      197.62951      198.7871       35.968343    
      9000   699.67437     -6833306.5      194.35164      197.62951      198.7871      -0.86685154   
     10000   700.54769     -6833118.7      194.35164      197.62951      198.7871       142.49083    
     11000   701.04977     -6833247.1      194.35164      197.62951      198.7871       33.219658    
     12000   700.97984     -6833162.1      194.35164      197.62951      198.7871      -25.082641    
     13000   699.97596     -6833402.4      194.35164      197.62951      198.7871      -7.4368854    
     14000   700.24071     -6833161.1      194.35164      197.62951      198.7871       14.057097    
     15000   700.01203     -6833290.4      194.35164      197.62951      198.7871      -2.0708896    
     16000   700.1597      -6833264.2      194.35164      197.62951      198.7871      -18.535881    
     17000   700.5786      -6833265.4      194.35164      197.62951      198.7871       203.12604    
     18000   701.01117     -6833205.5      194.35164      197.62951      198.7871       57.708213    
     19000   699.61474     -6833333.4      194.35164      197.62951      198.7871       95.529722    
     20000   699.3886      -6833354.1      194.35164      197.62951      198.7871       51.712265    
     21000   699.38178     -6833322.5      194.35164      197.62951      198.7871       124.59498    
     22000   700.3542      -6833284.2      194.35164      197.62951      198.7871       37.851486    
     23000   699.85899     -6833254.9      194.35164      197.62951      198.7871       43.066087    
     24000   701.0443      -6833147.8      194.35164      197.62951      198.7871       61.211024    
     25000   700.1123      -6833301.8      194.35164      197.62951      198.7871       90.181101    
     26000   699.16513     -6833406.2      194.35164      197.62951      198.7871      -48.947092    
     27000   700.29195     -6833281        194.35164      197.62951      198.7871       94.223304    
     28000   699.08387     -6833321.2      194.35164      197.62951      198.7871       33.561479    
     29000   699.65778     -6833209        194.35164      197.62951      198.7871       82.161329    
     30000   699.53499     -6833334.4      194.35164      197.62951      198.7871       163.07012    
     31000   700.08339     -6833298.1      194.35164      197.62951      198.7871       58.923057    
     32000   699.98009     -6833246.8      194.35164      197.62951      198.7871       114.37493    
     33000   700.65591     -6833322        194.35164      197.62951      198.7871      -17.59919     
     34000   701.06912     -6833233        194.35164      197.62951      198.7871       223.50358    
     35000   699.89046     -6833273.6      194.35164      197.62951      198.7871       62.417489    
     36000   699.82779     -6833358.7      194.35164      197.62951      198.7871      -36.652193    
     37000   700.2995      -6833307.5      194.35164      197.62951      198.7871      -93.417353    
     38000   698.04077     -6833450.4      194.35164      197.62951      198.7871       31.46392     
     39000   699.47424     -6833363        194.35164      197.62951      198.7871      -71.597362    
     40000   699.89227     -6833400.4      194.35164      197.62951      198.7871       60.355149    
     41000   700.18178     -6833293.7      194.35164      197.62951      198.7871       53.333329    
     42000   699.96975     -6833314.5      194.35164      197.62951      198.7871      -54.11128     
     43000   699.9291      -6833297.1      194.35164      197.62951      198.7871       53.356471    
     44000   699.73387     -6833377.9      194.35164      197.62951      198.7871       11.920572    
     45000   701.29468     -6833136.8      194.35164      197.62951      198.7871       26.808533    
     46000   699.68122     -6833271.1      194.35164      197.62951      198.7871       54.142852    
     47000   699.4461      -6833310.1      194.35164      197.62951      198.7871       189.18299    
     48000   700.72539     -6833288        194.35164      197.62951      198.7871       51.929659    
     49000   699.16396     -6833328.5      194.35164      197.62951      198.7871       92.199682    
     50000   698.27829     -6833460.8      194.35164      197.62951      198.7871      -91.911803    
     51000   700.66803     -6833258.1      194.35164      197.62951      198.7871       1.2993651    
     52000   701.9119      -6833126        194.35164      197.62951      198.7871       52.617057    
     53000   700.76372     -6833222.7      194.35164      197.62951      198.7871       94.217669    
     54000   698.23323     -6833321.2      194.35164      197.62951      198.7871       155.20816    
     55000   698.72588     -6833448.3      194.35164      197.62951      198.7871      -51.363462    
     56000   700.13108     -6833471.6      194.35164      197.62951      198.7871      -45.71606     
     57000   700.21118     -6833080.1      194.35164      197.62951      198.7871       139.73901    
     58000   698.77494     -6833321.5      194.35164      197.62951      198.7871       15.155543    
     59000   699.65061     -6833215.3      194.35164      197.62951      198.7871       294.24182    
     60000   700.52734     -6833137.5      194.35164      197.62951      198.7871       158.78655    
     61000   699.30864     -6833319.1      194.35164      197.62951      198.7871       29.226169    
     62000   700.06798     -6833359.9      194.35164      197.62951      198.7871       71.350574    
     63000   700.91005     -6833264        194.35164      197.62951      198.7871      -27.537971    
     64000   700.04587     -6833375.6      194.35164      197.62951      198.7871       41.553064    
     65000   700.79626     -6833211        194.35164      197.62951      198.7871      -50.014313    
     66000   699.85932     -6833322.6      194.35164      197.62951      198.7871       113.24573    
     67000   700.39195     -6833223.7      194.35164      197.62951      198.7871       61.070304    
     68000   701.38774     -6833136.1      194.35164      197.62951      198.7871       32.904553    
     69000   699.41265     -6833354.9      194.35164      197.62951      198.7871       57.953994    
     70000   699.47156     -6833286.2      194.35164      197.62951      198.7871       54.166584    
     71000   700.09783     -6833361.5      194.35164      197.62951      198.7871      -54.784455    
     72000   701.0066      -6833283.6      194.35164      197.62951      198.7871       39.573743    
     73000   700.20082     -6833214.5      194.35164      197.62951      198.7871       94.754629    
     74000   700.85728     -6833157.3      194.35164      197.62951      198.7871       78.375278    
     75000   700.29261     -6833268.3      194.35164      197.62951      198.7871       44.71872     
     76000   699.05748     -6833438.1      194.35164      197.62951      198.7871      -87.71118     
     77000   699.41025     -6833352.9      194.35164      197.62951      198.7871      -85.648047    
     78000   700.40966     -6833277.9      194.35164      197.62951      198.7871       4.3901344    
     79000   700.17159     -6833293.5      194.35164      197.62951      198.7871       4.9505397    
     80000   699.09996     -6833217.1      194.35164      197.62951      198.7871       85.298004    
     81000   699.30774     -6833221.1      194.35164      197.62951      198.7871       180.21766    
     82000   699.84778     -6833404        194.35164      197.62951      198.7871       104.9423     
     83000   701.03236     -6833125.7      194.35164      197.62951      198.7871       204.84819    
     84000   698.61911     -6833508.9      194.35164      197.62951      198.7871       68.108603    
     85000   699.69308     -6833278        194.35164      197.62951      198.7871       55.141383    
     86000   700.28291     -6833304.7      194.35164      197.62951      198.7871       121.91712    
     87000   700.71779     -6833258.4      194.35164      197.62951      198.7871       59.499165    
     88000   699.4362      -6833214.6      194.35164      197.62951      198.7871       104.45349    
     89000   699.76357     -6833339.4      194.35164      197.62951      198.7871       62.72674     
     90000   699.78943     -6833231.1      194.35164      197.62951      198.7871       181.7333     
     91000   700.86914     -6833135.7      194.35164      197.62951      198.7871       143.84509    
     92000   700.50749     -6833276.8      194.35164      197.62951      198.7871       83.150367    
     93000   699.44591     -6833399.8      194.35164      197.62951      198.7871       2.580673     
     94000   699.68268     -6833303.4      194.35164      197.62951      198.7871      -53.142786    
     95000   699.19752     -6833318.8      194.35164      197.62951      198.7871       167.17684    
     96000   700.45443     -6833285.4      194.35164      197.62951      198.7871      -65.143795    
     97000   700.1984      -6833241.8      194.35164      197.62951      198.7871       138.46327    
     98000   699.32927     -6833277.9      194.35164      197.62951      198.7871      -56.069007    
     99000   699.77204     -6833387.6      194.35164      197.62951      198.7871       119.32089    
    100000   701.32158     -6833107.8      194.35164      197.62951      198.7871       68.347312    
    101000   700.47099     -6833242        194.35164      197.62951      198.7871       195.3653     
    102000   700.06997     -6833246.9      194.35164      197.62951      198.7871       6.4669612    
    103000   700.15468     -6833239.7      194.35164      197.62951      198.7871       33.462709    
    104000   699.69584     -6833411.2      194.35164      197.62951      198.7871       7.0360854    
    105000   700.71166     -6833207.8      194.35164      197.62951      198.7871       32.411328    
    106000   700.47785     -6833288.5      194.35164      197.62951      198.7871       42.881351    
    107000   698.38273     -6833474.5      194.35164      197.62951      198.7871      -63.682936    
    108000   699.53366     -6833409.2      194.35164      197.62951      198.7871      -16.946508    
    109000   699.65806     -6833293.2      194.35164      197.62951      198.7871       9.7491393    
    110000   698.92205     -6833275.4      194.35164      197.62951      198.7871       37.795043    
    111000   700.31067     -6833296.7      194.35164      197.62951      198.7871       51.296869    
    112000   700.04281     -6833271        194.35164      197.62951      198.7871       118.95984    
    113000   700.19755     -6833289.2      194.35164      197.62951      198.7871       39.88971     
    114000   701.56804     -6833229.9      194.35164      197.62951      198.7871      -74.085299    
    115000   699.9622      -6833215.6      194.35164      197.62951      198.7871      -8.2131238    
    116000   698.96112     -6833402.9      194.35164      197.62951      198.7871      -2.1453581    
    117000   700.36733     -6833150.8      194.35164      197.62951      198.7871       78.219046    
    118000   699.61843     -6833319.9      194.35164      197.62951      198.7871       71.225454    
    119000   699.63108     -6833305.6      194.35164      197.62951      198.7871      -1.8937381    
    120000   699.3362      -6833361.3      194.35164      197.62951      198.7871       104.76883    
    121000   700.96225     -6833313        194.35164      197.62951      198.7871       23.222488    
    122000   700.18891     -6833366.3      194.35164      197.62951      198.7871       12.519431    
    123000   700.02547     -6833428.1      194.35164      197.62951      198.7871       88.299483    
    124000   698.99752     -6833369        194.35164      197.62951      198.7871      -147.63581    
    125000   700.82785     -6833211.4      194.35164      197.62951      198.7871       169.82683    
    126000   700.77792     -6833172.3      194.35164      197.62951      198.7871       24.320893    
    127000   699.27276     -6833429        194.35164      197.62951      198.7871      -25.810706    
    128000   699.72399     -6833357.2      194.35164      197.62951      198.7871      -64.711777    
    129000   699.2222      -6833365.9      194.35164      197.62951      198.7871       104.29123    
    130000   700.33776     -6833294.1      194.35164      197.62951      198.7871       51.576076    
    131000   699.92122     -6833280.3      194.35164      197.62951      198.7871       191.59297    
    132000   700.0767      -6833344.9      194.35164      197.62951      198.7871      -44.442881    
    133000   699.95647     -6833370.6      194.35164      197.62951      198.7871       134.73014    
    134000   700.07929     -6833287.3      194.35164      197.62951      198.7871       61.80765     
    135000   699.1583      -6833469.4      194.35164      197.62951      198.7871      -34.018163    
    136000   699.47435     -6833421.4      194.35164      197.62951      198.7871      -90.310707    
    137000   700.2398      -6833247.6      194.35164      197.62951      198.7871       71.516319    
    138000   701.02939     -6833248.8      194.35164      197.62951      198.7871       8.2275846    
    139000   700.08833     -6833234.8      194.35164      197.62951      198.7871       30.805751    
    140000   700.336       -6833264.4      194.35164      197.62951      198.7871      -19.066138    
    141000   698.74325     -6833444.9      194.35164      197.62951      198.7871      -119.34363    
    142000   698.75503     -6833432.6      194.35164      197.62951      198.7871      -118.78947    
    143000   699.09295     -6833374.3      194.35164      197.62951      198.7871       79.850748    
    144000   699.71921     -6833173.8      194.35164      197.62951      198.7871       128.17385    
    145000   700.50066     -6833152        194.35164      197.62951      198.7871       68.372085    
    146000   700.49356     -6833298.5      194.35164      197.62951      198.7871       34.47268     
    147000   699.54084     -6833324.7      194.35164      197.62951      198.7871       8.0348492    
    148000   699.96978     -6833372.9      194.35164      197.62951      198.7871       47.441173    
    149000   700.20109     -6833239.8      194.35164      197.62951      198.7871      -4.8779498    
    150000   698.81356     -6833450.8      194.35164      197.62951      198.7871       88.114364    
    151000   701.31408     -6833158.9      194.35164      197.62951      198.7871       19.442215    
    152000   699.84756     -6833330.1      194.35164      197.62951      198.7871       155.32444    
    153000   699.60772     -6833180.6      194.35164      197.62951      198.7871       144.2613     
    154000   700.81958     -6833318        194.35164      197.62951      198.7871       98.640455    
    155000   700.44892     -6833297.2      194.35164      197.62951      198.7871       25.845138    
    156000   699.71393     -6833254.6      194.35164      197.62951      198.7871       3.8036308    
    157000   700.21159     -6833244.9      194.35164      197.62951      198.7871       172.04887    
    158000   701.61952     -6833213.8      194.35164      197.62951      198.7871       8.0710616    
    159000   699.47129     -6833354.1      194.35164      197.62951      198.7871       221.63977    
    160000   698.6273      -6833342.1      194.35164      197.62951      198.7871       30.370502    
    161000   699.91411     -6833322.3      194.35164      197.62951      198.7871      -34.1957      
    162000   700.53158     -6833253.4      194.35164      197.62951      198.7871       51.612081    
    163000   700.40789     -6833253.6      194.35164      197.62951      198.7871       54.087601    
    164000   700.6813      -6833247.5      194.35164      197.62951      198.7871       49.513812    
    165000   699.28042     -6833353.5      194.35164      197.62951      198.7871       13.188355    
    166000   699.44238     -6833310.2      194.35164      197.62951      198.7871       0.42604772   
    167000   699.64163     -6833281.9      194.35164      197.62951      198.7871       0.77592829   
    168000   699.44021     -6833416.7      194.35164      197.62951      198.7871      -12.932101    
    169000   699.19342     -6833257.9      194.35164      197.62951      198.7871      -126.28635    
    170000   699.82131     -6833285.3      194.35164      197.62951      198.7871       14.321121    
    171000   699.55165     -6833278        194.35164      197.62951      198.7871       76.334148    
    172000   700.19451     -6833269        194.35164      197.62951      198.7871       18.034506    
    173000   701.06349     -6833205        194.35164      197.62951      198.7871       149.51217    
    174000   701.46807     -6833177.9      194.35164      197.62951      198.7871       64.222764    
    175000   700.08956     -6833229.6      194.35164      197.62951      198.7871       6.8688283    
    176000   700.56866     -6833205        194.35164      197.62951      198.7871       140.2914     
    177000   700.53823     -6833227.9      194.35164      197.62951      198.7871       29.040787    
    178000   699.26688     -6833282.8      194.35164      197.62951      198.7871      -52.801351    
    179000   699.35972     -6833392.9      194.35164      197.62951      198.7871      -10.666294    
    180000   699.42712     -6833232.5      194.35164      197.62951      198.7871       217.38416    
    181000   698.65778     -6833310        194.35164      197.62951      198.7871       44.512522    
    182000   701.39427     -6833182.7      194.35164      197.62951      198.7871       78.949232    
    183000   700.43129     -6833257.7      194.35164      197.62951      198.7871       58.360733    
    184000   699.48518     -6833389.7      194.35164      197.62951      198.7871      -142.91507    
    185000   699.5896      -6833383.1      194.35164      197.62951      198.7871      -12.409267    
    186000   700.13615     -6833215.7      194.35164      197.62951      198.7871       180.80634    
    187000   700.84954     -6833169.7      194.35164      197.62951      198.7871       66.417449    
    188000   699.78596     -6833289.6      194.35164      197.62951      198.7871       27.604566    
    189000   699.86802     -6833372.9      194.35164      197.62951      198.7871       72.550362    
    190000   699.47021     -6833361.7      194.35164      197.62951      198.7871      -99.920118    
    191000   699.35521     -6833305.3      194.35164      197.62951      198.7871      -3.1790079    
    192000   699.81114     -6833329.6      194.35164      197.62951      198.7871      -67.634245    
    193000   700.26925     -6833161.3      194.35164      197.62951      198.7871      -107.97162    
    194000   698.91228     -6833388.2      194.35164      197.62951      198.7871      -6.0806953    
    195000   699.35839     -6833234.6      194.35164      197.62951      198.7871       109.62073    
    196000   700.47063     -6833205.6      194.35164      197.62951      198.7871       19.286092    
    197000   700.3992      -6833277.8      194.35164      197.62951      198.7871      -91.504597    
    198000   700.22622     -6833217.6      194.35164      197.62951      198.7871       12.334765    
    199000   698.57922     -6833377.4      194.35164      197.62951      198.7871       45.75476     
    200000   701.16062     -6833142.5      194.35164      197.62951      198.7871       50.761879    
    201000   699.21072     -6833400.7      194.35164      197.62951      198.7871       79.586221    
    202000   700.54311     -6833290.2      194.35164      197.62951      198.7871       12.703384    
    203000   699.80221     -6833252.9      194.35164      197.62951      198.7871       38.866764    
    204000   700.17789     -6833390.4      194.35164      197.62951      198.7871       3.5102265    
    205000   700.7866      -6833261.7      194.35164      197.62951      198.7871       62.559024    
    206000   700.43901     -6833268.1      194.35164      197.62951      198.7871       41.915524    
    207000   699.68933     -6833276.7      194.35164      197.62951      198.7871      -40.920724    
    208000   698.21579     -6833389.6      194.35164      197.62951      198.7871       54.154564    
    209000   701.01669     -6833202        194.35164      197.62951      198.7871      -6.1681868    
    210000   699.36074     -6833356.4      194.35164      197.62951      198.7871      -56.58325     
    211000   698.41864     -6833365.9      194.35164      197.62951      198.7871       101.6411     
    212000   699.15057     -6833374.2      194.35164      197.62951      198.7871      -20.83045     
    213000   699.30896     -6833396.4      194.35164      197.62951      198.7871       72.507228    
    214000   700.53028     -6833191.2      194.35164      197.62951      198.7871       139.1835     
    215000   700.87203     -6833240.6      194.35164      197.62951      198.7871       54.347143    
    216000   699.16108     -6833284.3      194.35164      197.62951      198.7871       18.610663    
    217000   701.48749     -6833188        194.35164      197.62951      198.7871       80.812458    
    218000   700.52628     -6833116.9      194.35164      197.62951      198.7871       25.19264     
    219000   699.63189     -6833365.5      194.35164      197.62951      198.7871      -104.73825    
    220000   700.04256     -6833316.1      194.35164      197.62951      198.7871       4.2918767    
    221000   699.26487     -6833387.9      194.35164      197.62951      198.7871      -35.556974    
    222000   700.1879      -6833137.4      194.35164      197.62951      198.7871       114.11972    
    223000   699.55302     -6833276.3      194.35164      197.62951      198.7871       116.32696    
    224000   699.29588     -6833326.2      194.35164      197.62951      198.7871       36.157053    
    225000   699.46723     -6833306.9      194.35164      197.62951      198.7871       114.37881    
    226000   698.45635     -6833456.2      194.35164      197.62951      198.7871       32.737932    
    227000   700.61994     -6833306.4      194.35164      197.62951      198.7871      -0.75568538   
    228000   699.49001     -6833344.6      194.35164      197.62951      198.7871       45.606645    
    229000   699.84782     -6833293.5      194.35164      197.62951      198.7871       8.6112623    
    230000   700.38003     -6833178.7      194.35164      197.62951      198.7871       223.38232    
    231000   699.73081     -6833254.5      194.35164      197.62951      198.7871       36.515407    
    232000   699.24402     -6833360        194.35164      197.62951      198.7871      -12.528272    
    233000   699.18643     -6833354.7      194.35164      197.62951      198.7871       34.090352    
    234000   698.98818     -6833301.6      194.35164      197.62951      198.7871       5.4522304    
    235000   700.2666      -6833193.6      194.35164      197.62951      198.7871       110.59398    
    236000   700.1371      -6833359        194.35164      197.62951      198.7871       80.298768    
    237000   700.20087     -6833161.8      194.35164      197.62951      198.7871       55.834884    
    238000   699.43342     -6833469.6      194.35164      197.62951      198.7871      -27.911228    
    239000   699.90826     -6833340.5      194.35164      197.62951      198.7871       81.788046    
    240000   699.54931     -6833342.6      194.35164      197.62951      198.7871       149.89361    
    241000   699.07255     -6833334.4      194.35164      197.62951      198.7871      -41.534593    
    242000   700.38871     -6833230.5      194.35164      197.62951      198.7871       58.245273    
    243000   699.39904     -6833283.2      194.35164      197.62951      198.7871       201.74109    
    244000   700.13342     -6833283.3      194.35164      197.62951      198.7871       50.372474    
    245000   698.79081     -6833341.8      194.35164      197.62951      198.7871       38.739153    
    246000   700.51138     -6833242.9      194.35164      197.62951      198.7871      -29.838694    
    247000   701.30743     -6833206.7      194.35164      197.62951      198.7871       66.523159    
    248000   699.38132     -6833324.1      194.35164      197.62951      198.7871       148.64718    
    249000   698.90064     -6833450.7      194.35164      197.62951      198.7871       70.023049    
    250000   701.38576     -6833106.6      194.35164      197.62951      198.7871       130.02703    
    251000   700.82928     -6833236.1      194.35164      197.62951      198.7871       37.304162    
    252000   700.63562     -6833240.2      194.35164      197.62951      198.7871       11.530474    
    253000   700.80709     -6833273.6      194.35164      197.62951      198.7871       57.456275    
    254000   700.8231      -6833289.4      194.35164      197.62951      198.7871      -44.47069     
    255000   699.0491      -6833407.3      194.35164      197.62951      198.7871       83.969694    
    256000   699.72807     -6833294.4      194.35164      197.62951      198.7871      -57.668879    
    257000   700.4377      -6833241.2      194.35164      197.62951      198.7871       24.895394    
    258000   700.06261     -6833290.5      194.35164      197.62951      198.7871       78.825951    
    259000   699.69548     -6833313.8      194.35164      197.62951      198.7871       94.37514     
    260000   699.87138     -6833233.2      194.35164      197.62951      198.7871      -9.3511907    
    261000   700.019       -6833226.8      194.35164      197.62951      198.7871       114.19591    
    262000   700.10111     -6833282.3      194.35164      197.62951      198.7871      -15.509973    
    263000   700.39582     -6833190.5      194.35164      197.62951      198.7871       92.186604    
    264000   699.63462     -6833306.2      194.35164      197.62951      198.7871       14.822525    
    265000   699.39267     -6833369.6      194.35164      197.62951      198.7871       92.297269    
    266000   700.39627     -6833241.9      194.35164      197.62951      198.7871      -42.66287     
    267000   700.24374     -6833297.7      194.35164      197.62951      198.7871      -78.99378     
    268000   700.22146     -6833331.8      194.35164      197.62951      198.7871      -184.41273    
    269000   699.82469     -6833277.1      194.35164      197.62951      198.7871       76.025488    
    270000   698.96988     -6833503.1      194.35164      197.62951      198.7871      -15.770149    
    271000   700.16439     -6833338.9      194.35164      197.62951      198.7871      -13.626996    
    272000   700.45879     -6833206.2      194.35164      197.62951      198.7871       56.259571    
    273000   700.10292     -6833279.7      194.35164      197.62951      198.7871       63.9137      
    274000   699.46579     -6833380.3      194.35164      197.62951      198.7871      -1.1925074    
    275000   700.75663     -6833391.9      194.35164      197.62951      198.7871      -67.418576    
    276000   701.47335     -6833143.3      194.35164      197.62951      198.7871       74.274804    
    277000   700.40346     -6833244.2      194.35164      197.62951      198.7871       19.490227    
    278000   700.10699     -6833319.3      194.35164      197.62951      198.7871      -10.316572    
    279000   699.7905      -6833311.3      194.35164      197.62951      198.7871       23.521525    
    280000   699.51693     -6833402.3      194.35164      197.62951      198.7871       57.952242    
    281000   699.89497     -6833388.1      194.35164      197.62951      198.7871       25.016497    
    282000   700.1938      -6833270        194.35164      197.62951      198.7871       109.32568    
    283000   699.71826     -6833310.8      194.35164      197.62951      198.7871      -47.513326    
    284000   698.99013     -6833432.4      194.35164      197.62951      198.7871       54.375402    
    285000   699.24555     -6833386.5      194.35164      197.62951      198.7871      -127.88944    
    286000   699.02798     -6833460.1      194.35164      197.62951      198.7871       20.346472    
    287000   700.53106     -6833241.8      194.35164      197.62951      198.7871       23.107961    
    288000   700.94142     -6833182.2      194.35164      197.62951      198.7871       131.53297    
    289000   700.38642     -6833145.5      194.35164      197.62951      198.7871       29.739853    
    290000   700.39707     -6833139.3      194.35164      197.62951      198.7871       144.37825    
    291000   699.85303     -6833373.1      194.35164      197.62951      198.7871       112.02329    
    292000   699.89691     -6833332.1      194.35164      197.62951      198.7871      -8.9681142    
    293000   699.81294     -6833341.2      194.35164      197.62951      198.7871       73.69588     
    294000   699.30587     -6833388.9      194.35164      197.62951      198.7871      -3.4146337    
    295000   700.36894     -6833266.5      194.35164      197.62951      198.7871       30.197789    
    296000   700.12346     -6833289.7      194.35164      197.62951      198.7871       34.970052    
    297000   698.47531     -6833528        194.35164      197.62951      198.7871      -97.657334    
    298000   698.69865     -6833311.5      194.35164      197.62951      198.7871       114.25178    
    299000   698.63529     -6833384.3      194.35164      197.62951      198.7871       15.506739    
    300000   699.31537     -6833327.7      194.35164      197.62951      198.7871      -104.64778    
    301000   699.73676     -6833265.7      194.35164      197.62951      198.7871      -46.103545    
    302000   699.51569     -6833276.7      194.35164      197.62951      198.7871       104.23044    
    303000   701.2175      -6833184.1      194.35164      197.62951      198.7871       56.501487    
    304000   699.43791     -6833274.5      194.35164      197.62951      198.7871       84.89924     
    305000   701.23365     -6833123.4      194.35164      197.62951      198.7871      -14.57108     
    306000   700.84308     -6833309.7      194.35164      197.62951      198.7871       67.114228    
    307000   700.89569     -6833233.1      194.35164      197.62951      198.7871      -69.98545     
    308000   700.02042     -6833205.8      194.35164      197.62951      198.7871       144.44347    
    309000   700.05242     -6833323        194.35164      197.62951      198.7871      -36.020419    
    310000   698.55638     -6833380.7      194.35164      197.62951      198.7871       93.664533    
    311000   700.62526     -6833284.7      194.35164      197.62951      198.7871       21.110652    
    312000   698.95588     -6833321.3      194.35164      197.62951      198.7871       94.211567    
    313000   698.59662     -6833387.9      194.35164      197.62951      198.7871      -88.509436    
    314000   699.10513     -6833364.6      194.35164      197.62951      198.7871      -56.51561     
    315000   700.95074     -6833179.9      194.35164      197.62951      198.7871      -70.594083    
    316000   700.61383     -6833293.1      194.35164      197.62951      198.7871      -43.149232    
    317000   699.68527     -6833368.6      194.35164      197.62951      198.7871       42.536751    
    318000   700.2198      -6833340.1      194.35164      197.62951      198.7871       4.7552398    
    319000   699.24782     -6833252.6      194.35164      197.62951      198.7871       31.458426    
    320000   700.34889     -6833221.4      194.35164      197.62951      198.7871      -14.451352    
    321000   700.55205     -6833186.7      194.35164      197.62951      198.7871       131.6653     
    322000   699.08846     -6833448.8      194.35164      197.62951      198.7871       72.073458    
    323000   700.64969     -6833328.6      194.35164      197.62951      198.7871      -45.165957    
    324000   700.28187     -6833270.1      194.35164      197.62951      198.7871       58.694672    
    325000   699.01163     -6833326        194.35164      197.62951      198.7871       262.63309    
    326000   700.12199     -6833284.7      194.35164      197.62951      198.7871       86.887272    
    327000   700.42391     -6833200        194.35164      197.62951      198.7871      -41.940623    
    328000   699.86894     -6833405.3      194.35164      197.62951      198.7871      -53.589036    
    329000   699.39577     -6833447.8      194.35164      197.62951      198.7871       50.675625    
    330000   700.00216     -6833368.7      194.35164      197.62951      198.7871      -7.7319049    
    331000   700.72473     -6833367.8      194.35164      197.62951      198.7871       76.42884     
    332000   699.40197     -6833395.7      194.35164      197.62951      198.7871      -43.589361    
    333000   701.50952     -6833201.4      194.35164      197.62951      198.7871      -1.082239     
    334000   699.7896      -6833203.8      194.35164      197.62951      198.7871       70.178035    
    335000   700.19513     -6833308.6      194.35164      197.62951      198.7871      -16.220238    
    336000   699.93049     -6833329.7      194.35164      197.62951      198.7871       83.492559    
    337000   700.69779     -6833245.3      194.35164      197.62951      198.7871       202.66315    
    338000   699.17311     -6833331        194.35164      197.62951      198.7871       141.17296    
    339000   700.63259     -6833211.6      194.35164      197.62951      198.7871       48.041731    
    340000   700.99351     -6833195.5      194.35164      197.62951      198.7871       34.424749    
    341000   701.32743     -6833204.7      194.35164      197.62951      198.7871       96.04317     
    342000   699.9259      -6833246.1      194.35164      197.62951      198.7871       38.38271     
    343000   699.80653     -6833383.5      194.35164      197.62951      198.7871       56.690864    
    344000   699.01765     -6833381.5      194.35164      197.62951      198.7871      -110.63851    
    345000   701.46465     -6833224.3      194.35164      197.62951      198.7871       105.0309     
    346000   700.91765     -6833320.1      194.35164      197.62951      198.7871      -62.204968    
    347000   700.76619     -6833232        194.35164      197.62951      198.7871       199.67122    
    348000   698.6858      -6833427        194.35164      197.62951      198.7871      -2.586786     
    349000   699.37311     -6833394.1      194.35164      197.62951      198.7871       11.970904    
    350000   700.4084      -6833302.1      194.35164      197.62951      198.7871       43.348594    
    351000   700.18972     -6833308.4      194.35164      197.62951      198.7871       63.354247    
    352000   700.81374     -6833205        194.35164      197.62951      198.7871       71.295294    
    353000   700.42067     -6833232.7      194.35164      197.62951      198.7871      -16.626379    
    354000   699.41189     -6833354.5      194.35164      197.62951      198.7871      -94.387854    
    355000   699.63475     -6833233.9      194.35164      197.62951      198.7871       23.233213    
    356000   698.9312      -6833388.4      194.35164      197.62951      198.7871      -39.874146    
    357000   700.46935     -6833289.3      194.35164      197.62951      198.7871       151.94569    
    358000   700.296       -6833216.8      194.35164      197.62951      198.7871       115.2474     
    359000   700.83199     -6833278.9      194.35164      197.62951      198.7871       90.965676    
    360000   699.04305     -6833334.5      194.35164      197.62951      198.7871       5.5046373    
    361000   698.78321     -6833357.1      194.35164      197.62951      198.7871       88.947363    
    362000   699.86923     -6833328.5      194.35164      197.62951      198.7871       24.695888    
    363000   700.49823     -6833319.6      194.35164      197.62951      198.7871      -18.981072    
    364000   701.41674     -6833085.1      194.35164      197.62951      198.7871       119.51962    
    365000   700.32433     -6833263.6      194.35164      197.62951      198.7871       34.101661    
    366000   700.80013     -6833246.1      194.35164      197.62951      198.7871      -16.092836    
    367000   700.57167     -6833276.7      194.35164      197.62951      198.7871       1.4427352    
    368000   700.41727     -6833286.6      194.35164      197.62951      198.7871       29.597705    
    369000   700.89145     -6833097.1      194.35164      197.62951      198.7871       167.39764    
    370000   699.69306     -6833289.3      194.35164      197.62951      198.7871      -0.8150752    
    371000   700.50909     -6833217.3      194.35164      197.62951      198.7871       37.620128    
    372000   701.09958     -6833238.4      194.35164      197.62951      198.7871      -22.874724    
    373000   700.3057      -6833220.8      194.35164      197.62951      198.7871       6.652445     
    374000   701.42008     -6833209.1      194.35164      197.62951      198.7871       92.791004    
    375000   699.68317     -6833350.3      194.35164      197.62951      198.7871      -13.457054    
    376000   700.49088     -6833174.4      194.35164      197.62951      198.7871       71.000753    
    377000   699.82495     -6833239.2      194.35164      197.62951      198.7871      -7.8053579    
    378000   699.96694     -6833299        194.35164      197.62951      198.7871       96.680368    
    379000   700.17769     -6833317.6      194.35164      197.62951      198.7871       41.249502    
    380000   700.03061     -6833260        194.35164      197.62951      198.7871      -14.767875    
    381000   701.53777     -6833124.1      194.35164      197.62951      198.7871       100.54636    
    382000   700.74536     -6833273.3      194.35164      197.62951      198.7871      -0.23883698   
    383000   699.08605     -6833457.9      194.35164      197.62951      198.7871      -40.751409    
    384000   700.14002     -6833356.2      194.35164      197.62951      198.7871      -50.956493    
    385000   701.31466     -6833269.1      194.35164      197.62951      198.7871       94.674491    
    386000   701.20924     -6833250.1      194.35164      197.62951      198.7871       22.222178    
    387000   698.55568     -6833332.5      194.35164      197.62951      198.7871      -6.5291088    
    388000   699.31479     -6833300.5      194.35164      197.62951      198.7871       45.060874    
    389000   702.18137     -6833052.5      194.35164      197.62951      198.7871       70.480614    
    390000   699.13754     -6833332.2      194.35164      197.62951      198.7871      -155.69167    
    391000   699.46407     -6833391.1      194.35164      197.62951      198.7871      -85.300396    
    392000   701.45309     -6833241.6      194.35164      197.62951      198.7871      -101.10125    
    393000   699.93211     -6833346.8      194.35164      197.62951      198.7871       100.005      
    394000   701.37427     -6833188.1      194.35164      197.62951      198.7871       35.777531    
    395000   700.30036     -6833201        194.35164      197.62951      198.7871       106.86448    
    396000   699.87541     -6833365.8      194.35164      197.62951      198.7871      -25.128951    
    397000   701.13443     -6833240.2      194.35164      197.62951      198.7871       5.0815256    
    398000   700.25167     -6833253.6      194.35164      197.62951      198.7871       166.98103    
    399000   699.46088     -6833330.4      194.35164      197.62951      198.7871       38.72784     
    400000   699.6367      -6833335.9      194.35164      197.62951      198.7871       42.925788    
    401000   700.61597     -6833171        194.35164      197.62951      198.7871       121.50404    
    402000   700.02443     -6833279.4      194.35164      197.62951      198.7871       55.945648    
    403000   699.82386     -6833252.7      194.35164      197.62951      198.7871       50.985293    
    404000   699.0639      -6833369.5      194.35164      197.62951      198.7871       114.14644    
    405000   699.97653     -6833208.1      194.35164      197.62951      198.7871       77.033412    
    406000   699.8527      -6833304.1      194.35164      197.62951      198.7871       186.88411    
    407000   699.88867     -6833271.7      194.35164      197.62951      198.7871       104.57686    
    408000   699.16594     -6833407.3      194.35164      197.62951      198.7871      -11.451659    
    409000   699.78794     -6833353.5      194.35164      197.62951      198.7871      -107.89202    
    410000   700.06917     -6833331.5      194.35164      197.62951      198.7871       14.740347    
    411000   699.96728     -6833348.7      194.35164      197.62951      198.7871       33.482009    
    412000   699.82351     -6833408.2      194.35164      197.62951      198.7871       32.957588    
    413000   698.56305     -6833342.6      194.35164      197.62951      198.7871       39.996235    
    414000   698.99248     -6833352.6      194.35164      197.62951      198.7871      -35.264217    
    415000   700.07907     -6833332.4      194.35164      197.62951      198.7871      -3.3902224    
    416000   699.93604     -6833335.7      194.35164      197.62951      198.7871      -50.88076     
    417000   700.73505     -6833117.1      194.35164      197.62951      198.7871       116.50242    
    418000   700.81364     -6833250.3      194.35164      197.62951      198.7871       99.78712     
    419000   700.64913     -6833213.1      194.35164      197.62951      198.7871       135.74012    
    420000   698.91822     -6833410.2      194.35164      197.62951      198.7871       134.17745    
    421000   701.26643     -6833237        194.35164      197.62951      198.7871       110.83855    
    422000   700.11792     -6833226.4      194.35164      197.62951      198.7871       130.21392    
    423000   699.53443     -6833356.3      194.35164      197.62951      198.7871       19.362673    
    424000   700.41262     -6833267.8      194.35164      197.62951      198.7871       22.103596    
    425000   700.88327     -6833258.1      194.35164      197.62951      198.7871       51.46238     
    426000   701.39402     -6833095.7      194.35164      197.62951      198.7871      -1.8088912    
    427000   699.78882     -6833391.2      194.35164      197.62951      198.7871      -36.301933    
    428000   700.13887     -6833250.4      194.35164      197.62951      198.7871       110.22057    
    429000   701.60565     -6833177.1      194.35164      197.62951      198.7871       17.4871      
    430000   700.96141     -6833172.7      194.35164      197.62951      198.7871       133.52035    
    431000   700.07277     -6833291.4      194.35164      197.62951      198.7871       29.042668    
    432000   699.83634     -6833248.7      194.35164      197.62951      198.7871       51.981767    
    433000   700.93249     -6833277.1      194.35164      197.62951      198.7871      -44.795854    
    434000   699.41773     -6833427.1      194.35164      197.62951      198.7871      -39.003826    
    435000   700.62122     -6833226.1      194.35164      197.62951      198.7871       12.217566    
    436000   698.96844     -6833384.8      194.35164      197.62951      198.7871       3.8918869    
    437000   699.91996     -6833365.7      194.35164      197.62951      198.7871      -12.548876    
    438000   700.29695     -6833267.3      194.35164      197.62951      198.7871      -40.771626    
    439000   699.23446     -6833297.5      194.35164      197.62951      198.7871      -43.72546     
    440000   700.59168     -6833291.9      194.35164      197.62951      198.7871       51.613157    
    441000   700.79953     -6833224.3      194.35164      197.62951      198.7871      -1.2531567    
    442000   700.79978     -6833227.5      194.35164      197.62951      198.7871       143.70928    
    443000   699.18651     -6833505.5      194.35164      197.62951      198.7871      -35.078446    
    444000   699.13237     -6833262.2      194.35164      197.62951      198.7871       72.482416    
    445000   700.41173     -6833318.4      194.35164      197.62951      198.7871       11.093543    
    446000   699.47526     -6833344        194.35164      197.62951      198.7871       42.367456    
    447000   701.57606     -6833286.7      194.35164      197.62951      198.7871       47.41656     
    448000   699.61769     -6833329.4      194.35164      197.62951      198.7871       60.706615    
    449000   699.15321     -6833476.9      194.35164      197.62951      198.7871      -22.878219    
    450000   699.51661     -6833286.5      194.35164      197.62951      198.7871       149.29317    
    451000   699.78186     -6833365.8      194.35164      197.62951      198.7871      -54.526149    
    452000   700.05412     -6833361.3      194.35164      197.62951      198.7871      -26.988393    
    453000   699.76202     -6833331.7      194.35164      197.62951      198.7871       42.543875    
    454000   699.22321     -6833379.4      194.35164      197.62951      198.7871       140.14766    
    455000   700.11062     -6833323.7      194.35164      197.62951      198.7871       72.809512    
    456000   700.04468     -6833405.3      194.35164      197.62951      198.7871       174.78093    
    457000   700.31031     -6833220.4      194.35164      197.62951      198.7871       150.07856    
    458000   700.2361      -6833280.5      194.35164      197.62951      198.7871       114.63462    
    459000   700.31421     -6833271.7      194.35164      197.62951      198.7871      -29.149545    
    460000   699.271       -6833373.2      194.35164      197.62951      198.7871       22.395157    
    461000   700.07322     -6833208.9      194.35164      197.62951      198.7871       82.039119    
    462000   699.3863      -6833329.1      194.35164      197.62951      198.7871       32.396499    
    463000   700.26211     -6833288.5      194.35164      197.62951      198.7871       144.11793    
    464000   699.36927     -6833353.7      194.35164      197.62951      198.7871       91.701736    
    465000   699.72552     -6833185.2      194.35164      197.62951      198.7871       159.15461    
    466000   698.78996     -6833353.3      194.35164      197.62951      198.7871       7.867204     
    467000   698.39721     -6833497        194.35164      197.62951      198.7871      -59.588001    
    468000   700.62982     -6833286.9      194.35164      197.62951      198.7871      -49.443653    
    469000   699.11989     -6833273.2      194.35164      197.62951      198.7871       68.211315    
    470000   701.0509      -6833210.3      194.35164      197.62951      198.7871       27.526531    
    471000   700.57056     -6833372.9      194.35164      197.62951      198.7871       51.287815    
    472000   699.81366     -6833273.1      194.35164      197.62951      198.7871       251.68511    
    473000   699.61053     -6833390.8      194.35164      197.62951      198.7871       45.444797    
    474000   699.10595     -6833458        194.35164      197.62951      198.7871      -90.58965     
    475000   701.24636     -6833331.3      194.35164      197.62951      198.7871       3.7587909    
    476000   700.03156     -6833320.5      194.35164      197.62951      198.7871       51.059434    
    477000   701.01812     -6833223.2      194.35164      197.62951      198.7871       110.66462    
    478000   700.07894     -6833189.1      194.35164      197.62951      198.7871       121.27042    
    479000   700.15631     -6833319.7      194.35164      197.62951      198.7871       130.83997    
    480000   700.10528     -6833225.7      194.35164      197.62951      198.7871       158.16629    
    481000   700.61798     -6833181.2      194.35164      197.62951      198.7871       7.6390789    
    482000   698.63153     -6833398.8      194.35164      197.62951      198.7871       12.565448    
    483000   699.3004      -6833261.9      194.35164      197.62951      198.7871       33.543656    
    484000   698.8912      -6833440.6      194.35164      197.62951      198.7871      -16.319366    
    485000   700.67892     -6833361.4      194.35164      197.62951      198.7871       16.220439    
    486000   700.62207     -6833132.7      194.35164      197.62951      198.7871       62.104561    
    487000   701.28259     -6833255.8      194.35164      197.62951      198.7871       62.323082    
    488000   699.93787     -6833371.5      194.35164      197.62951      198.7871       81.503739    
    489000   700.32213     -6833343.8      194.35164      197.62951      198.7871       60.337892    
    490000   699.97181     -6833259.8      194.35164      197.62951      198.7871       110.6906     
    491000   701.16807     -6833294.3      194.35164      197.62951      198.7871      -101.4971     
    492000   700.22744     -6833259        194.35164      197.62951      198.7871      -34.671125    
    493000   701.24389     -6833154.1      194.35164      197.62951      198.7871      -44.153395    
    494000   699.01119     -6833442.8      194.35164      197.62951      198.7871      -16.210699    
    495000   700.28629     -6833255.6      194.35164      197.62951      198.7871      -32.091951    
    496000   699.28972     -6833481.3      194.35164      197.62951      198.7871       45.263003    
    497000   700.27261     -6833247.4      194.35164      197.62951      198.7871       10.927155    
    498000   700.13792     -6833311.2      194.35164      197.62951      198.7871       25.689198    
    499000   701.29452     -6833324.1      194.35164      197.62951      198.7871      -166.9912     
    500000   699.8521      -6833285        194.35164      197.62951      198.7871       99.745416    
Loop time of 40469.1 on 16384 procs for 500000 steps with 601956 atoms

Performance: 2.135 ns/day, 11.241 hours/ns, 12.355 timesteps/s, 7.437 Matom-step/s
88.8% CPU use with 128 MPI tasks x 128 OpenMP threads

MPI task timing breakdown:
Section |  min time  |  avg time  |  max time  |%varavg| %total
---------------------------------------------------------------
Pair    | 22845      | 25600      | 28086      |1095.8 | 63.26
Bond    | 0.095522   | 0.12611    | 0.18631    |   5.6 |  0.00
Kspace  | 6611.1     | 9374.3     | 12552      |2119.3 | 23.16
Neigh   | 3665.7     | 4137.7     | 4533.7     | 487.0 | 10.22
Comm    | 1012.4     | 1111.5     | 1218       | 122.7 |  2.75
Output  | 0.070901   | 0.075705   | 0.08896    |   0.6 |  0.00
Modify  | 110.04     | 163.13     | 226.5      | 232.3 |  0.40
Other   |            | 82.32      |            |       |  0.20

Nlocal:        4702.78 ave        4995 max        4412 min
Histogram: 49 15 0 0 0 0 0 0 15 49
Nghost:        14105.2 ave       14888 max       13330 min
Histogram: 64 0 0 0 0 0 0 0 1 63
Neighs:    1.16537e+06 ave 1.27488e+06 max 1.04315e+06 min
Histogram: 11 25 19 9 0 0 0 17 21 26

Total # of neighbors = 1.4916702e+08
Ave neighs/atom = 247.80385
Ave special neighs/atom = 0
Neighbor list builds = 103543
Dangerous builds = 0
System init for write_data ...
PPPM initialization ...
  using 12-bit tables for long-range coulomb (src/src/kspace.cpp:342)
  G vector (1/distance) = 0.27679647
  grid = 135 135 135
  stencil order = 5
  estimated absolute RMS force accuracy = 0.0018196166
  estimated relative force accuracy = 0.00012636538
  using double precision MKL FFT
  3d grid and FFT values/proc = 36800 36450
Generated 0 of 10 mixed pair_coeff terms from geometric mixing rule
Total wall time: 24:41:26
