LAMMPS (8 Feb 2023)
WARNING: Using I/O redirection is unreliable with parallel runs. Better to use the -in switch to read input files. (src/src/lammps.cpp:531)
  using 128 OpenMP thread(s) per MPI task
Reading data file ...
  orthogonal box = (-0.49287709 -0.49287709 -0.49287709) to (195.49288 195.49288 195.49288)
  4 by 4 by 8 MPI processor grid
  reading atoms ...
  482050 atoms
  reading velocities ...
  482050 velocities
Finding 1-2 1-3 1-4 neighbors ...
  special bond factors lj:    0        0        0       
  special bond factors coul:  0        0        0       
     0 = max # of 1-2 neighbors
     0 = max # of 1-3 neighbors
     0 = max # of 1-4 neighbors
     1 = max # of special neighbors
  special bonds CPU = 0.097 seconds
  read_data CPU = 2.733 seconds
128208 atoms in group Li
246152 atoms in group O
PPPM initialization ...
  using 12-bit tables for long-range coulomb (src/src/kspace.cpp:342)
  G vector (1/distance) = 0.27723083
  grid = 135 135 135
  stencil order = 5
  estimated absolute RMS force accuracy = 0.0016003349
  estimated relative force accuracy = 0.00011113711
  using double precision MKL FFT
  3d grid and FFT values/proc = 36800 36450
Generated 0 of 10 mixed pair_coeff terms from geometric mixing rule
Neighbor list info ...
  update: every = 1 steps, delay = 0 steps, check = yes
  max neighbors/atom: 5000, page size: 100000
  master list distance cutoff = 11.5
  ghost atom cutoff = 11.5
  binsize = 5.75, bins = 35 35 35
  3 neighbor lists, perpetual/occasional/extra = 3 0 0
  (1) pair buck/coul/long, perpetual
      attributes: half, newton on
      pair build: half/bin/newton
      stencil: half/bin/3d
      bin: standard
  (2) pair lennard/mdf, perpetual, skip from (3)
      attributes: half, newton on, cut 4
      pair build: skip
      stencil: none
      bin: none
  (3) neighbor class addition, perpetual, trim from (1)
      attributes: half, newton on, cut 4
      pair build: trim
      stencil: none
      bin: none
Setting up cg style minimization ...
  Unit style    : metal
  Current step  : 0
Per MPI rank memory allocation (min/avg/max) = 225.6 | 262.2 | 300.2 Mbytes
   Step          Temp          E_pair         E_mol          TotEng         Press     
         0   299.61012     -5524559.3      0             -5505890.7     -253.45501    
       405   299.61012     -5543518.5      0             -5524849.9     -5021.2701    
Loop time of 62.3057 on 16384 procs for 405 steps with 482050 atoms

79.6% CPU use with 128 MPI tasks x 128 OpenMP threads

Minimization stats:
  Stopping criterion = linesearch alpha is zero
  Energy initial, next-to-last, final = 
     -5524559.31182959  -5543518.49911907  -5543518.49911907
  Force two-norm initial, final = 666.40035 0.35405566
  Force max component initial, final = 3.9759232 0.080547375
  Final line search alpha, max atom move = 6.978904e-08 5.6213239e-09
  Iterations, force evaluations = 405 765

MPI task timing breakdown:
Section |  min time  |  avg time  |  max time  |%varavg| %total
---------------------------------------------------------------
Pair    | 26.836     | 37.84      | 49.82      | 140.0 | 60.73
Bond    | 7.319e-05  | 0.00015643 | 0.00027315 |   0.0 |  0.00
Kspace  | 9.7607     | 22.014     | 33.297     | 188.9 | 35.33
Neigh   | 0.51426    | 0.74069    | 0.99914    |  21.4 |  1.19
Comm    | 0.9827     | 1.2328     | 1.4727     |  14.4 |  1.98
Output  | 0          | 0          | 0          |   0.0 |  0.00
Modify  | 0          | 0          | 0          |   0.0 |  0.00
Other   |            | 0.4783     |            |       |  0.77

Nlocal:        3766.02 ave        4642 max        2892 min
Histogram: 64 0 0 0 0 0 0 0 1 63
Nghost:        12219.2 ave       13707 max       10798 min
Histogram: 64 0 0 0 0 0 0 0 4 60
Neighs:         955174 ave 1.28575e+06 max      664291 min
Histogram: 30 33 1 0 0 0 2 24 17 21

Total # of neighbors = 1.2226226e+08
Ave neighs/atom = 253.62984
Ave special neighs/atom = 0
Neighbor list builds = 25
Dangerous builds = 0
PPPM initialization ...
  using 12-bit tables for long-range coulomb (src/src/kspace.cpp:342)
  G vector (1/distance) = 0.27723083
  grid = 135 135 135
  stencil order = 5
  estimated absolute RMS force accuracy = 0.0016003349
  estimated relative force accuracy = 0.00011113711
  using double precision MKL FFT
  3d grid and FFT values/proc = 36800 36450
Generated 0 of 10 mixed pair_coeff terms from geometric mixing rule
Setting up Verlet run ...
  Unit style    : metal
  Current step  : 0
  Time step     : 0.002
Per MPI rank memory allocation (min/avg/max) = 224.7 | 260.6 | 298.1 Mbytes
   Step          Temp          TotEng           Lx             Ly             Lz           Press     
         0   299.61012     -5524849.9      195.98575      195.98575      195.98575     -5021.2701    
      1000   308.63514     -5504694.4      196.24144      196.24144      196.24144      15.17985     
      2000   315.80711     -5503651.2      196.1953       196.1953       196.1953       31.438332    
      3000   324.51895     -5502695        196.20046      196.20046      196.20046     -23.818473    
      4000   332.16421     -5501712.9      196.14211      196.14211      196.14211      7.3472407    
      5000   340.08935     -5500660.5      196.10552      196.10552      196.10552      37.933093    
      6000   348.14441     -5499566.1      196.10957      196.10957      196.10957     -84.973614    
      7000   356.08033     -5498522.7      196.10039      196.10039      196.10039      64.249662    
      8000   363.84556     -5497527.9      196.10132      196.10132      196.10132      38.378152    
      9000   371.48062     -5496472.7      196.12503      196.12503      196.12503      84.902334    
     10000   379.58068     -5495430.7      196.16531      196.16531      196.16531     -49.330051    
     11000   387.23769     -5494396.9      196.19541      196.19541      196.19541      45.817458    
     12000   396.10576     -5493323.8      196.24113      196.24113      196.24113     -30.663778    
     13000   403.60758     -5492321.6      196.29595      196.29595      196.29595     -34.838369    
     14000   410.79657     -5491290.1      196.32461      196.32461      196.32461      82.987277    
     15000   419.31167     -5490202.6      196.37877      196.37877      196.37877     -27.592414    
     16000   427.86965     -5489108.2      196.41355      196.41355      196.41355      92.972721    
     17000   435.17791     -5488109.3      196.44774      196.44774      196.44774     -45.654876    
     18000   443.6358      -5487027.8      196.47546      196.47546      196.47546     -125.09528    
     19000   452.1995      -5486020.2      196.50428      196.50428      196.50428     -28.147793    
     20000   459.63754     -5484927.4      196.52776      196.52776      196.52776     -65.665625    
     21000   468.12129     -5483918.4      196.54995      196.54995      196.54995      22.247671    
     22000   477.00936     -5482788.5      196.56176      196.56176      196.56176     -36.211486    
     23000   484.49816     -5481764.9      196.58542      196.58542      196.58542     -32.683841    
     24000   491.16199     -5480789        196.61219      196.61219      196.61219      30.212484    
     25000   499.57882     -5479692.3      196.64802      196.64802      196.64802     -77.297086    
     26000   507.11872     -5478642.1      196.67113      196.67113      196.67113      66.232532    
     27000   516.78195     -5477543.5      196.70214      196.70214      196.70214     -68.347878    
     28000   523.70266     -5476499.5      196.74149      196.74149      196.74149     -78.14181     
     29000   531.92741     -5475425.8      196.78447      196.78447      196.78447     -85.475845    
     30000   539.84933     -5474413.7      196.79108      196.79108      196.79108      77.885439    
     31000   547.94383     -5473385.3      196.82559      196.82559      196.82559      52.924464    
     32000   557.0889      -5472268.1      196.8476       196.8476       196.8476       16.159746    
     33000   564.3135      -5471176.6      196.89383      196.89383      196.89383     -83.513929    
     34000   570.62424     -5470254.9      196.90877      196.90877      196.90877     -121.9083     
     35000   580.80014     -5469065.4      196.92982      196.92982      196.92982      68.175384    
     36000   587.6686      -5468070.7      196.94819      196.94819      196.94819      94.369158    
     37000   595.32591     -5467079.8      196.9657       196.9657       196.9657       82.19995     
     38000   603.08303     -5466004.8      197.01408      197.01408      197.01408     -51.583952    
     39000   610.96877     -5464891.7      197.03925      197.03925      197.03925      5.630103     
     40000   618.55926     -5463909.3      197.07733      197.07733      197.07733      21.005216    
     41000   627.84923     -5462865.3      197.09596      197.09596      197.09596      54.610662    
     42000   636.19497     -5461664.6      197.13334      197.13334      197.13334     -62.012247    
     43000   643.73726     -5460753        197.16752      197.16752      197.16752     -149.82331    
     44000   652.70783     -5459531        197.18154      197.18154      197.18154     -30.234603    
     45000   660.61466     -5458460.6      197.22733      197.22733      197.22733     -203.49798    
     46000   667.76314     -5457566.9      197.24628      197.24628      197.24628      15.902844    
     47000   676.18793     -5456444.5      197.27948      197.27948      197.27948      50.186374    
     48000   684.69402     -5455251.9      197.31027      197.31027      197.31027      48.484324    
     49000   691.34074     -5454306.1      197.34084      197.34084      197.34084      18.111985    
     50000   700.06164     -5453135.1      197.36524      197.36524      197.36524     -87.195003    
Loop time of 4005.4 on 16384 procs for 50000 steps with 482050 atoms

Performance: 2.157 ns/day, 11.126 hours/ns, 12.483 timesteps/s, 6.017 Matom-step/s
78.5% CPU use with 128 MPI tasks x 128 OpenMP threads

MPI task timing breakdown:
Section |  min time  |  avg time  |  max time  |%varavg| %total
---------------------------------------------------------------
Pair    | 1402.6     | 1967.1     | 2584.8     |1002.7 | 49.11
Bond    | 0.0045316  | 0.010727   | 0.022986   |   2.6 |  0.00
Kspace  | 676.29     | 1372.8     | 2006.5     |1361.0 | 34.27
Neigh   | 153.67     | 221.68     | 298.37     | 372.0 |  5.53
Comm    | 75.385     | 92.425     | 108.27     | 105.9 |  2.31
Output  | 0.0069489  | 0.0073003  | 0.008449   |   0.2 |  0.00
Modify  | 170.9      | 201.74     | 349.27     | 239.4 |  5.04
Other   |            | 149.6      |            |       |  3.73

Nlocal:        3766.02 ave        4614 max        2907 min
Histogram: 64 0 0 0 0 0 0 0 0 64
Nghost:        12073.1 ave       13505 max       10649 min
Histogram: 64 0 0 0 0 0 0 0 1 63
Neighs:         931922 ave 1.24482e+06 max      653000 min
Histogram: 33 30 1 0 0 0 1 24 15 24

Total # of neighbors = 1.1928598e+08
Ave neighs/atom = 247.45562
Ave special neighs/atom = 0
Neighbor list builds = 7314
Dangerous builds = 0
PPPM initialization ...
  using 12-bit tables for long-range coulomb (src/src/kspace.cpp:342)
  G vector (1/distance) = 0.27671294
  grid = 135 135 135
  stencil order = 5
  estimated absolute RMS force accuracy = 0.0016345026
  estimated relative force accuracy = 0.00011350993
  using double precision MKL FFT
  3d grid and FFT values/proc = 36800 36450
Generated 0 of 10 mixed pair_coeff terms from geometric mixing rule
Setting up Verlet run ...
  Unit style    : metal
  Current step  : 0
  Time step     : 0.002
Per MPI rank memory allocation (min/avg/max) = 224.7 | 260.6 | 298.1 Mbytes
   Step          Temp          TotEng           Lx             Ly             Lz           Press     
         0   700.06164     -5453135.7      197.36524      197.36524      197.36524     -88.234198    
      1000   700.13188     -5453228.7      197.34953      197.34953      197.34953      114.71159    
      2000   698.68185     -5453235.8      197.38026      197.38026      197.38026     -58.995205    
      3000   699.39619     -5453290.5      197.36454      197.36454      197.36454     -29.841173    
      4000   700.2474      -5453175.2      197.3714       197.3714       197.3714       64.608551    
      5000   700.19997     -5453193.2      197.36772      197.36772      197.36772     -5.6458346    
      6000   700.41255     -5453216.5      197.36973      197.36973      197.36973     -60.719254    
      7000   701.50054     -5453097.7      197.37651      197.37651      197.37651     -5.4580352    
      8000   697.99697     -5453341.1      197.35764      197.35764      197.35764      165.36675    
      9000   699.73988     -5453414.6      197.36848      197.36848      197.36848     -39.202535    
     10000   699.35356     -5453387.1      197.36215      197.36215      197.36215      2.0934711    
     11000   699.71083     -5453281.2      197.34998      197.34998      197.34998      218.02145    
     12000   701.11949     -5453358.8      197.34217      197.34217      197.34217     -51.840136    
     13000   699.13424     -5453355.2      197.3437       197.3437       197.3437       176.54227    
     14000   701.90633     -5453363.1      197.34701      197.34701      197.34701      8.9265829    
     15000   700.56746     -5453434.5      197.37679      197.37679      197.37679      3.1028461    
     16000   698.0253      -5453653        197.33834      197.33834      197.33834      303.76493    
     17000   701.34653     -5453458.8      197.34977      197.34977      197.34977      22.084627    
     18000   701.19735     -5453626.8      197.3474       197.3474       197.3474      -143.29672    
     19000   700.67064     -5453467.9      197.34872      197.34872      197.34872     -47.276933    
     20000   699.22627     -5453569.6      197.36949      197.36949      197.36949     -152.43375    
     21000   701.23741     -5453435.5      197.35659      197.35659      197.35659     -20.677489    
     22000   700.53661     -5453551        197.36037      197.36037      197.36037     -20.980975    
     23000   701.07162     -5453475.4      197.35487      197.35487      197.35487     -37.9632      
     24000   700.49025     -5453560        197.33805      197.33805      197.33805      115.83463    
     25000   700.94347     -5453469.4      197.35772      197.35772      197.35772     -6.8815857    
     26000   700.40751     -5453595.6      197.34255      197.34255      197.34255      116.28418    
     27000   698.50029     -5453725.5      197.34947      197.34947      197.34947     -48.855791    
     28000   700.25997     -5453687.8      197.36406      197.36406      197.36406     -49.659034    
     29000   699.09886     -5453764        197.35281      197.35281      197.35281     -137.01519    
     30000   700.32524     -5453575.1      197.36201      197.36201      197.36201     -139.51967    
     31000   701.21826     -5453530.7      197.34188      197.34188      197.34188      165.64775    
     32000   699.10587     -5453699.4      197.35906      197.35906      197.35906     -103.17811    
     33000   700.78279     -5453599.6      197.3433       197.3433       197.3433       8.8327775    
     34000   699.36283     -5453838.8      197.31785      197.31785      197.31785      243.51156    
     35000   699.92726     -5453833.9      197.33302      197.33302      197.33302     -54.863009    
     36000   699.3893      -5453650.6      197.34856      197.34856      197.34856     -9.0378991    
     37000   699.17533     -5453900.1      197.35083      197.35083      197.35083      2.7207833    
     38000   700.05491     -5453741.8      197.34671      197.34671      197.34671      23.983476    
     39000   699.11006     -5453749.8      197.34185      197.34185      197.34185      41.272274    
     40000   700.60797     -5453697.2      197.34689      197.34689      197.34689      16.225311    
     41000   699.74241     -5453764.7      197.32028      197.32028      197.32028     -8.841958     
     42000   699.52656     -5453744        197.33818      197.33818      197.33818      82.08581     
     43000   699.91739     -5453796.1      197.31368      197.31368      197.31368      255.5712     
     44000   699.27712     -5453886.8      197.3315       197.3315       197.3315      -76.257144    
     45000   699.44005     -5453708.2      197.35195      197.35195      197.35195     -257.40013    
     46000   700.67872     -5453717.5      197.34465      197.34465      197.34465     -135.6226     
     47000   700.68833     -5453726.2      197.34716      197.34716      197.34716     -82.900688    
     48000   700.2919      -5453851.2      197.32555      197.32555      197.32555      69.561657    
     49000   700.34999     -5453900.5      197.332        197.332        197.332       -58.845525    
     50000   700.28011     -5453765        197.34407      197.34407      197.34407     -23.288366    
     51000   699.72911     -5453862.9      197.3467       197.3467       197.3467      -174.85966    
     52000   700.75866     -5453851        197.3189       197.3189       197.3189       115.20018    
     53000   701.27749     -5453858.1      197.31671      197.31671      197.31671      166.72298    
     54000   698.55698     -5453887.6      197.35334      197.35334      197.35334     -279.24559    
     55000   698.42457     -5453936.2      197.31196      197.31196      197.31196      145.13598    
     56000   697.50795     -5453971.1      197.31677      197.31677      197.31677      168.35922    
     57000   699.18999     -5453929.9      197.31804      197.31804      197.31804     -21.727972    
     58000   700.77387     -5453906.6      197.31972      197.31972      197.31972      163.94626    
     59000   699.71944     -5453939.1      197.33431      197.33431      197.33431     -38.384169    
     60000   700.21019     -5453859.4      197.31662      197.31662      197.31662     -40.598859    
     61000   699.21758     -5453912.6      197.3248       197.3248       197.3248      -37.698415    
     62000   699.65214     -5453941.5      197.33068      197.33068      197.33068      43.655266    
     63000   700.17875     -5453879.5      197.3122       197.3122       197.3122       126.18197    
     64000   700.40439     -5453946.2      197.33859      197.33859      197.33859     -70.418574    
     65000   699.50658     -5454033.7      197.34363      197.34363      197.34363     -96.556901    
     66000   697.61891     -5453961.5      197.33295      197.33295      197.33295      33.178113    
     67000   699.80841     -5454025.8      197.33435      197.33435      197.33435     -125.4454     
     68000   700.28799     -5454010        197.34386      197.34386      197.34386     -159.67095    
     69000   700.7062      -5453907.9      197.33139      197.33139      197.33139      4.2400242    
     70000   699.5209      -5454078.9      197.29925      197.29925      197.29925      180.57389    
     71000   700.03146     -5453860.6      197.31535      197.31535      197.31535      184.47595    
     72000   700.40251     -5453963.7      197.33954      197.33954      197.33954     -120.15974    
     73000   698.42853     -5454194.6      197.3092       197.3092       197.3092       83.132337    
     74000   699.47008     -5454075.9      197.35513      197.35513      197.35513     -246.75921    
     75000   699.88065     -5453948        197.33486      197.33486      197.33486     -41.376284    
     76000   700.16199     -5454008.6      197.33208      197.33208      197.33208     -128.16616    
     77000   698.65205     -5454154.1      197.32062      197.32062      197.32062      43.143955    
     78000   699.78693     -5454088.7      197.32566      197.32566      197.32566     -169.29945    
     79000   700.39564     -5454123.2      197.32452      197.32452      197.32452     -114.36004    
     80000   701.94019     -5453920.4      197.32131      197.32131      197.32131      53.873286    
     81000   700.07408     -5454059.1      197.32001      197.32001      197.32001      43.836738    
     82000   699.72891     -5454097.3      197.3266       197.3266       197.3266       47.63313     
     83000   700.27498     -5453967.6      197.3299       197.3299       197.3299       66.911309    
     84000   699.1377      -5454070.3      197.32377      197.32377      197.32377     -116.50193    
     85000   700.29106     -5454094.1      197.32886      197.32886      197.32886     -36.271004    
     86000   699.62603     -5454079.2      197.32931      197.32931      197.32931     -36.647431    
     87000   698.95591     -5454206.3      197.32359      197.32359      197.32359     -81.519915    
     88000   698.47658     -5454171.2      197.30686      197.30686      197.30686      101.08435    
     89000   700.43906     -5454049        197.32531      197.32531      197.32531     -81.875171    
     90000   700.09955     -5454121        197.31621      197.31621      197.31621      41.183659    
     91000   699.91954     -5454107.6      197.31103      197.31103      197.31103      91.483383    
     92000   699.94233     -5454130.6      197.33329      197.33329      197.33329     -144.58606    
     93000   698.60857     -5454196.1      197.31286      197.31286      197.31286      106.64771    
     94000   700.22311     -5454072.4      197.3073       197.3073       197.3073       28.134549    
     95000   700.82229     -5454063.3      197.31183      197.31183      197.31183     -19.81268     
     96000   701.15714     -5453997.4      197.32489      197.32489      197.32489     -78.158877    
     97000   698.93909     -5454222.6      197.32007      197.32007      197.32007     -33.533441    
     98000   699.04084     -5454273.7      197.2957       197.2957       197.2957       54.659811    
     99000   697.97345     -5454265.6      197.34471      197.34471      197.34471     -162.05139    
    100000   699.09637     -5454281.5      197.3109       197.3109       197.3109       108.23147    
    101000   700.9546      -5454232.2      197.31559      197.31559      197.31559      32.693535    
    102000   700.30017     -5454097.5      197.32306      197.32306      197.32306     -119.21388    
    103000   701.80105     -5454064.3      197.3107       197.3107       197.3107       28.381162    
    104000   699.5061      -5454175.5      197.32881      197.32881      197.32881     -129.2931     
    105000   700.30135     -5454163.2      197.31124      197.31124      197.31124     -38.087393    
    106000   701.23847     -5454069.6      197.31095      197.31095      197.31095     -48.088595    
    107000   698.8232      -5454302.9      197.29658      197.29658      197.29658     -5.1937627    
    108000   698.94254     -5454347.4      197.30959      197.30959      197.30959     -25.358648    
    109000   700.12854     -5454219.7      197.30933      197.30933      197.30933     -35.613939    
    110000   698.79086     -5454185.4      197.31688      197.31688      197.31688     -178.95324    
    111000   698.1585      -5454199.6      197.30642      197.30642      197.30642      72.702665    
    112000   700.36555     -5454094.8      197.32712      197.32712      197.32712     -52.527513    
    113000   700.5817      -5454259.8      197.30641      197.30641      197.30641      109.11062    
    114000   700.3915      -5454149.2      197.32959      197.32959      197.32959     -196.85483    
    115000   699.4022      -5454194.3      197.33025      197.33025      197.33025     -45.244162    
    116000   699.0047      -5454407.2      197.31686      197.31686      197.31686     -107.29125    
    117000   699.1233      -5454283.5      197.30205      197.30205      197.30205      22.501844    
    118000   700.18812     -5454151.3      197.32824      197.32824      197.32824     -168.08144    
    119000   699.38843     -5454283.4      197.3162       197.3162       197.3162      -155.4564     
    120000   699.3226      -5454190.4      197.31213      197.31213      197.31213      40.326792    
    121000   699.84947     -5454194        197.33746      197.33746      197.33746     -82.426883    
    122000   699.99622     -5454282.3      197.31142      197.31142      197.31142      7.8419872    
    123000   698.70728     -5454426.7      197.29742      197.29742      197.29742      100.92411    
    124000   701.09288     -5454174.1      197.31212      197.31212      197.31212      54.057347    
    125000   699.87061     -5454360.3      197.31041      197.31041      197.31041     -26.306952    
    126000   700.27437     -5454241.6      197.29934      197.29934      197.29934      65.866089    
    127000   699.35051     -5454372.1      197.29419      197.29419      197.29419      38.636454    
    128000   699.75151     -5454238.2      197.32313      197.32313      197.32313      6.9918013    
    129000   699.39912     -5454316.3      197.32409      197.32409      197.32409     -191.88021    
    130000   701.63563     -5454156.3      197.30737      197.30737      197.30737     -59.224589    
    131000   698.8188      -5454392.4      197.31963      197.31963      197.31963     -84.971935    
    132000   700.45121     -5454375.3      197.32187      197.32187      197.32187     -169.95953    
    133000   700.50328     -5454350        197.3075       197.3075       197.3075       5.8785032    
    134000   700.10904     -5454286.1      197.31214      197.31214      197.31214      18.011273    
    135000   701.03258     -5454309.4      197.3051       197.3051       197.3051       119.538      
    136000   698.92343     -5454328.4      197.30081      197.30081      197.30081      65.718741    
    137000   699.2391      -5454293.6      197.30393      197.30393      197.30393     -33.592466    
    138000   701.54716     -5454182.2      197.30641      197.30641      197.30641      64.618091    
    139000   700.26677     -5454231.2      197.31737      197.31737      197.31737     -167.0151     
    140000   700.01874     -5454351.9      197.33129      197.33129      197.33129     -66.11445     
    141000   698.41012     -5454321.9      197.32103      197.32103      197.32103      28.621408    
    142000   700.25042     -5454339.4      197.32006      197.32006      197.32006     -32.894849    
    143000   700.24018     -5454369.8      197.31091      197.31091      197.31091      33.648664    
    144000   700.12395     -5454228.3      197.31411      197.31411      197.31411     -56.164022    
    145000   700.22152     -5454299.1      197.28707      197.28707      197.28707      176.6206     
    146000   700.03152     -5454408.5      197.30572      197.30572      197.30572     -69.053358    
    147000   698.96734     -5454352.5      197.31051      197.31051      197.31051      11.57872     
    148000   699.55707     -5454475.6      197.29327      197.29327      197.29327      189.56302    
    149000   699.40073     -5454472.8      197.31862      197.31862      197.31862     -41.979338    
    150000   699.69605     -5454429.9      197.32664      197.32664      197.32664     -100.69077    
    151000   701.03206     -5454322.7      197.3184       197.3184       197.3184       116.51116    
    152000   699.77863     -5454487.2      197.31363      197.31363      197.31363      81.798744    
    153000   699.92503     -5454330.5      197.32652      197.32652      197.32652      9.247431     
    154000   700.8773      -5454266.2      197.305        197.305        197.305        131.69489    
    155000   700.74774     -5454309.9      197.30148      197.30148      197.30148      102.15274    
    156000   700.91302     -5454314.2      197.29652      197.29652      197.29652     -28.523155    
    157000   698.91033     -5454431.6      197.30997      197.30997      197.30997     -22.269177    
    158000   699.2565      -5454364.4      197.29544      197.29544      197.29544      106.80458    
    159000   700.46492     -5454372.1      197.29636      197.29636      197.29636      62.04635     
    160000   698.89969     -5454490.2      197.30851      197.30851      197.30851     -49.996575    
    161000   700.61774     -5454240        197.30641      197.30641      197.30641     -18.042892    
    162000   699.32505     -5454428.1      197.32793      197.32793      197.32793     -262.70238    
    163000   700.81043     -5454437.8      197.30121      197.30121      197.30121      26.842926    
    164000   699.27441     -5454455.7      197.31717      197.31717      197.31717     -64.6392      
    165000   698.88128     -5454435.6      197.30341      197.30341      197.30341     -1.3735596    
    166000   701.17019     -5454388.4      197.29994      197.29994      197.29994      105.01882    
    167000   700.75318     -5454366.4      197.323        197.323        197.323        79.620973    
    168000   699.50372     -5454499.4      197.30625      197.30625      197.30625     -14.688346    
    169000   700.68892     -5454350.9      197.32102      197.32102      197.32102     -187.16511    
    170000   699.78712     -5454474.8      197.31965      197.31965      197.31965     -115.31229    
    171000   699.37793     -5454427.9      197.29997      197.29997      197.29997      102.29793    
    172000   700.9145      -5454310        197.32159      197.32159      197.32159     -102.928      
    173000   700.79747     -5454354        197.30606      197.30606      197.30606      107.93343    
    174000   701.9998      -5454416.7      197.28985      197.28985      197.28985      13.214028    
    175000   699.84648     -5454442        197.32549      197.32549      197.32549     -134.22465    
    176000   700.34024     -5454405.3      197.31061      197.31061      197.31061      18.797127    
    177000   700.02073     -5454448.6      197.28787      197.28787      197.28787      58.642597    
    178000   700.08585     -5454376.9      197.31894      197.31894      197.31894     -95.65445     
    179000   699.65148     -5454389.5      197.30265      197.30265      197.30265      29.979537    
    180000   700.29974     -5454416.3      197.29645      197.29645      197.29645      157.65952    
    181000   700.2417      -5454547.3      197.29674      197.29674      197.29674      75.970728    
    182000   699.21735     -5454493.6      197.30614      197.30614      197.30614      92.04005     
    183000   698.63917     -5454574.1      197.30001      197.30001      197.30001      45.718072    
    184000   699.41382     -5454473.4      197.30883      197.30883      197.30883      97.622376    
    185000   697.9031      -5454522.5      197.30844      197.30844      197.30844      16.479137    
    186000   700.62248     -5454499.5      197.29216      197.29216      197.29216      95.637048    
    187000   700.79915     -5454417.2      197.31759      197.31759      197.31759     -80.585681    
    188000   699.19139     -5454541.6      197.30654      197.30654      197.30654     -72.063044    
    189000   699.53795     -5454530.2      197.30235      197.30235      197.30235      57.801958    
    190000   701.26469     -5454429.9      197.31686      197.31686      197.31686     -111.79984    
    191000   699.15386     -5454500.9      197.30185      197.30185      197.30185      15.539719    
    192000   699.82879     -5454455.5      197.27522      197.27522      197.27522      188.9912     
    193000   700.08456     -5454444.8      197.32443      197.32443      197.32443     -138.70441    
    194000   700.8887      -5454418.4      197.30934      197.30934      197.30934      102.1843     
    195000   701.04351     -5454380.9      197.30691      197.30691      197.30691      32.676002    
    196000   699.21307     -5454461.6      197.29424      197.29424      197.29424      28.872557    
    197000   699.42237     -5454524.4      197.28948      197.28948      197.28948      204.39258    
    198000   699.99498     -5454439        197.30157      197.30157      197.30157      23.542502    
    199000   699.479       -5454575.1      197.29404      197.29404      197.29404     -4.1592508    
    200000   701.55926     -5454444.9      197.29911      197.29911      197.29911      82.653833    
    201000   700.24846     -5454483.1      197.29486      197.29486      197.29486      124.33245    
    202000   699.49222     -5454496.6      197.32545      197.32545      197.32545      7.843034     
    203000   699.37116     -5454532.6      197.30175      197.30175      197.30175      85.830074    
    204000   700.34265     -5454560.3      197.29829      197.29829      197.29829      55.388276    
    205000   700.48356     -5454493.3      197.3115       197.3115       197.3115      -255.79913    
    206000   701.47656     -5454359.1      197.30402      197.30402      197.30402      47.051079    
    207000   698.85688     -5454569.2      197.29732      197.29732      197.29732     -184.86194    
    208000   699.03298     -5454585.5      197.29141      197.29141      197.29141     -2.1889364    
    209000   699.46695     -5454444.2      197.30602      197.30602      197.30602      2.8641102    
    210000   700.64204     -5454365.9      197.28426      197.28426      197.28426      85.17198     
    211000   702.15656     -5454413.1      197.32168      197.32168      197.32168     -105.2002     
    212000   701.54334     -5454528.7      197.31064      197.31064      197.31064      122.32958    
    213000   700.49614     -5454512.4      197.31689      197.31689      197.31689     -21.223549    
    214000   700.117       -5454489.9      197.31013      197.31013      197.31013     -38.438774    
    215000   699.35047     -5454489.1      197.32152      197.32152      197.32152     -216.97395    
    216000   700.16925     -5454505.2      197.30328      197.30328      197.30328      52.144554    
    217000   699.98667     -5454554.3      197.29503      197.29503      197.29503      33.98155     
    218000   701.37636     -5454494.6      197.28477      197.28477      197.28477      65.792646    
    219000   699.08793     -5454632.3      197.29943      197.29943      197.29943      3.0235256    
    220000   698.79907     -5454674.7      197.2871       197.2871       197.2871       34.913875    
    221000   700.03492     -5454489.5      197.31291      197.31291      197.31291     -54.863649    
    222000   699.73832     -5454621.9      197.30095      197.30095      197.30095      230.546      
    223000   700.93464     -5454493        197.30658      197.30658      197.30658     -105.98238    
    224000   699.85199     -5454598.2      197.31513      197.31513      197.31513     -180.51037    
    225000   699.54245     -5454557.2      197.316        197.316        197.316       -120.06109    
    226000   698.92679     -5454552.7      197.29753      197.29753      197.29753      112.74831    
    227000   699.88283     -5454527.1      197.30797      197.30797      197.30797      23.734426    
    228000   698.17674     -5454803.7      197.28124      197.28124      197.28124      101.99593    
    229000   699.31867     -5454644.6      197.31531      197.31531      197.31531     -91.385846    
    230000   698.25957     -5454761.7      197.30156      197.30156      197.30156     -155.11433    
    231000   700.09759     -5454586.5      197.30489      197.30489      197.30489     -73.538557    
    232000   700.37512     -5454625.7      197.30343      197.30343      197.30343     -33.737811    
    233000   700.48475     -5454476        197.30113      197.30113      197.30113     -39.643876    
    234000   699.74452     -5454546.8      197.31161      197.31161      197.31161     -131.28787    
    235000   700.3254      -5454610        197.29573      197.29573      197.29573      92.189637    
    236000   699.58901     -5454670.7      197.30352      197.30352      197.30352      2.3452072    
    237000   699.70627     -5454586.7      197.31663      197.31663      197.31663     -83.774776    
    238000   699.61323     -5454626.8      197.28116      197.28116      197.28116      161.20176    
    239000   701.27088     -5454456.4      197.31676      197.31676      197.31676     -204.69152    
    240000   699.45149     -5454598.9      197.3005       197.3005       197.3005      -25.009863    
    241000   699.88655     -5454604.8      197.28867      197.28867      197.28867      208.91431    
    242000   699.60347     -5454529.4      197.29889      197.29889      197.29889      54.155608    
    243000   701.02766     -5454488.6      197.28996      197.28996      197.28996      38.512784    
    244000   698.79235     -5454812.3      197.29943      197.29943      197.29943     -127.31922    
    245000   698.63703     -5454731.6      197.28793      197.28793      197.28793      42.681221    
    246000   702.00135     -5454516.8      197.2952       197.2952       197.2952      -49.953796    
    247000   700.38107     -5454612.8      197.28625      197.28625      197.28625      140.04563    
    248000   699.84925     -5454607.6      197.29752      197.29752      197.29752     -33.6766      
    249000   700.01508     -5454671.9      197.30995      197.30995      197.30995     -75.976918    
    250000   699.13225     -5454570.2      197.2971       197.2971       197.2971       42.953473    
    251000   700.17461     -5454642.2      197.31098      197.31098      197.31098     -83.845518    
    252000   699.79482     -5454634        197.30982      197.30982      197.30982      21.95569     
    253000   699.62684     -5454683.6      197.29248      197.29248      197.29248      102.96078    
    254000   700.6738      -5454539.8      197.31688      197.31688      197.31688     -184.36223    
    255000   700.54349     -5454561.3      197.30195      197.30195      197.30195      43.025771    
    256000   698.88004     -5454647.4      197.27814      197.27814      197.27814      112.28647    
    257000   699.68293     -5454659.2      197.3093       197.3093       197.3093      -137.04397    
    258000   699.6701      -5454690.4      197.28977      197.28977      197.28977      94.311129    
    259000   700.71281     -5454546.3      197.32047      197.32047      197.32047     -118.59387    
    260000   700.97688     -5454512.7      197.31121      197.31121      197.31121     -102.5389     
    261000   699.72829     -5454688.2      197.29805      197.29805      197.29805      31.870281    
    262000   701.05651     -5454641        197.29724      197.29724      197.29724      26.294004    
    263000   701.07754     -5454519        197.29986      197.29986      197.29986     -38.367352    
    264000   699.71386     -5454722        197.30884      197.30884      197.30884     -193.9728     
    265000   699.73831     -5454679.8      197.28937      197.28937      197.28937      11.185389    
    266000   698.68792     -5454790.9      197.29726      197.29726      197.29726     -81.792822    
    267000   700.21061     -5454590.9      197.30243      197.30243      197.30243     -54.313855    
    268000   700.06203     -5454588.4      197.2977       197.2977       197.2977      -35.387954    
    269000   700.84411     -5454589.6      197.30278      197.30278      197.30278      46.75004     
    270000   700.43563     -5454665.8      197.30054      197.30054      197.30054     -42.208562    
    271000   699.44018     -5454647.7      197.28584      197.28584      197.28584      132.05444    
    272000   699.31766     -5454773.8      197.28021      197.28021      197.28021     -29.527761    
    273000   698.82433     -5454722.9      197.3025       197.3025       197.3025      -80.064821    
    274000   699.14262     -5454739        197.30089      197.30089      197.30089     -132.57476    
    275000   698.78086     -5454710.6      197.3118       197.3118       197.3118      -87.051637    
    276000   698.47662     -5454883.8      197.29137      197.29137      197.29137     -27.626524    
    277000   700.72778     -5454640.4      197.29698      197.29698      197.29698     -77.267007    
    278000   700.45217     -5454527.9      197.31152      197.31152      197.31152      25.843774    
    279000   699.8408      -5454749.5      197.286        197.286        197.286        211.1726     
    280000   699.71018     -5454631.6      197.28463      197.28463      197.28463      63.637043    
    281000   700.7856      -5454531.5      197.30499      197.30499      197.30499     -14.408789    
    282000   699.78984     -5454708.6      197.30558      197.30558      197.30558     -91.677074    
    283000   700.6797      -5454680.1      197.27358      197.27358      197.27358      155.00432    
    284000   698.19747     -5454818.6      197.29667      197.29667      197.29667     -154.38166    
    285000   700.42122     -5454647.9      197.27422      197.27422      197.27422      139.85477    
    286000   700.45607     -5454652.1      197.28039      197.28039      197.28039      193.66736    
    287000   701.06669     -5454620.6      197.28147      197.28147      197.28147      79.460328    
    288000   699.55401     -5454641.7      197.28775      197.28775      197.28775     -107.02291    
    289000   700.07991     -5454691.8      197.27749      197.27749      197.27749      23.819565    
    290000   700.17516     -5454758.9      197.26737      197.26737      197.26737      105.99329    
    291000   700.12577     -5454744.3      197.28976      197.28976      197.28976     -43.290527    
    292000   699.74087     -5454675.4      197.29128      197.29128      197.29128      20.366995    
    293000   701.48542     -5454523.5      197.29335      197.29335      197.29335      181.80745    
    294000   698.58504     -5454813.9      197.29693      197.29693      197.29693     -36.18176     
    295000   699.389       -5454804.7      197.28673      197.28673      197.28673     -29.689838    
    296000   701.00512     -5454567.3      197.2857       197.2857       197.2857       64.757275    
    297000   698.00443     -5454792.4      197.29178      197.29178      197.29178     -86.757971    
    298000   699.59766     -5454581.3      197.28972      197.28972      197.28972      68.464436    
    299000   699.9661      -5454679        197.3017       197.3017       197.3017       224.17842    
    300000   698.77377     -5454765        197.28763      197.28763      197.28763      110.67476    
    301000   700.56043     -5454688.2      197.29471      197.29471      197.29471      76.805446    
    302000   698.79725     -5454737.3      197.29439      197.29439      197.29439      13.195251    
    303000   699.44234     -5454732.3      197.28852      197.28852      197.28852      92.156928    
    304000   699.43145     -5454695.3      197.30038      197.30038      197.30038      138.91379    
    305000   699.93323     -5454667.1      197.30907      197.30907      197.30907     -12.437434    
    306000   699.3172      -5454796        197.28874      197.28874      197.28874     -103.82704    
    307000   700.46975     -5454789.1      197.26872      197.26872      197.26872      330.16223    
    308000   700.71704     -5454696.8      197.29222      197.29222      197.29222     -74.340031    
    309000   699.35694     -5454787.1      197.30615      197.30615      197.30615     -38.262816    
    310000   699.7429      -5454689.2      197.30377      197.30377      197.30377     -47.809853    
    311000   700.77749     -5454596.2      197.29991      197.29991      197.29991     -44.06167     
    312000   699.45298     -5454807.1      197.29486      197.29486      197.29486     -33.23245     
    313000   700.66975     -5454705.6      197.26359      197.26359      197.26359      137.0225     
    314000   699.85956     -5454643.6      197.30155      197.30155      197.30155     -126.17077    
    315000   700.57544     -5454668.3      197.27671      197.27671      197.27671      172.40713    
    316000   699.72591     -5454791.6      197.28878      197.28878      197.28878      11.051317    
    317000   697.72754     -5454954.3      197.2952       197.2952       197.2952      -20.092118    
    318000   700.58888     -5454591.7      197.31056      197.31056      197.31056     -99.340722    
    319000   700.07516     -5454753.5      197.28833      197.28833      197.28833      48.792856    
    320000   698.63239     -5454803.6      197.29652      197.29652      197.29652     -29.445894    
    321000   698.791       -5454817.9      197.28126      197.28126      197.28126      215.69405    
    322000   701.01154     -5454768.7      197.28528      197.28528      197.28528      79.754619    
    323000   699.00894     -5454735.6      197.30755      197.30755      197.30755     -242.68283    
    324000   699.47157     -5454805.9      197.28388      197.28388      197.28388      145.25786    
    325000   700.44327     -5454703.8      197.29578      197.29578      197.29578      52.26115     
    326000   699.12973     -5454785        197.28834      197.28834      197.28834      42.605907    
    327000   700.08809     -5454745.8      197.28798      197.28798      197.28798     -113.12742    
    328000   699.53605     -5454745.9      197.32061      197.32061      197.32061     -244.97652    
    329000   700.83214     -5454718        197.26973      197.26973      197.26973      185.86749    
    330000   700.66526     -5454697.5      197.28532      197.28532      197.28532     -11.592753    
    331000   701.59455     -5454565.1      197.29663      197.29663      197.29663      46.506366    
    332000   700.48767     -5454722.4      197.27076      197.27076      197.27076      221.83216    
    333000   699.13793     -5454803        197.31293      197.31293      197.31293     -164.93073    
    334000   698.64068     -5454881.2      197.28391      197.28391      197.28391      90.324858    
    335000   700.7235      -5454754.2      197.28647      197.28647      197.28647      63.126764    
    336000   700.03834     -5454768.6      197.27808      197.27808      197.27808      92.061285    
    337000   699.51266     -5454747.2      197.27083      197.27083      197.27083      276.99624    
    338000   700.79042     -5454747.4      197.28197      197.28197      197.28197      116.61789    
    339000   700.21719     -5454709.6      197.29556      197.29556      197.29556     -130.33328    
    340000   699.61383     -5454836        197.28817      197.28817      197.28817     -196.77363    
    341000   699.31821     -5454730.5      197.27568      197.27568      197.27568      64.719485    
    342000   699.26109     -5454851.8      197.28785      197.28785      197.28785      22.081028    
    343000   700.04531     -5454765.4      197.28046      197.28046      197.28046      97.614695    
    344000   699.50793     -5454731.3      197.30147      197.30147      197.30147     -66.695638    
    345000   700.72791     -5454749.6      197.29143      197.29143      197.29143      2.0411244    
    346000   700.37109     -5454739.4      197.27752      197.27752      197.27752      131.92295    
    347000   700.33696     -5454732.7      197.28279      197.28279      197.28279      87.19783     
    348000   700.88927     -5454740        197.28045      197.28045      197.28045     -88.784153    
    349000   699.84528     -5454636.4      197.2771       197.2771       197.2771       262.34498    
    350000   699.56587     -5454846.7      197.26673      197.26673      197.26673      45.365311    
    351000   700.6086      -5454787.8      197.28769      197.28769      197.28769     -9.0680237    
    352000   699.96179     -5454737.9      197.30243      197.30243      197.30243      68.64467     
    353000   700.47021     -5454898.7      197.28441      197.28441      197.28441      4.3347445    
    354000   698.71547     -5454916.7      197.28865      197.28865      197.28865      46.345551    
    355000   700.89045     -5454711.2      197.28834      197.28834      197.28834      61.526282    
    356000   699.44402     -5454726.1      197.28715      197.28715      197.28715     -111.25497    
    357000   700.21279     -5454765.6      197.29548      197.29548      197.29548     -229.23811    
    358000   700.36034     -5454796.7      197.2665       197.2665       197.2665       149.98056    
    359000   699.53002     -5454855.3      197.26774      197.26774      197.26774      125.86702    
    360000   700.83944     -5454730.3      197.28897      197.28897      197.28897      125.77089    
    361000   701.56418     -5454743.4      197.28583      197.28583      197.28583      164.31132    
    362000   700.55882     -5454737.3      197.29307      197.29307      197.29307      40.449248    
    363000   700.31463     -5454775.8      197.29093      197.29093      197.29093      29.842014    
    364000   700.61973     -5454780.1      197.29559      197.29559      197.29559     -22.431218    
    365000   699.49445     -5454857.9      197.2836       197.2836       197.2836      -39.724088    
    366000   699.87955     -5454831.4      197.28039      197.28039      197.28039     -14.116329    
    367000   700.06006     -5454872.4      197.28732      197.28732      197.28732      114.33396    
    368000   698.26756     -5454835        197.30636      197.30636      197.30636     -18.641141    
    369000   700.44985     -5454759.6      197.28516      197.28516      197.28516     -10.230275    
    370000   700.88925     -5454754.6      197.2704       197.2704       197.2704       82.80006     
    371000   698.91488     -5454878.7      197.28642      197.28642      197.28642     -57.678868    
    372000   700.25262     -5454664.2      197.31693      197.31693      197.31693     -174.53508    
    373000   701.89372     -5454700.8      197.28971      197.28971      197.28971      78.00588     
    374000   699.78992     -5454881.5      197.27352      197.27352      197.27352      152.25275    
    375000   699.65882     -5454787        197.29009      197.29009      197.29009     -36.46675     
    376000   700.84445     -5454723.2      197.29418      197.29418      197.29418      50.577962    
    377000   699.37069     -5454816        197.29297      197.29297      197.29297     -12.206531    
    378000   701.48373     -5454708        197.29974      197.29974      197.29974      21.732172    
    379000   699.00512     -5454938.6      197.292        197.292        197.292        14.650171    
    380000   699.73805     -5454844.1      197.29032      197.29032      197.29032      26.691019    
    381000   698.14466     -5454932.1      197.29966      197.29966      197.29966     -26.18536     
    382000   700.13235     -5454693.9      197.30084      197.30084      197.30084      2.9341467    
    383000   699.87029     -5454840.8      197.26211      197.26211      197.26211      125.21713    
    384000   700.25343     -5454886.6      197.28567      197.28567      197.28567     -199.27221    
    385000   701.21876     -5454680.3      197.28097      197.28097      197.28097     -60.62448     
    386000   700.86398     -5454832.7      197.26792      197.26792      197.26792      124.93401    
    387000   699.16656     -5454880.4      197.27764      197.27764      197.27764      83.474339    
    388000   699.37787     -5454801.9      197.31328      197.31328      197.31328     -311.92956    
    389000   699.84081     -5454783.4      197.2927       197.2927       197.2927      -209.17395    
    390000   700.12619     -5454797.9      197.28052      197.28052      197.28052     -77.489813    
    391000   700.43132     -5454858.2      197.26668      197.26668      197.26668      36.457931    
    392000   698.21219     -5454876.6      197.29475      197.29475      197.29475     -137.20298    
    393000   700.07807     -5454823.1      197.28224      197.28224      197.28224     -38.242131    
    394000   699.55819     -5454825.4      197.2643       197.2643       197.2643       132.42285    
    395000   700.21362     -5454834.3      197.28412      197.28412      197.28412     -24.769875    
    396000   700.52026     -5454765.2      197.29194      197.29194      197.29194     -77.601367    
    397000   699.24128     -5454894.9      197.29026      197.29026      197.29026     -74.243129    
    398000   699.53004     -5454798.7      197.29912      197.29912      197.29912     -127.46376    
    399000   701.46885     -5454757.2      197.28577      197.28577      197.28577     -36.664327    
    400000   700.56034     -5454885.7      197.26511      197.26511      197.26511      183.32282    
    401000   699.8677      -5454816.1      197.25808      197.25808      197.25808      23.100457    
    402000   700.69026     -5454755.5      197.24637      197.24637      197.24637      162.28657    
    403000   700.04735     -5454759.6      197.27816      197.27816      197.27816     -19.921795    
    404000   700.32142     -5454873.5      197.26986      197.26986      197.26986      79.03528     
    405000   699.30941     -5454892.4      197.26901      197.26901      197.26901      199.11723    
    406000   700.8419      -5454890.7      197.27529      197.27529      197.27529      5.9761915    
    407000   700.55533     -5454804        197.28046      197.28046      197.28046      2.9656097    
    408000   699.33779     -5454995        197.28445      197.28445      197.28445     -67.327671    
    409000   699.82372     -5454937.1      197.29645      197.29645      197.29645     -95.796043    
    410000   700.50244     -5454807.1      197.27495      197.27495      197.27495      172.19652    
    411000   699.92254     -5454892        197.2775       197.2775       197.2775       59.202304    
    412000   698.00399     -5455034.9      197.28023      197.28023      197.28023      3.5080405    
    413000   699.10049     -5454939.1      197.27808      197.27808      197.27808      90.862873    
    414000   699.39701     -5454931.9      197.26651      197.26651      197.26651     -28.343952    
    415000   699.55777     -5454920        197.27996      197.27996      197.27996     -27.52027     
    416000   700.35979     -5454859.4      197.279        197.279        197.279       -90.143909    
    417000   701.28572     -5454819.9      197.26354      197.26354      197.26354      303.75395    
    418000   700.58119     -5454823.7      197.28465      197.28465      197.28465     -35.990524    
    419000   700.93081     -5454699.6      197.29191      197.29191      197.29191      64.300099    
    420000   699.56538     -5454854.3      197.3037       197.3037       197.3037      -275.12891    
    421000   700.31559     -5454799.2      197.28664      197.28664      197.28664      52.150763    
    422000   700.34651     -5454829        197.27853      197.27853      197.27853      73.078453    
    423000   699.8081      -5454882        197.28244      197.28244      197.28244     -142.65177    
    424000   699.12182     -5454927.6      197.26576      197.26576      197.26576      65.856583    
    425000   699.82053     -5454863.9      197.26867      197.26867      197.26867      173.39136    
    426000   700.02955     -5454929.6      197.28853      197.28853      197.28853     -109.58856    
    427000   700.80695     -5454960.6      197.2584       197.2584       197.2584       11.703389    
    428000   699.54838     -5454813.2      197.29466      197.29466      197.29466     -125.52966    
    429000   700.54038     -5454823.3      197.28793      197.28793      197.28793     -168.11627    
    430000   697.74505     -5455053.4      197.27876      197.27876      197.27876     -62.261244    
    431000   700.2875      -5454930.8      197.2705       197.2705       197.2705       17.351053    
    432000   701.95669     -5454789.8      197.26201      197.26201      197.26201     -13.74332     
    433000   699.45811     -5454928.7      197.26059      197.26059      197.26059      138.53468    
    434000   700.818       -5454814        197.2838       197.2838       197.2838      -163.64141    
    435000   700.87348     -5454701.4      197.28112      197.28112      197.28112     -8.533606     
    436000   699.67715     -5454890        197.27677      197.27677      197.27677      84.397542    
    437000   699.76716     -5454908        197.28404      197.28404      197.28404     -43.863967    
    438000   700.21527     -5454888.4      197.26154      197.26154      197.26154      140.76128    
    439000   699.24652     -5454926        197.26755      197.26755      197.26755      66.47186     
    440000   701.15631     -5454712.2      197.27987      197.27987      197.27987      115.89396    
    441000   699.9638      -5454908.3      197.27049      197.27049      197.27049      26.83711     
    442000   700.16275     -5454876.7      197.26312      197.26312      197.26312      201.96071    
    443000   700.6037      -5454892        197.27503      197.27503      197.27503     -105.0598     
    444000   700.60998     -5454788.8      197.27976      197.27976      197.27976     -40.93617     
    445000   700.90315     -5454812.5      197.26196      197.26196      197.26196      203.98669    
    446000   700.18706     -5454878.7      197.30121      197.30121      197.30121     -184.47285    
    447000   699.75455     -5455038.1      197.27952      197.27952      197.27952      34.2953      
    448000   700.38772     -5454902        197.27342      197.27342      197.27342     -73.041764    
    449000   699.00364     -5455006.4      197.26316      197.26316      197.26316      157.13604    
    450000   700.03562     -5454903.7      197.29399      197.29399      197.29399     -210.02948    
    451000   699.59504     -5455044.1      197.28679      197.28679      197.28679     -7.8045228    
    452000   699.8672      -5454982.9      197.2728       197.2728       197.2728       86.359085    
    453000   700.90658     -5454996.5      197.2666       197.2666       197.2666       60.997691    
    454000   700.65608     -5454906.9      197.29215      197.29215      197.29215     -119.71205    
    455000   699.40542     -5454949.9      197.26641      197.26641      197.26641     -74.017174    
    456000   697.94576     -5455137        197.27289      197.27289      197.27289     -78.811637    
    457000   701.54792     -5454801.7      197.27142      197.27142      197.27142      81.400107    
    458000   699.89398     -5454941.7      197.28847      197.28847      197.28847     -168.23939    
    459000   699.73838     -5454934.5      197.26693      197.26693      197.26693      93.964288    
    460000   701.29492     -5454887.4      197.25906      197.25906      197.25906      170.27993    
    461000   699.41528     -5454915.7      197.27097      197.27097      197.27097     -81.984373    
    462000   699.68952     -5454984.4      197.26168      197.26168      197.26168      25.02741     
    463000   700.09366     -5454947.6      197.26892      197.26892      197.26892      116.42177    
    464000   699.78        -5454956.1      197.26721      197.26721      197.26721      159.71502    
    465000   699.91914     -5455006.4      197.27786      197.27786      197.27786      8.922438     
    466000   701.90245     -5454798.5      197.28328      197.28328      197.28328     -55.008864    
    467000   700.91367     -5454867.8      197.29747      197.29747      197.29747     -271.296      
    468000   700.45737     -5454881.2      197.2904       197.2904       197.2904      -1.8770667    
    469000   699.42175     -5454946        197.293        197.293        197.293       -166.02103    
    470000   699.74811     -5454777.5      197.28054      197.28054      197.28054      38.545133    
    471000   700.00244     -5454980.6      197.26487      197.26487      197.26487     -2.9356635    
    472000   702.08739     -5454823.8      197.26989      197.26989      197.26989      60.065806    
    473000   699.35949     -5454970.1      197.2728       197.2728       197.2728       119.72415    
    474000   700.65554     -5454922.8      197.27349      197.27349      197.27349     -37.138423    
    475000   699.80162     -5454906.3      197.26695      197.26695      197.26695      69.644379    
    476000   700.09017     -5454882.8      197.27979      197.27979      197.27979      18.95705     
    477000   701.05536     -5454847.4      197.30383      197.30383      197.30383     -180.52043    
    478000   699.95017     -5454900.1      197.2879       197.2879       197.2879       22.397775    
    479000   700.10746     -5454895.8      197.29864      197.29864      197.29864     -257.04487    
    480000   699.62265     -5454967.1      197.2654       197.2654       197.2654       177.54671    
    481000   699.27607     -5454941.1      197.28385      197.28385      197.28385      18.358477    
    482000   701.27669     -5454928.8      197.28025      197.28025      197.28025     -71.841054    
    483000   699.40392     -5454977.9      197.27836      197.27836      197.27836     -146.63659    
    484000   699.88747     -5454968.5      197.25659      197.25659      197.25659      211.7212     
    485000   700.82329     -5454895.1      197.28345      197.28345      197.28345     -23.058161    
    486000   699.67675     -5454885.5      197.26949      197.26949      197.26949      63.35764     
    487000   700.80722     -5454810        197.24282      197.24282      197.24282      271.56004    
    488000   699.50791     -5454969.9      197.26749      197.26749      197.26749     -29.025331    
    489000   699.1789      -5454948.2      197.26814      197.26814      197.26814     -36.441864    
    490000   698.75743     -5455053        197.27462      197.27462      197.27462      29.605301    
    491000   701.57743     -5454852.5      197.28981      197.28981      197.28981     -117.02844    
    492000   700.68382     -5454978.2      197.28874      197.28874      197.28874      17.433904    
    493000   699.35833     -5454986.4      197.2901       197.2901       197.2901      -89.809183    
    494000   701.15062     -5454849.1      197.28181      197.28181      197.28181     -80.754863    
    495000   699.68848     -5454953.1      197.28117      197.28117      197.28117     -48.312013    
    496000   700.47952     -5454911        197.28328      197.28328      197.28328     -22.23689     
    497000   700.06247     -5454986.7      197.29425      197.29425      197.29425     -60.7027      
    498000   700.19743     -5455016.3      197.26868      197.26868      197.26868     -52.082325    
    499000   700.42733     -5454950        197.27209      197.27209      197.27209      57.584423    
    500000   701.41707     -5454839.7      197.27327      197.27327      197.27327     -102.81072    
    501000   700.66854     -5454909.6      197.26852      197.26852      197.26852      80.46204     
    502000   700.43138     -5455015.3      197.26913      197.26913      197.26913      85.990622    
    503000   701.72485     -5454775        197.28693      197.28693      197.28693      35.3204      
    504000   699.64278     -5454966        197.28733      197.28733      197.28733     -116.15081    
    505000   699.78334     -5454965.5      197.27811      197.27811      197.27811      1.8616049    
    506000   700.29922     -5454889.4      197.26171      197.26171      197.26171      262.86752    
    507000   701.43436     -5454856.4      197.28435      197.28435      197.28435     -54.869395    
    508000   700.32389     -5454822.6      197.27717      197.27717      197.27717      96.91435     
    509000   698.454       -5455077.1      197.26531      197.26531      197.26531      101.14235    
    510000   699.91722     -5454980.2      197.28733      197.28733      197.28733     -72.116246    
    511000   700.39335     -5454937.6      197.28803      197.28803      197.28803      117.18441    
    512000   700.31881     -5454946.1      197.2883       197.2883       197.2883      -95.79646     
    513000   700.27376     -5454934.3      197.29431      197.29431      197.29431      65.132149    
    514000   701.4168      -5454860.9      197.28315      197.28315      197.28315     -8.3206935    
    515000   699.48903     -5454990        197.29696      197.29696      197.29696     -110.9393     
    516000   700.076       -5455050.7      197.28279      197.28279      197.28279     -187.11065    
    517000   700.08807     -5454910.6      197.27165      197.27165      197.27165      55.507693    
    518000   699.9607      -5455111.2      197.26822      197.26822      197.26822     -75.752687    
    519000   699.03428     -5455090        197.26257      197.26257      197.26257     -91.778511    
    520000   699.66378     -5454932.2      197.27551      197.27551      197.27551      57.665728    
    521000   699.40407     -5455035.1      197.27517      197.27517      197.27517     -133.56098    
    522000   701.07928     -5454773.2      197.28137      197.28137      197.28137      34.727568    
    523000   701.14185     -5454911.4      197.28055      197.28055      197.28055     -0.54648922   
    524000   701.421       -5454929.9      197.26147      197.26147      197.26147      254.09028    
    525000   699.16263     -5455075.7      197.28094      197.28094      197.28094      6.824889     
    526000   700.35302     -5454967.4      197.28656      197.28656      197.28656     -155.96256    
    527000   700.94611     -5454936.9      197.26283      197.26283      197.26283      25.974047    
    528000   699.73545     -5454921.8      197.26551      197.26551      197.26551      144.01803    
    529000   700.84367     -5454909.3      197.27145      197.27145      197.27145      14.295717    
    530000   699.58222     -5454951.1      197.27845      197.27845      197.27845      16.448523    
    531000   700.22425     -5454988        197.27582      197.27582      197.27582     -42.157352    
    532000   700.46851     -5455005.3      197.27453      197.27453      197.27453     -134.57598    
    533000   699.70421     -5455038.6      197.26711      197.26711      197.26711      37.133758    
    534000   701.68515     -5454759.3      197.27144      197.27144      197.27144      4.0597814    
    535000   699.16376     -5455035        197.26599      197.26599      197.26599     -73.134905    
    536000   698.6914      -5455121.2      197.2632       197.2632       197.2632      -43.950724    
    537000   701.65513     -5454922.6      197.25873      197.25873      197.25873      218.87682    
    538000   698.78279     -5455090.3      197.27032      197.27032      197.27032      9.1086271    
    539000   701.2403      -5454988.7      197.28988      197.28988      197.28988     -76.788971    
    540000   700.22607     -5455036.2      197.30358      197.30358      197.30358     -126.73438    
    541000   700.81715     -5454863.9      197.28679      197.28679      197.28679     -109.41111    
    542000   699.55489     -5455043.3      197.26465      197.26465      197.26465      26.577455    
    543000   700.46039     -5454960.7      197.2595       197.2595       197.2595      -141.08851    
    544000   699.94181     -5455059.2      197.26994      197.26994      197.26994      3.3020547    
    545000   700.22031     -5454949.2      197.27211      197.27211      197.27211     -178.58678    
    546000   700.63147     -5454874.8      197.27118      197.27118      197.27118     -212.78219    
    547000   699.79094     -5455044.6      197.25741      197.25741      197.25741      56.8816      
    548000   700.53702     -5454951.3      197.24816      197.24816      197.24816      316.58882    
    549000   700.01426     -5454978.9      197.25642      197.25642      197.25642      105.96693    
    550000   699.62972     -5455053.8      197.25947      197.25947      197.25947      57.982681    
    551000   701.02342     -5454937.9      197.25442      197.25442      197.25442      210.48916    
    552000   700.12983     -5454906.1      197.27208      197.27208      197.27208     -161.99378    
    553000   699.68716     -5455019.4      197.27162      197.27162      197.27162     -39.670811    
    554000   699.14775     -5455091        197.28065      197.28065      197.28065      17.796962    
    555000   701.37356     -5454887        197.28238      197.28238      197.28238      2.5334952    
    556000   700.33225     -5454962.1      197.2703       197.2703       197.2703       65.795832    
    557000   700.95122     -5454970.3      197.27589      197.27589      197.27589     -137.03342    
    558000   700.89124     -5454955.6      197.26814      197.26814      197.26814      120.66388    
    559000   699.38702     -5454962.9      197.27688      197.27688      197.27688      54.176599    
    560000   699.62045     -5455040.2      197.25622      197.25622      197.25622      177.41989    
    561000   700.85563     -5454946.4      197.27084      197.27084      197.27084      102.64331    
    562000   700.34827     -5455013.5      197.27471      197.27471      197.27471     -62.146673    
    563000   698.64364     -5455134.1      197.2766       197.2766       197.2766      -44.366879    
    564000   701.10323     -5454805.4      197.27767      197.27767      197.27767      32.729047    
    565000   700.75884     -5454933.5      197.28528      197.28528      197.28528     -175.94665    
    566000   700.14572     -5455027        197.25841      197.25841      197.25841      167.83388    
    567000   700.69519     -5454948.1      197.27646      197.27646      197.27646      173.92232    
    568000   699.10936     -5455000.7      197.27731      197.27731      197.27731      79.970118    
    569000   700.19168     -5454909.9      197.29436      197.29436      197.29436     -69.586402    
    570000   699.51762     -5454962.3      197.30007      197.30007      197.30007     -244.28264    
    571000   698.77415     -5455112.7      197.29033      197.29033      197.29033     -110.58834    
    572000   699.88488     -5455036.2      197.26607      197.26607      197.26607      117.45313    
    573000   700.0876      -5455011.3      197.25319      197.25319      197.25319      101.02789    
    574000   702.35031     -5454871.8      197.26667      197.26667      197.26667      52.664571    
    575000   700.90305     -5454933.7      197.2928       197.2928       197.2928      -131.18665    
    576000   700.08422     -5454848.4      197.27171      197.27171      197.27171     -90.452494    
    577000   699.54275     -5455037.4      197.28666      197.28666      197.28666     -148.63507    
    578000   699.18831     -5455138.3      197.27415      197.27415      197.27415     -111.43474    
    579000   701.17094     -5454975.3      197.28947      197.28947      197.28947     -114.86502    
    580000   699.38752     -5455081.7      197.28253      197.28253      197.28253     -51.671209    
    581000   700.45236     -5455022.9      197.2802       197.2802       197.2802      -65.691316    
    582000   700.33254     -5455030        197.27497      197.27497      197.27497     -40.944848    
    583000   699.98978     -5454965.8      197.27801      197.27801      197.27801      94.503502    
    584000   701.8451      -5454924.7      197.28403      197.28403      197.28403     -114.12506    
    585000   701.25656     -5454890.6      197.27883      197.27883      197.27883      117.89724    
    586000   698.97648     -5455152.8      197.28258      197.28258      197.28258     -123.65556    
    587000   699.90875     -5454969.1      197.27962      197.27962      197.27962     -29.899104    
    588000   699.27258     -5455069.3      197.29278      197.29278      197.29278     -133.23407    
    589000   700.32345     -5455106.1      197.27259      197.27259      197.27259     -35.925137    
    590000   699.22472     -5455099.7      197.28098      197.28098      197.28098      49.140336    
    591000   699.43369     -5455201.5      197.25909      197.25909      197.25909      33.204463    
    592000   700.76277     -5454889.7      197.28265      197.28265      197.28265     -50.778482    
    593000   699.92803     -5455037.1      197.25695      197.25695      197.25695      81.537835    
    594000   700.91742     -5454939.4      197.27613      197.27613      197.27613      54.722587    
    595000   698.62857     -5455055.1      197.29057      197.29057      197.29057     -180.28605    
    596000   699.29213     -5455017.5      197.28544      197.28544      197.28544      128.85       
    597000   699.82097     -5455038.9      197.30484      197.30484      197.30484     -123.85048    
    598000   699.22223     -5455011.1      197.29806      197.29806      197.29806     -101.41326    
    599000   698.91468     -5455071.5      197.30648      197.30648      197.30648     -202.33166    
    600000   699.53981     -5455194.1      197.25279      197.25279      197.25279      80.5471      
    601000   699.84962     -5455002.5      197.276        197.276        197.276        152.11244    
    602000   698.71524     -5455062.1      197.2829       197.2829       197.2829      -122.29503    
    603000   700.21451     -5455019.2      197.26962      197.26962      197.26962      144.92289    
    604000   699.78808     -5455078.1      197.27247      197.27247      197.27247      93.979901    
    605000   700.08339     -5455028.7      197.27925      197.27925      197.27925     -92.004214    
    606000   701.57298     -5454944.7      197.26911      197.26911      197.26911     -19.982595    
    607000   700.9927      -5454883.3      197.28089      197.28089      197.28089     -147.9281     
    608000   701.34402     -5454998        197.28345      197.28345      197.28345     -204.46372    
    609000   700.37802     -5455041.7      197.2941       197.2941       197.2941      -220.00146    
    610000   699.65787     -5455027.4      197.29579      197.29579      197.29579     -75.136175    
    611000   701.80857     -5454937.5      197.28073      197.28073      197.28073     -110.38759    
    612000   699.47248     -5455009.2      197.27889      197.27889      197.27889      36.63196     
    613000   700.0244      -5455009.2      197.29106      197.29106      197.29106     -134.34272    
    614000   699.69688     -5455143.5      197.25321      197.25321      197.25321      158.66576    
    615000   701.08212     -5455024.2      197.26404      197.26404      197.26404      154.39051    
    616000   698.93542     -5455206.2      197.2615       197.2615       197.2615       18.479363    
    617000   698.67662     -5455122.4      197.28548      197.28548      197.28548     -146.88392    
    618000   699.81776     -5455142.1      197.28101      197.28101      197.28101      129.74625    
    619000   700.00242     -5455039.7      197.28863      197.28863      197.28863     -117.65961    
    620000   700.87053     -5454991.6      197.2811       197.2811       197.2811       76.492333    
    621000   699.92742     -5455094.6      197.26133      197.26133      197.26133      134.38618    
    622000   698.9711      -5455117.6      197.27484      197.27484      197.27484      9.8929051    
    623000   699.68334     -5455116.2      197.26809      197.26809      197.26809     -76.925531    
    624000   699.63245     -5455192.3      197.2862       197.2862       197.2862      -132.84662    
    625000   700.15432     -5455154.1      197.28572      197.28572      197.28572     -88.688246    
    626000   699.9173      -5455015.7      197.29333      197.29333      197.29333     -29.08856     
    627000   698.78019     -5455070.3      197.27547      197.27547      197.27547      58.78035     
    628000   699.66833     -5455152        197.27287      197.27287      197.27287      94.84254     
    629000   700.7154      -5455041.7      197.25943      197.25943      197.25943      192.93242    
    630000   700.17177     -5455078.4      197.2599       197.2599       197.2599       5.7288212    
    631000   699.56776     -5455068.9      197.2674       197.2674       197.2674       191.2006     
    632000   699.11049     -5455193.4      197.26198      197.26198      197.26198     -105.44269    
    633000   701.7267      -5454852.6      197.261        197.261        197.261        199.37915    
    634000   700.67465     -5454943.8      197.2684       197.2684       197.2684      -1.9234089    
    635000   698.98613     -5455110.6      197.28059      197.28059      197.28059     -100.90007    
    636000   701.40516     -5454981.8      197.28392      197.28392      197.28392     -55.589323    
    637000   700.0688      -5455128.4      197.25876      197.25876      197.25876      69.430664    
    638000   699.89427     -5455083.3      197.28098      197.28098      197.28098     -14.529374    
    639000   699.9005      -5455123.9      197.29047      197.29047      197.29047     -43.053648    
    640000   699.93936     -5455082        197.29593      197.29593      197.29593     -214.66334    
    641000   699.33736     -5455111.7      197.25805      197.25805      197.25805      37.989093    
    642000   700.28383     -5455201.2      197.26556      197.26556      197.26556     -81.699211    
    643000   700.53213     -5455159.1      197.25471      197.25471      197.25471     -30.564937    
    644000   699.05351     -5455195.5      197.26346      197.26346      197.26346      64.911235    
    645000   701.55338     -5455000.2      197.25194      197.25194      197.25194     -3.2852957    
    646000   699.90957     -5455111.3      197.2733       197.2733       197.2733      -230.23962    
    647000   698.84435     -5455176.3      197.25186      197.25186      197.25186      135.51289    
    648000   700.69336     -5454949.7      197.2682       197.2682       197.2682      -0.46759653   
    649000   700.98107     -5455013.1      197.27778      197.27778      197.27778      8.9170763    
    650000   700.79159     -5455007.9      197.28203      197.28203      197.28203     -48.034905    
    651000   701.28723     -5455010.5      197.2829       197.2829       197.2829      -145.45221    
    652000   700.26357     -5454943.1      197.28441      197.28441      197.28441      29.544124    
    653000   699.76462     -5455115.9      197.27014      197.27014      197.27014      79.04903     
    654000   699.59192     -5455155.7      197.28864      197.28864      197.28864     -181.04002    
    655000   700.33945     -5455066.6      197.25646      197.25646      197.25646     -106.20755    
    656000   699.10703     -5455110.3      197.25779      197.25779      197.25779      42.849678    
    657000   700.73581     -5455074.2      197.2323       197.2323       197.2323       104.86326    
    658000   699.44986     -5455156.3      197.25306      197.25306      197.25306      35.221796    
    659000   698.85664     -5455117.4      197.2596       197.2596       197.2596       50.885923    
    660000   700.08319     -5455074.2      197.26856      197.26856      197.26856      7.9723593    
    661000   700.69839     -5455055.5      197.2595       197.2595       197.2595      -10.735726    
    662000   700.01717     -5455127.4      197.2568       197.2568       197.2568       98.263648    
    663000   699.88967     -5455038.2      197.27986      197.27986      197.27986     -43.910926    
    664000   698.5518      -5455163.4      197.24518      197.24518      197.24518      28.613963    
    665000   698.10832     -5455188.2      197.27319      197.27319      197.27319     -49.832498    
    666000   699.69593     -5455117.6      197.27165      197.27165      197.27165     -167.28344    
    667000   701.16992     -5455020.1      197.25864      197.25864      197.25864      44.116079    
    668000   700.19983     -5455115.1      197.25081      197.25081      197.25081      47.356505    
    669000   700.27989     -5455143.5      197.26013      197.26013      197.26013      16.169465    
    670000   699.52803     -5455035.6      197.26521      197.26521      197.26521     -32.987021    
    671000   701.19138     -5455011.9      197.24746      197.24746      197.24746      228.49499    
    672000   701.39843     -5454958.8      197.2591       197.2591       197.2591      -32.853209    
    673000   700.12428     -5455199.4      197.26042      197.26042      197.26042      89.703067    
    674000   699.7144      -5455072.2      197.26231      197.26231      197.26231      75.609214    
    675000   699.17126     -5455175.7      197.26485      197.26485      197.26485      115.45405    
    676000   699.35991     -5455172.4      197.26579      197.26579      197.26579     -24.399901    
    677000   700.38098     -5455098.2      197.25064      197.25064      197.25064      190.95054    
    678000   700.21035     -5455046.7      197.26161      197.26161      197.26161      119.91456    
    679000   701.13652     -5455119.8      197.24858      197.24858      197.24858      61.580551    
    680000   699.2429      -5455178.9      197.25869      197.25869      197.25869     -29.986944    
    681000   699.56267     -5455145.7      197.26183      197.26183      197.26183     -63.970092    
    682000   699.35142     -5455159.1      197.27174      197.27174      197.27174     -51.918777    
    683000   700.23549     -5455112.1      197.27243      197.27243      197.27243     -72.06777     
    684000   698.64336     -5455272        197.26616      197.26616      197.26616     -9.2350802    
    685000   699.60215     -5455028.7      197.27956      197.27956      197.27956     -152.09945    
    686000   701.98748     -5454988.7      197.2667       197.2667       197.2667       47.106842    
    687000   700.48966     -5455128.9      197.26347      197.26347      197.26347     -121.05799    
    688000   700.9435      -5455001.8      197.25123      197.25123      197.25123      155.1889     
    689000   699.13541     -5455231.2      197.25872      197.25872      197.25872     -24.450561    
    690000   700.44501     -5455122.1      197.2674       197.2674       197.2674      -27.290706    
    691000   699.35591     -5455218.2      197.24862      197.24862      197.24862      30.03783     
    692000   698.89489     -5455300.5      197.25774      197.25774      197.25774     -70.183147    
    693000   701.22583     -5455106.7      197.28007      197.28007      197.28007     -101.15386    
    694000   699.9004      -5455042.3      197.26709      197.26709      197.26709      69.712656    
    695000   699.22072     -5455140.6      197.26117      197.26117      197.26117     -69.531441    
    696000   700.25493     -5455044.6      197.26275      197.26275      197.26275      1.1891044    
    697000   699.85041     -5455165.8      197.28827      197.28827      197.28827     -144.35026    
    698000   700.76302     -5455133.3      197.26949      197.26949      197.26949      49.799381    
    699000   699.46414     -5455206.5      197.26176      197.26176      197.26176      12.160102    
    700000   700.67095     -5454917.9      197.28438      197.28438      197.28438     -177.57173    
    701000   701.04024     -5454899.5      197.26751      197.26751      197.26751      187.0073     
    702000   699.1568      -5455221.3      197.2644       197.2644       197.2644      -117.70633    
    703000   700.66985     -5455180.4      197.26772      197.26772      197.26772     -27.954953    
    704000   699.75238     -5455215.6      197.26705      197.26705      197.26705     -24.232373    
    705000   699.15881     -5455219        197.27802      197.27802      197.27802     -206.93628    
    706000   701.00586     -5455079.7      197.26333      197.26333      197.26333      50.495779    
    707000   700.20201     -5455168.1      197.274        197.274        197.274       -3.3133034    
    708000   700.17119     -5455201.1      197.27249      197.27249      197.27249     -34.237363    
    709000   700.00187     -5455108.3      197.26668      197.26668      197.26668      13.989088    
    710000   701.00887     -5455018.7      197.25976      197.25976      197.25976      124.56495    
    711000   699.91021     -5455124.5      197.26977      197.26977      197.26977     -30.036768    
    712000   699.735       -5455177.7      197.27632      197.27632      197.27632     -16.818041    
    713000   701.25167     -5454991.2      197.27511      197.27511      197.27511     -99.743578    
    714000   700.24035     -5455200.3      197.26262      197.26262      197.26262      133.3632     
    715000   700.12557     -5455098.3      197.27128      197.27128      197.27128     -90.923368    
    716000   699.19395     -5455228.8      197.25651      197.25651      197.25651      131.10268    
    717000   701.27681     -5455145.3      197.25355      197.25355      197.25355     -23.005083    
    718000   699.53622     -5455218.8      197.26075      197.26075      197.26075      35.038655    
    719000   699.69422     -5455095.4      197.25995      197.25995      197.25995      2.1755081    
    720000   699.692       -5455158.2      197.26725      197.26725      197.26725     -133.93765    
    721000   699.06776     -5455229.1      197.24125      197.24125      197.24125      227.47843    
    722000   699.68799     -5455184        197.26678      197.26678      197.26678      1.2126516    
    723000   700.00258     -5455222.3      197.27133      197.27133      197.27133      26.037609    
    724000   700.94835     -5455108.1      197.28177      197.28177      197.28177     -136.83567    
    725000   699.7514      -5455221.9      197.25274      197.25274      197.25274      85.718101    
    726000   698.65311     -5455294        197.26364      197.26364      197.26364      60.02982     
    727000   700.48965     -5455125.7      197.28298      197.28298      197.28298     -104.42225    
    728000   700.41598     -5455065.9      197.25823      197.25823      197.25823     -22.517256    
    729000   699.93217     -5455276.3      197.25314      197.25314      197.25314     -95.82134     
    730000   699.99046     -5455136.5      197.27876      197.27876      197.27876     -19.530528    
    731000   699.55278     -5455158.4      197.27053      197.27053      197.27053      45.533308    
    732000   699.57225     -5455212.6      197.26685      197.26685      197.26685     -27.299268    
    733000   699.7083      -5455140.2      197.26776      197.26776      197.26776     -104.7725     
    734000   701.01127     -5455023.7      197.26454      197.26454      197.26454     -122.32528    
    735000   700.49785     -5455027.2      197.25173      197.25173      197.25173     -10.130599    
    736000   700.3235      -5455133.6      197.2613       197.2613       197.2613      -56.470955    
    737000   700.28221     -5455090.6      197.26813      197.26813      197.26813      46.968133    
    738000   699.60519     -5455168.3      197.28717      197.28717      197.28717     -273.82839    
    739000   699.87901     -5455219.5      197.27407      197.27407      197.27407     -1.9992936    
    740000   700.60538     -5455140.4      197.27243      197.27243      197.27243      106.00483    
    741000   699.31242     -5455330.4      197.25725      197.25725      197.25725      86.378012    
    742000   702.28327     -5454995.7      197.26802      197.26802      197.26802     -18.986488    
    743000   700.0693      -5455263        197.26711      197.26711      197.26711      7.9644885    
    744000   699.41491     -5455225        197.27692      197.27692      197.27692      45.738697    
    745000   700.62756     -5455183.2      197.26207      197.26207      197.26207      117.92778    
    746000   700.23391     -5455194.9      197.24881      197.24881      197.24881      167.62529    
    747000   700.37659     -5454994.2      197.2688       197.2688       197.2688       2.1862329    
    748000   700.03331     -5455218.9      197.25769      197.25769      197.25769      159.28961    
    749000   700.65974     -5455122.1      197.28604      197.28604      197.28604     -211.81809    
    750000   698.788       -5455155.6      197.27549      197.27549      197.27549      61.126863    
    751000   700.6624      -5455173.1      197.26769      197.26769      197.26769     -91.380363    
    752000   701.25111     -5455082        197.27496      197.27496      197.27496      64.628297    
    753000   700.88253     -5455079.5      197.27739      197.27739      197.27739     -43.231396    
    754000   699.03557     -5455177.4      197.31894      197.31894      197.31894     -249.17831    
    755000   699.34969     -5455244        197.27257      197.27257      197.27257     -12.733816    
    756000   701.45175     -5455161.1      197.25753      197.25753      197.25753      73.218559    
    757000   699.35277     -5455204.4      197.24748      197.24748      197.24748      224.01355    
    758000   700.62269     -5455139.4      197.25658      197.25658      197.25658      141.95376    
    759000   699.78552     -5455223.1      197.26922      197.26922      197.26922     -17.475786    
    760000   701.21494     -5455018.1      197.26646      197.26646      197.26646     -119.25653    
    761000   699.10627     -5455215.8      197.24791      197.24791      197.24791      154.09446    
    762000   700.60237     -5455155.4      197.25446      197.25446      197.25446      18.195967    
    763000   699.96934     -5455166.2      197.26321      197.26321      197.26321      5.0430885    
    764000   700.68003     -5455135.8      197.26772      197.26772      197.26772      19.742336    
    765000   699.30897     -5455321.4      197.2739       197.2739       197.2739      -28.096695    
    766000   699.43645     -5455250.1      197.26314      197.26314      197.26314     -96.999543    
    767000   700.77989     -5455142.7      197.25912      197.25912      197.25912      60.251023    
    768000   700.59713     -5455262        197.24939      197.24939      197.24939      156.48028    
    769000   700.86384     -5455092.2      197.28415      197.28415      197.28415     -225.80879    
    770000   700.53928     -5455150.2      197.26364      197.26364      197.26364      79.466288    
    771000   701.01213     -5455090.9      197.25837      197.25837      197.25837      6.8767842    
    772000   700.18714     -5455155        197.24589      197.24589      197.24589      37.70328     
    773000   701.24679     -5455072.9      197.26095      197.26095      197.26095     -157.5474     
    774000   699.44101     -5455163.7      197.25277      197.25277      197.25277      206.84494    
    775000   701.00978     -5455081.3      197.27587      197.27587      197.27587     -99.017587    
    776000   701.07541     -5455079.7      197.26735      197.26735      197.26735     -1.9750723    
    777000   701.50628     -5455126.8      197.2708       197.2708       197.2708       18.872443    
    778000   699.30476     -5455169.3      197.26556      197.26556      197.26556      33.886617    
    779000   700.4585      -5455105.6      197.28805      197.28805      197.28805     -237.41731    
    780000   700.45826     -5455151.9      197.26723      197.26723      197.26723      69.309764    
    781000   700.57233     -5455123.2      197.24238      197.24238      197.24238      34.281367    
    782000   699.75215     -5455181.5      197.25684      197.25684      197.25684     -92.349836    
    783000   699.88673     -5455124.1      197.25359      197.25359      197.25359      99.320791    
    784000   701.3872      -5455042.2      197.26388      197.26388      197.26388      48.207935    
    785000   700.53765     -5455197.3      197.26634      197.26634      197.26634     -226.78026    
    786000   699.56851     -5455294.4      197.26458      197.26458      197.26458     -125.25171    
    787000   700.53206     -5455131.3      197.26424      197.26424      197.26424     -177.46787    
    788000   700.77674     -5455120        197.23825      197.23825      197.23825     -1.9703364    
    789000   698.99953     -5455208.2      197.25018      197.25018      197.25018     -47.257941    
    790000   699.9502      -5455166.3      197.24592      197.24592      197.24592      93.742742    
    791000   701.48891     -5455088.9      197.2783       197.2783       197.2783      -21.560497    
    792000   700.6918      -5455171.5      197.25163      197.25163      197.25163      233.5981     
    793000   699.52145     -5455286.8      197.25004      197.25004      197.25004     -122.78231    
    794000   698.95567     -5455266        197.26155      197.26155      197.26155      29.27319     
    795000   699.05912     -5455230.9      197.25732      197.25732      197.25732     -44.764729    
    796000   700.32094     -5455146.1      197.24514      197.24514      197.24514      198.46932    
    797000   700.23557     -5455191        197.27582      197.27582      197.27582     -19.970484    
    798000   700.11971     -5455180.4      197.24125      197.24125      197.24125      135.11188    
    799000   698.12625     -5455350        197.25766      197.25766      197.25766     -39.689099    
    800000   699.4521      -5455140.4      197.25538      197.25538      197.25538      97.036226    
    801000   700.7733      -5455025        197.25541      197.25541      197.25541      50.022585    
    802000   699.84319     -5455169.5      197.25065      197.25065      197.25065     -34.690802    
    803000   700.43256     -5455248.7      197.24823      197.24823      197.24823     -36.909624    
    804000   698.9826      -5455262.4      197.25406      197.25406      197.25406     -54.901718    
    805000   698.78443     -5455281.8      197.2611       197.2611       197.2611      -133.98966    
    806000   699.02491     -5455270        197.26911      197.26911      197.26911     -143.27553    
    807000   700.78343     -5455177        197.2469       197.2469       197.2469       70.469458    
    808000   699.43013     -5455239.2      197.26584      197.26584      197.26584     -106.73857    
    809000   700.0032      -5455156.6      197.27271      197.27271      197.27271     -171.70313    
    810000   698.82827     -5455176.8      197.26292      197.26292      197.26292     -103.93062    
    811000   699.73617     -5455174.2      197.25996      197.25996      197.25996      88.715965    
    812000   700.12553     -5455193.3      197.24438      197.24438      197.24438      124.67408    
    813000   700.81226     -5455162.6      197.26864      197.26864      197.26864     -35.989261    
    814000   700.33946     -5455159.6      197.27857      197.27857      197.27857     -62.535692    
    815000   700.76699     -5455113.5      197.26965      197.26965      197.26965      13.030544    
    816000   700.32484     -5455069.2      197.24869      197.24869      197.24869      93.800864    
    817000   700.19278     -5455165.5      197.25748      197.25748      197.25748      7.7941241    
    818000   699.86964     -5455222.4      197.26821      197.26821      197.26821     -228.74975    
    819000   700.61244     -5455184.5      197.25982      197.25982      197.25982     -43.559198    
    820000   699.45332     -5455196.3      197.25391      197.25391      197.25391     -37.115226    
    821000   699.56075     -5455290        197.24983      197.24983      197.24983      30.771159    
    822000   700.7624      -5455214.1      197.25696      197.25696      197.25696      31.775522    
    823000   700.71819     -5455186.1      197.2691       197.2691       197.2691      -197.54836    
    824000   699.33212     -5455299.1      197.26852      197.26852      197.26852     -5.9806607    
    825000   700.60383     -5455195.7      197.28576      197.28576      197.28576     -87.694443    
    826000   698.79468     -5455245.4      197.26944      197.26944      197.26944     -25.791611    
    827000   700.18502     -5455183.1      197.27777      197.27777      197.27777     -183.66121    
    828000   700.2928      -5455242        197.25262      197.25262      197.25262      88.170895    
    829000   699.96628     -5455235.6      197.25193      197.25193      197.25193      93.292054    
    830000   700.69113     -5455124.7      197.24793      197.24793      197.24793      26.427962    
    831000   699.7216      -5455142.9      197.26025      197.26025      197.26025     -141.14053    
    832000   701.75045     -5455003.4      197.26264      197.26264      197.26264      102.37301    
    833000   699.02296     -5455328.1      197.25797      197.25797      197.25797      57.06711     
    834000   699.90392     -5455274        197.26808      197.26808      197.26808     -32.670667    
    835000   700.36895     -5455237.2      197.24823      197.24823      197.24823      139.56398    
    836000   699.65779     -5455305.6      197.24431      197.24431      197.24431      221.33188    
    837000   700.1444      -5455170.1      197.27004      197.27004      197.27004     -166.8933     
    838000   699.46906     -5455318.5      197.25687      197.25687      197.25687     -45.980672    
    839000   699.01011     -5455343.9      197.24933      197.24933      197.24933      48.836229    
    840000   699.78018     -5455275.3      197.24717      197.24717      197.24717      103.58076    
    841000   699.50194     -5455147.7      197.27156      197.27156      197.27156     -78.975814    
    842000   699.68247     -5455305.4      197.2281       197.2281       197.2281       266.39285    
    843000   700.38475     -5455123        197.23868      197.23868      197.23868      136.35171    
    844000   699.46948     -5455182.1      197.26128      197.26128      197.26128     -165.4355     
    845000   700.05108     -5455251.9      197.25423      197.25423      197.25423     -67.958739    
    846000   700.56002     -5455161.4      197.24673      197.24673      197.24673      60.552318    
    847000   700.68387     -5455165.2      197.25729      197.25729      197.25729      40.005724    
    848000   700.41921     -5455192        197.24661      197.24661      197.24661      196.28566    
    849000   699.74698     -5455194.5      197.26698      197.26698      197.26698      7.1290488    
    850000   699.511       -5455315.5      197.25272      197.25272      197.25272      187.53874    
    851000   700.51087     -5455242.4      197.24464      197.24464      197.24464      121.25137    
    852000   699.63586     -5455205        197.26945      197.26945      197.26945     -102.09822    
    853000   700.04054     -5455222        197.25119      197.25119      197.25119      76.372046    
    854000   700.65551     -5455212.6      197.26489      197.26489      197.26489     -42.458123    
    855000   701.53545     -5455151.7      197.25219      197.25219      197.25219      122.69862    
    856000   700.63728     -5455289.8      197.23883      197.23883      197.23883     -94.307432    
    857000   698.73985     -5455299.9      197.24327      197.24327      197.24327     -44.952214    
    858000   699.24114     -5455199        197.24663      197.24663      197.24663     -81.162286    
    859000   700.46141     -5455326.6      197.25601      197.25601      197.25601      8.4675017    
    860000   700.70346     -5455251        197.26415      197.26415      197.26415      5.2522962    
    861000   699.03648     -5455299.4      197.25472      197.25472      197.25472      38.53848     
    862000   700.25325     -5455200.7      197.24895      197.24895      197.24895     -38.87969     
    863000   699.02963     -5455407.5      197.26864      197.26864      197.26864     -131.61396    
    864000   700.09877     -5455299        197.22891      197.22891      197.22891      132.44709    
    865000   701.22155     -5455173.3      197.25802      197.25802      197.25802     -109.39565    
    866000   699.91916     -5455334.2      197.25751      197.25751      197.25751     -38.493928    
    867000   699.68699     -5455201.9      197.25854      197.25854      197.25854      109.44127    
    868000   700.07989     -5455300.1      197.2352       197.2352       197.2352       88.256113    
    869000   698.8124      -5455336.6      197.23664      197.23664      197.23664      92.500391    
    870000   700.22961     -5455275.6      197.25133      197.25133      197.25133     -38.454263    
    871000   700.78235     -5455181.8      197.26092      197.26092      197.26092     -65.624695    
    872000   699.60383     -5455366.8      197.2616       197.2616       197.2616      -28.604702    
    873000   699.68796     -5455311.1      197.23416      197.23416      197.23416      31.053258    
    874000   699.94803     -5455394.2      197.24218      197.24218      197.24218     -47.984598    
    875000   700.05923     -5455273.7      197.23694      197.23694      197.23694     -96.295895    
    876000   701.41678     -5455232.8      197.23564      197.23564      197.23564     -154.35887    
    877000   700.33214     -5455278.3      197.24931      197.24931      197.24931     -120.06021    
    878000   698.77143     -5455360.5      197.24642      197.24642      197.24642      102.59067    
    879000   699.44593     -5455374.3      197.23968      197.23968      197.23968      123.37304    
    880000   699.94644     -5455369.3      197.22634      197.22634      197.22634      72.963296    
    881000   700.16088     -5455241.8      197.25019      197.25019      197.25019     -20.138237    
    882000   701.02691     -5455146.4      197.24365      197.24365      197.24365      75.203393    
    883000   701.61789     -5455150.6      197.23928      197.23928      197.23928      223.15351    
    884000   701.14732     -5455234.2      197.22386      197.22386      197.22386      141.29606    
    885000   699.42777     -5455379.4      197.24041      197.24041      197.24041      56.448736    
    886000   698.41025     -5455442.6      197.22517      197.22517      197.22517      88.70536     
    887000   700.19356     -5455299.7      197.25386      197.25386      197.25386     -36.349173    
    888000   701.17055     -5455132.5      197.25781      197.25781      197.25781      31.754946    
    889000   699.04738     -5455268.1      197.25829      197.25829      197.25829      94.034763    
    890000   699.82591     -5455268.3      197.28055      197.28055      197.28055     -268.72395    
    891000   700.17964     -5455244.8      197.25206      197.25206      197.25206      33.169376    
    892000   700.38684     -5455292.2      197.25599      197.25599      197.25599      65.504515    
    893000   700.25564     -5455267.8      197.27274      197.27274      197.27274     -124.53098    
    894000   700.30482     -5455182.2      197.25985      197.25985      197.25985     -73.353803    
    895000   699.70086     -5455197.1      197.24598      197.24598      197.24598      61.173283    
    896000   698.66171     -5455236.1      197.26623      197.26623      197.26623     -166.6521     
    897000   699.65119     -5455229.2      197.25541      197.25541      197.25541     -59.865028    
    898000   700.00071     -5455231.1      197.25131      197.25131      197.25131     -5.0520149    
    899000   700.38754     -5455305.4      197.23481      197.23481      197.23481      270.11405    
    900000   699.99388     -5455238.8      197.24129      197.24129      197.24129      120.39262    
    901000   699.12169     -5455222.5      197.25987      197.25987      197.25987     -40.855389    
    902000   700.7061      -5455333.5      197.24527      197.24527      197.24527      42.012158    
    903000   698.33514     -5455337.3      197.25592      197.25592      197.25592      116.36719    
    904000   700.57423     -5455209.7      197.26681      197.26681      197.26681     -124.04457    
    905000   700.42684     -5455088.9      197.25525      197.25525      197.25525      27.997739    
    906000   699.84616     -5455213.1      197.24721      197.24721      197.24721      95.038942    
    907000   701.04199     -5455227.2      197.24615      197.24615      197.24615      159.30978    
    908000   699.13527     -5455394.3      197.26148      197.26148      197.26148     -57.750525    
    909000   699.29499     -5455286        197.26152      197.26152      197.26152     -88.564741    
    910000   699.05388     -5455390.6      197.2369       197.2369       197.2369       38.851961    
    911000   699.52841     -5455240.9      197.26954      197.26954      197.26954      10.720613    
    912000   701.04827     -5455242.8      197.26502      197.26502      197.26502     -143.23407    
    913000   700.37504     -5455180.9      197.24141      197.24141      197.24141      112.69082    
    914000   699.95652     -5455349.3      197.24989      197.24989      197.24989     -39.962399    
    915000   700.33129     -5455210.3      197.25954      197.25954      197.25954      37.872746    
    916000   700.07603     -5455292.1      197.25826      197.25826      197.25826      8.9809371    
    917000   700.34296     -5455317.3      197.25857      197.25857      197.25857      17.381854    
    918000   700.06292     -5455203.1      197.26919      197.26919      197.26919     -87.176345    
    919000   699.5025      -5455258.5      197.25427      197.25427      197.25427      64.102964    
    920000   700.34648     -5455255.3      197.23756      197.23756      197.23756      57.138634    
    921000   699.52483     -5455321.7      197.24401      197.24401      197.24401      20.088781    
    922000   700.3323      -5455234.4      197.25367      197.25367      197.25367     -38.173863    
    923000   699.95149     -5455262.7      197.24317      197.24317      197.24317     -0.84753648   
    924000   699.86123     -5455356.3      197.23234      197.23234      197.23234      63.025129    
    925000   699.31398     -5455265        197.26623      197.26623      197.26623     -146.6985     
    926000   699.23154     -5455377.8      197.25593      197.25593      197.25593     -86.109664    
    927000   698.84523     -5455380.1      197.25388      197.25388      197.25388     -35.107523    
    928000   698.60358     -5455349.5      197.25394      197.25394      197.25394     -52.309667    
    929000   700.30729     -5455356.3      197.23973      197.23973      197.23973      26.004767    
    930000   701.23868     -5455200        197.2552       197.2552       197.2552      -85.820674    
    931000   699.84111     -5455250        197.26668      197.26668      197.26668     -79.19927     
    932000   699.03046     -5455285.1      197.25361      197.25361      197.25361     -22.771827    
    933000   698.57399     -5455321.4      197.24161      197.24161      197.24161      120.36329    
    934000   700.21883     -5455256.6      197.25394      197.25394      197.25394     -36.452752    
    935000   700.67569     -5455139        197.23983      197.23983      197.23983      187.12344    
    936000   699.00434     -5455364.2      197.24433      197.24433      197.24433      22.333537    
    937000   699.85166     -5455266        197.26766      197.26766      197.26766     -190.21171    
    938000   700.47056     -5455267.6      197.25413      197.25413      197.25413     -101.45844    
    939000   699.67316     -5455312.9      197.24303      197.24303      197.24303      58.727687    
    940000   700.35456     -5455252.4      197.2539       197.2539       197.2539       109.67045    
    941000   700.11644     -5455378.7      197.27002      197.27002      197.27002      36.547717    
    942000   700.98673     -5455172.2      197.28071      197.28071      197.28071     -35.012611    
    943000   700.62814     -5455239.1      197.26392      197.26392      197.26392     -28.402626    
    944000   700.52457     -5455181.8      197.27299      197.27299      197.27299     -49.139517    
    945000   700.56933     -5455273.2      197.2377       197.2377       197.2377       142.58004    
    946000   699.47936     -5455277.9      197.2371       197.2371       197.2371       59.5931      
    947000   700.63044     -5455286.8      197.23453      197.23453      197.23453      44.104618    
    948000   700.38199     -5455208.2      197.25358      197.25358      197.25358      19.501736    
    949000   699.33151     -5455265.5      197.24155      197.24155      197.24155      122.31379    
    950000   699.95853     -5455321        197.24674      197.24674      197.24674      128.02834    
    951000   700.98612     -5455136.3      197.25455      197.25455      197.25455      30.103274    
    952000   702.35718     -5455169.7      197.2475       197.2475       197.2475       19.079742    
    953000   700.21252     -5455311.8      197.24353      197.24353      197.24353      104.35196    
    954000   698.49078     -5455335.6      197.25042      197.25042      197.25042      69.982601    
    955000   699.21565     -5455267.1      197.26098      197.26098      197.26098      36.017105    
    956000   699.96524     -5455293.6      197.24076      197.24076      197.24076      208.18217    
    957000   700.27561     -5455256.9      197.25713      197.25713      197.25713      83.110109    
    958000   702.041       -5455103.6      197.24836      197.24836      197.24836      33.169872    
    959000   699.98887     -5455291.1      197.26277      197.26277      197.26277     -137.69448    
    960000   700.49232     -5455322.6      197.24516      197.24516      197.24516      12.651862    
    961000   699.57351     -5455314.7      197.25489      197.25489      197.25489     -141.61626    
    962000   700.7958      -5455338.1      197.26723      197.26723      197.26723     -172.16277    
    963000   700.89441     -5455233.5      197.24528      197.24528      197.24528      74.971102    
    964000   699.93975     -5455266.9      197.25073      197.25073      197.25073     -41.215261    
    965000   698.53099     -5455484.3      197.22531      197.22531      197.22531      150.75274    
    966000   699.86906     -5455290.9      197.24807      197.24807      197.24807     -59.370231    
    967000   700.43442     -5455219.5      197.24342      197.24342      197.24342      164.90185    
    968000   699.24916     -5455400.8      197.24249      197.24249      197.24249      26.010921    
    969000   700.84717     -5455315.4      197.24036      197.24036      197.24036      68.253298    
    970000   700.16907     -5455200.6      197.25724      197.25724      197.25724     -14.683572    
    971000   698.91976     -5455362.5      197.24351      197.24351      197.24351     -43.075832    
    972000   700.32214     -5455340.6      197.2523       197.2523       197.2523       9.299112     
    973000   699.88715     -5455283.6      197.25348      197.25348      197.25348      29.592015    
    974000   699.07388     -5455239.5      197.27129      197.27129      197.27129     -145.10093    
    975000   700.40323     -5455312.6      197.26465      197.26465      197.26465     -165.49601    
    976000   701.90952     -5455136.8      197.25269      197.25269      197.25269      41.030342    
    977000   699.06032     -5455253.7      197.27318      197.27318      197.27318     -238.07538    
    978000   699.97997     -5455262        197.26642      197.26642      197.26642     -239.65869    
    979000   699.65802     -5455325.7      197.25351      197.25351      197.25351     -75.764746    
    980000   700.05023     -5455262.7      197.26037      197.26037      197.26037     -234.0358     
    981000   699.73301     -5455221.1      197.25198      197.25198      197.25198      133.92654    
    982000   700.48062     -5455259.1      197.25848      197.25848      197.25848     -45.910545    
    983000   698.95657     -5455340        197.22421      197.22421      197.22421      273.69325    
    984000   700.53328     -5455243.9      197.24363      197.24363      197.24363     -80.399199    
    985000   700.70374     -5455230.2      197.23462      197.23462      197.23462     -12.591314    
    986000   699.87387     -5455366.5      197.2437       197.2437       197.2437      -54.22769     
    987000   699.71276     -5455318.2      197.25736      197.25736      197.25736     -153.92128    
    988000   699.33041     -5455218.1      197.26999      197.26999      197.26999     -33.786552    
    989000   701.04336     -5455202.6      197.25283      197.25283      197.25283      126.07972    
    990000   698.40585     -5455428.5      197.25161      197.25161      197.25161     -182.69881    
    991000   700.2617      -5455326.7      197.24182      197.24182      197.24182      102.91491    
    992000   700.82951     -5455262.9      197.24436      197.24436      197.24436     -27.134383    
    993000   700.1288      -5455284.5      197.24033      197.24033      197.24033      52.06107     
    994000   700.6752      -5455265.5      197.27088      197.27088      197.27088     -208.61011    
    995000   698.64511     -5455390.6      197.25284      197.25284      197.25284     -69.650646    
    996000   699.74575     -5455345        197.23093      197.23093      197.23093      92.825576    
    997000   699.0519      -5455310.1      197.2537       197.2537       197.2537      -118.19397    
    998000   698.64597     -5455319.9      197.25343      197.25343      197.25343     -63.710165    
    999000   700.21699     -5455269.8      197.25476      197.25476      197.25476     -190.85885    
   1000000   700.45229     -5455263.6      197.25713      197.25713      197.25713     -84.893162    
Loop time of 80513 on 16384 procs for 1000000 steps with 482050 atoms

Performance: 2.146 ns/day, 11.182 hours/ns, 12.420 timesteps/s, 5.987 Matom-step/s
78.8% CPU use with 128 MPI tasks x 128 OpenMP threads

MPI task timing breakdown:
Section |  min time  |  avg time  |  max time  |%varavg| %total
---------------------------------------------------------------
Pair    | 27622      | 39014      | 50874      |4470.2 | 48.46
Bond    | 0.11003    | 0.21353    | 0.41847    |  10.6 |  0.00
Kspace  | 13737      | 27368      | 40406      |6169.2 | 33.99
Neigh   | 3561.2     | 5170.7     | 6927.2     |1792.7 |  6.42
Comm    | 1568.9     | 1939.4     | 2292.6     | 486.4 |  2.41
Output  | 0.14175    | 0.14838    | 0.17262    |   0.8 |  0.00
Modify  | 3442.7     | 4039.7     | 6992.1     |1068.8 |  5.02
Other   |            | 2981       |            |       |  3.70

Nlocal:        3766.02 ave        4627 max        2897 min
Histogram: 63 1 0 0 0 0 0 0 0 64
Nghost:        12074.4 ave       13474 max       10696 min
Histogram: 64 0 0 0 0 0 0 0 0 64
Neighs:         932750 ave 1.24775e+06 max      646418 min
Histogram: 24 37 3 0 0 0 2 22 19 21

Total # of neighbors = 1.1939197e+08
Ave neighs/atom = 247.6755
Ave special neighs/atom = 0
Neighbor list builds = 170810
Dangerous builds = 0
PPPM initialization ...
  using 12-bit tables for long-range coulomb (src/src/kspace.cpp:342)
  G vector (1/distance) = 0.27675344
  grid = 135 135 135
  stencil order = 5
  estimated absolute RMS force accuracy = 0.0016318071
  estimated relative force accuracy = 0.00011332273
  using double precision MKL FFT
  3d grid and FFT values/proc = 36800 36450
Generated 0 of 10 mixed pair_coeff terms from geometric mixing rule
Setting up Verlet run ...
  Unit style    : metal
  Current step  : 0
  Time step     : 0.002
Per MPI rank memory allocation (min/avg/max) = 226.2 | 262.2 | 299.8 Mbytes
   Step          Temp          TotEng           Lx             Ly             Lz           Press     
         0   700.45229     -5455263.6      197.25713      197.25713      197.25713     -84.812376    
      1000   698.87828     -5455377.3      197.25713      197.25713      197.25713     -61.688084    
      2000   699.79164     -5455254.6      197.25713      197.25713      197.25713     -31.326738    
      3000   698.93268     -5455294.7      197.25713      197.25713      197.25713     -134.81523    
      4000   699.24705     -5455277.3      197.25713      197.25713      197.25713     -68.786624    
      5000   698.63708     -5455420.4      197.25713      197.25713      197.25713     -306.22427    
      6000   699.56047     -5455382.7      197.25713      197.25713      197.25713     -173.90403    
      7000   700.9029      -5455217.1      197.25713      197.25713      197.25713     -21.23444     
      8000   700.86376     -5455266.7      197.25713      197.25713      197.25713     -238.0823     
      9000   699.73403     -5455339        197.25713      197.25713      197.25713     -128.51377    
     10000   700.82183     -5455167.4      197.25713      197.25713      197.25713     -61.221631    
     11000   699.88504     -5455285.7      197.25713      197.25713      197.25713     -69.690619    
     12000   700.59633     -5455259.6      197.25713      197.25713      197.25713      59.068415    
     13000   700.84681     -5455266.1      197.25713      197.25713      197.25713     -54.469795    
     14000   699.74741     -5455359        197.25713      197.25713      197.25713     -113.36214    
     15000   701.20241     -5455188.2      197.25713      197.25713      197.25713     -50.820759    
     16000   699.56703     -5455249        197.25713      197.25713      197.25713     -9.5731362    
     17000   699.9254      -5455268.8      197.25713      197.25713      197.25713     -110.28443    
     18000   700.51207     -5455313.6      197.25713      197.25713      197.25713     -165.16387    
     19000   699.60898     -5455352        197.25713      197.25713      197.25713     -171.73034    
     20000   701.22018     -5455297.3      197.25713      197.25713      197.25713     -120.01789    
     21000   700.07817     -5455306.3      197.25713      197.25713      197.25713     -154.33648    
     22000   699.84733     -5455399.1      197.25713      197.25713      197.25713     -45.858233    
     23000   701.15385     -5455257.1      197.25713      197.25713      197.25713     -68.347834    
     24000   700.37211     -5455273.6      197.25713      197.25713      197.25713     -196.6172     
     25000   698.82778     -5455442.9      197.25713      197.25713      197.25713     -26.723632    
     26000   700.08491     -5455271.9      197.25713      197.25713      197.25713      14.731374    
     27000   699.9324      -5455304.2      197.25713      197.25713      197.25713      115.45097    
     28000   699.56242     -5455407.9      197.25713      197.25713      197.25713     -37.835493    
     29000   700.3449      -5455230.6      197.25713      197.25713      197.25713      20.420664    
     30000   700.84813     -5455334.3      197.25713      197.25713      197.25713      8.7036849    
     31000   700.85843     -5455276        197.25713      197.25713      197.25713     -134.94991    
     32000   700.47514     -5455324        197.25713      197.25713      197.25713     -211.38764    
     33000   698.52317     -5455293        197.25713      197.25713      197.25713      70.23276     
     34000   699.98169     -5455349.5      197.25713      197.25713      197.25713     -88.528236    
     35000   699.35266     -5455357.8      197.25713      197.25713      197.25713     -57.44765     
     36000   700.43569     -5455334        197.25713      197.25713      197.25713     -159.91312    
     37000   700.56056     -5455220.3      197.25713      197.25713      197.25713     -145.68053    
     38000   699.24097     -5455282.6      197.25713      197.25713      197.25713     -121.31705    
     39000   700.82533     -5455274.8      197.25713      197.25713      197.25713     -166.87127    
     40000   698.92093     -5455429.1      197.25713      197.25713      197.25713     -100.41962    
     41000   699.93211     -5455351.1      197.25713      197.25713      197.25713     -1.1784104    
     42000   701.4402      -5455270.6      197.25713      197.25713      197.25713     -7.9105046    
     43000   699.73558     -5455362.5      197.25713      197.25713      197.25713     -149.18629    
     44000   699.93958     -5455291.1      197.25713      197.25713      197.25713      14.602861    
     45000   698.55532     -5455355.4      197.25713      197.25713      197.25713      19.992502    
     46000   700.77496     -5455379        197.25713      197.25713      197.25713     -74.032767    
     47000   700.94048     -5455308.2      197.25713      197.25713      197.25713     -121.93181    
     48000   700.84837     -5455279.6      197.25713      197.25713      197.25713     -106.24718    
     49000   700.3783      -5455331.7      197.25713      197.25713      197.25713     -13.482438    
     50000   701.63362     -5455183.5      197.25713      197.25713      197.25713     -99.385902    
     51000   697.91584     -5455561.6      197.25713      197.25713      197.25713     -144.53615    
     52000   700.92053     -5455265.5      197.25713      197.25713      197.25713      69.823386    
     53000   700.60257     -5455247.7      197.25713      197.25713      197.25713     -45.433002    
     54000   700.68899     -5455299.8      197.25713      197.25713      197.25713     -21.128161    
     55000   700.0056      -5455353.5      197.25713      197.25713      197.25713     -175.50702    
     56000   698.74243     -5455402.5      197.25713      197.25713      197.25713     -50.812044    
     57000   699.66959     -5455220.1      197.25713      197.25713      197.25713     -8.2518758    
     58000   699.48783     -5455278.2      197.25713      197.25713      197.25713     -139.86127    
     59000   700.28145     -5455241.1      197.25713      197.25713      197.25713      53.385255    
     60000   700.20526     -5455430.7      197.25713      197.25713      197.25713     -104.54993    
     61000   699.70846     -5455353.6      197.25713      197.25713      197.25713      116.16019    
     62000   700.62484     -5455309.2      197.25713      197.25713      197.25713      89.180987    
     63000   700.05779     -5455367.4      197.25713      197.25713      197.25713     -8.429928     
     64000   700.12284     -5455407        197.25713      197.25713      197.25713     -19.759029    
     65000   700.47703     -5455264        197.25713      197.25713      197.25713     -81.383565    
     66000   700.21186     -5455352.2      197.25713      197.25713      197.25713      36.915976    
     67000   699.10938     -5455374.4      197.25713      197.25713      197.25713      32.989203    
     68000   699.55732     -5455336.7      197.25713      197.25713      197.25713      22.457178    
     69000   699.81681     -5455353.8      197.25713      197.25713      197.25713     -89.217647    
     70000   700.21776     -5455314.5      197.25713      197.25713      197.25713     -53.839072    
     71000   700.4295      -5455261.6      197.25713      197.25713      197.25713      17.573924    
     72000   698.75648     -5455405.7      197.25713      197.25713      197.25713     -59.631192    
     73000   700.05738     -5455284        197.25713      197.25713      197.25713      5.3918348    
     74000   699.40735     -5455491.2      197.25713      197.25713      197.25713     -225.24092    
     75000   699.71262     -5455318.2      197.25713      197.25713      197.25713     -230.66014    
     76000   701.04573     -5455280.5      197.25713      197.25713      197.25713     -15.158046    
     77000   702.53093     -5455141.5      197.25713      197.25713      197.25713     -75.873985    
     78000   700.72799     -5455277.3      197.25713      197.25713      197.25713     -108.79743    
     79000   699.39126     -5455261.4      197.25713      197.25713      197.25713      23.54936     
     80000   699.62776     -5455409.8      197.25713      197.25713      197.25713     -74.548444    
     81000   700.75466     -5455319.9      197.25713      197.25713      197.25713     -151.3851     
     82000   700.56425     -5455299.4      197.25713      197.25713      197.25713     -73.863899    
     83000   698.94914     -5455346        197.25713      197.25713      197.25713      34.537258    
     84000   700.52761     -5455268.1      197.25713      197.25713      197.25713     -87.796495    
     85000   698.57379     -5455485.7      197.25713      197.25713      197.25713     -147.8118     
     86000   699.48778     -5455334.2      197.25713      197.25713      197.25713     -44.511003    
     87000   698.81508     -5455428.8      197.25713      197.25713      197.25713     -76.663985    
     88000   700.10304     -5455241.7      197.25713      197.25713      197.25713      73.787952    
     89000   701.03156     -5455310.5      197.25713      197.25713      197.25713     -76.202968    
     90000   700.91019     -5455282.8      197.25713      197.25713      197.25713     -130.18161    
     91000   700.0443      -5455418.8      197.25713      197.25713      197.25713     -46.01282     
     92000   699.82384     -5455299.7      197.25713      197.25713      197.25713     -7.9219129    
     93000   699.42007     -5455381.3      197.25713      197.25713      197.25713     -85.745516    
     94000   699.30797     -5455322.5      197.25713      197.25713      197.25713      1.5850113    
     95000   700.89612     -5455353.4      197.25713      197.25713      197.25713     -144.65855    
     96000   699.76953     -5455372.7      197.25713      197.25713      197.25713     -58.15416     
     97000   699.21782     -5455386.3      197.25713      197.25713      197.25713     -57.971737    
     98000   699.28427     -5455408.3      197.25713      197.25713      197.25713     -207.1109     
     99000   700.62423     -5455376.8      197.25713      197.25713      197.25713     -147.46958    
    100000   700.17311     -5455307        197.25713      197.25713      197.25713     -153.46262    
    101000   699.11939     -5455412.3      197.25713      197.25713      197.25713     -202.58008    
    102000   698.95785     -5455384.4      197.25713      197.25713      197.25713     -326.25328    
    103000   699.76745     -5455277.4      197.25713      197.25713      197.25713     -67.314593    
    104000   701.21148     -5455235.7      197.25713      197.25713      197.25713     -94.89483     
    105000   698.68268     -5455427.9      197.25713      197.25713      197.25713     -223.43386    
    106000   699.90972     -5455383.4      197.25713      197.25713      197.25713     -197.15949    
    107000   700.77847     -5455254.3      197.25713      197.25713      197.25713     -174.91612    
    108000   700.96741     -5455312.8      197.25713      197.25713      197.25713     -154.58258    
    109000   699.43327     -5455443.8      197.25713      197.25713      197.25713     -72.352649    
    110000   698.9509      -5455454        197.25713      197.25713      197.25713     -22.552062    
    111000   701.32451     -5455322.9      197.25713      197.25713      197.25713     -148.89325    
    112000   700.80999     -5455262.7      197.25713      197.25713      197.25713      56.19504     
    113000   701.55509     -5455221.8      197.25713      197.25713      197.25713      20.77388     
    114000   700.04625     -5455322.1      197.25713      197.25713      197.25713     -51.315459    
    115000   702.24283     -5455163.9      197.25713      197.25713      197.25713     -54.752175    
    116000   700.13405     -5455405.6      197.25713      197.25713      197.25713     -23.391631    
    117000   699.278       -5455429.8      197.25713      197.25713      197.25713     -101.31226    
    118000   700.97746     -5455346.1      197.25713      197.25713      197.25713     -87.07823     
    119000   700.45104     -5455441.2      197.25713      197.25713      197.25713     -167.64847    
    120000   699.00889     -5455310.3      197.25713      197.25713      197.25713      22.081643    
    121000   699.94575     -5455334.2      197.25713      197.25713      197.25713     -139.39061    
    122000   699.09515     -5455367.1      197.25713      197.25713      197.25713     -149.15837    
    123000   698.86316     -5455440.7      197.25713      197.25713      197.25713     -182.28434    
    124000   699.54905     -5455420.3      197.25713      197.25713      197.25713      61.887835    
    125000   701.30799     -5455343        197.25713      197.25713      197.25713     -19.04282     
    126000   700.26009     -5455266.2      197.25713      197.25713      197.25713     -127.27462    
    127000   697.85906     -5455487.8      197.25713      197.25713      197.25713     -31.550805    
    128000   699.86592     -5455484.6      197.25713      197.25713      197.25713     -52.65642     
    129000   698.89543     -5455511.7      197.25713      197.25713      197.25713     -5.5792943    
    130000   700.48013     -5455309.9      197.25713      197.25713      197.25713     -42.719247    
    131000   699.93903     -5455285.2      197.25713      197.25713      197.25713     -1.7743604    
    132000   699.23865     -5455437.2      197.25713      197.25713      197.25713     -108.78129    
    133000   699.32919     -5455311.3      197.25713      197.25713      197.25713     -88.991326    
    134000   699.78705     -5455494.5      197.25713      197.25713      197.25713     -100.15994    
    135000   699.38767     -5455322.1      197.25713      197.25713      197.25713     -301.6131     
    136000   700.8195      -5455378.7      197.25713      197.25713      197.25713     -40.963547    
    137000   700.19485     -5455334.5      197.25713      197.25713      197.25713     -15.549445    
    138000   700.73225     -5455180.9      197.25713      197.25713      197.25713     -134.93225    
    139000   701.05307     -5455263.8      197.25713      197.25713      197.25713      6.3966666    
    140000   699.28057     -5455378.9      197.25713      197.25713      197.25713     -61.88263     
    141000   700.33809     -5455345.2      197.25713      197.25713      197.25713     -80.886284    
    142000   700.09902     -5455249.6      197.25713      197.25713      197.25713      23.722554    
    143000   700.66981     -5455320.4      197.25713      197.25713      197.25713     -210.04802    
    144000   698.96109     -5455376.8      197.25713      197.25713      197.25713     -179.11977    
    145000   698.19317     -5455460.1      197.25713      197.25713      197.25713     -286.10536    
    146000   700.08122     -5455361.3      197.25713      197.25713      197.25713     -185.21358    
    147000   700.9689      -5455271        197.25713      197.25713      197.25713     -1.7162058    
    148000   700.1349      -5455336.6      197.25713      197.25713      197.25713     -270.61081    
    149000   699.79596     -5455325.9      197.25713      197.25713      197.25713     -194.66371    
    150000   699.76238     -5455412.9      197.25713      197.25713      197.25713     -118.18165    
    151000   700.9996      -5455187.6      197.25713      197.25713      197.25713     -67.961882    
    152000   700.42011     -5455280.9      197.25713      197.25713      197.25713     -218.1504     
    153000   697.54703     -5455458.9      197.25713      197.25713      197.25713     -260.91818    
    154000   699.35444     -5455399.8      197.25713      197.25713      197.25713     -185.60721    
    155000   700.71871     -5455233.5      197.25713      197.25713      197.25713     -147.96295    
    156000   699.60725     -5455280.8      197.25713      197.25713      197.25713     -64.275011    
    157000   698.65165     -5455467.1      197.25713      197.25713      197.25713     -229.38936    
    158000   700.3369      -5455335.7      197.25713      197.25713      197.25713     -60.222132    
    159000   699.93913     -5455305.8      197.25713      197.25713      197.25713     -151.79487    
    160000   699.28306     -5455444.9      197.25713      197.25713      197.25713     -74.522364    
    161000   700.3018      -5455391        197.25713      197.25713      197.25713     -30.260218    
    162000   699.86725     -5455251        197.25713      197.25713      197.25713     -24.021853    
    163000   701.00319     -5455256.8      197.25713      197.25713      197.25713     -39.557576    
    164000   699.48348     -5455322.6      197.25713      197.25713      197.25713     -77.911147    
    165000   699.45001     -5455380.7      197.25713      197.25713      197.25713     -158.94376    
    166000   699.31427     -5455349.3      197.25713      197.25713      197.25713     -133.76038    
    167000   700.45304     -5455263.9      197.25713      197.25713      197.25713     -44.394795    
    168000   699.17887     -5455423        197.25713      197.25713      197.25713     -28.254625    
    169000   700.17087     -5455294.6      197.25713      197.25713      197.25713     -60.709978    
    170000   699.59333     -5455314        197.25713      197.25713      197.25713     -131.17792    
    171000   700.07203     -5455333.8      197.25713      197.25713      197.25713     -105.62893    
    172000   699.75326     -5455397.6      197.25713      197.25713      197.25713     -1.1354984    
    173000   700.86687     -5455406.8      197.25713      197.25713      197.25713     -4.2775724    
    174000   700.29204     -5455306.5      197.25713      197.25713      197.25713      31.384354    
    175000   700.47039     -5455349.9      197.25713      197.25713      197.25713     -167.4639     
    176000   699.36808     -5455302.2      197.25713      197.25713      197.25713     -282.48616    
    177000   698.42812     -5455454.4      197.25713      197.25713      197.25713     -179.17856    
    178000   699.88183     -5455413.3      197.25713      197.25713      197.25713     -88.325655    
    179000   699.47334     -5455433.8      197.25713      197.25713      197.25713     -61.384291    
    180000   700.78396     -5455339        197.25713      197.25713      197.25713     -88.279973    
    181000   698.52392     -5455382.3      197.25713      197.25713      197.25713     -149.23096    
    182000   698.50203     -5455551.5      197.25713      197.25713      197.25713     -122.2566     
    183000   698.77952     -5455548.9      197.25713      197.25713      197.25713     -38.213963    
    184000   699.74172     -5455359.8      197.25713      197.25713      197.25713      31.172354    
    185000   699.77109     -5455429.9      197.25713      197.25713      197.25713     -63.253698    
    186000   698.92908     -5455449.3      197.25713      197.25713      197.25713     -248.64346    
    187000   698.4684      -5455489.5      197.25713      197.25713      197.25713     -84.302292    
    188000   701.23304     -5455308.1      197.25713      197.25713      197.25713     -144.26259    
    189000   699.53324     -5455429        197.25713      197.25713      197.25713     -112.7938     
    190000   700.05747     -5455294.7      197.25713      197.25713      197.25713     -248.3073     
    191000   699.08923     -5455370.9      197.25713      197.25713      197.25713     -167.02123    
    192000   700.16872     -5455291.2      197.25713      197.25713      197.25713     -26.049583    
    193000   700.88504     -5455274.7      197.25713      197.25713      197.25713     -157.50152    
    194000   700.60096     -5455317.9      197.25713      197.25713      197.25713     -52.828197    
    195000   700.9013      -5455348.3      197.25713      197.25713      197.25713     -241.13913    
    196000   700.05081     -5455397.5      197.25713      197.25713      197.25713      17.554725    
    197000   699.57276     -5455436.4      197.25713      197.25713      197.25713     -175.86011    
    198000   701.46698     -5455219.2      197.25713      197.25713      197.25713     -149.02159    
    199000   700.43854     -5455238.6      197.25713      197.25713      197.25713     -181.54074    
    200000   700.68661     -5455305.2      197.25713      197.25713      197.25713     -224.51986    
    201000   700.50447     -5455334.1      197.25713      197.25713      197.25713     -196.70571    
    202000   700.83198     -5455298.9      197.25713      197.25713      197.25713     -117.72166    
    203000   700.10686     -5455375        197.25713      197.25713      197.25713     -188.14947    
    204000   700.74055     -5455225.1      197.25713      197.25713      197.25713      17.95052     
    205000   701.32643     -5455156.4      197.25713      197.25713      197.25713     -24.021872    
    206000   699.67067     -5455442.7      197.25713      197.25713      197.25713     -26.206071    
    207000   699.46909     -5455486.1      197.25713      197.25713      197.25713     -72.189304    
    208000   699.70003     -5455424.6      197.25713      197.25713      197.25713     -15.513599    
    209000   699.62681     -5455331.4      197.25713      197.25713      197.25713     -168.48917    
    210000   701.15221     -5455381.7      197.25713      197.25713      197.25713     -203.79987    
    211000   700.2755      -5455363.1      197.25713      197.25713      197.25713     -158.06475    
    212000   699.44271     -5455405        197.25713      197.25713      197.25713     -196.22014    
    213000   699.92667     -5455349.1      197.25713      197.25713      197.25713     -161.23141    
    214000   700.71799     -5455271.8      197.25713      197.25713      197.25713     -90.901924    
    215000   699.74805     -5455404.9      197.25713      197.25713      197.25713     -282.15482    
    216000   700.36655     -5455276.5      197.25713      197.25713      197.25713     -233.13015    
    217000   697.99719     -5455569.4      197.25713      197.25713      197.25713     -12.849974    
    218000   700.46569     -5455365.5      197.25713      197.25713      197.25713      3.2148815    
    219000   700.10956     -5455380        197.25713      197.25713      197.25713     -211.0139     
    220000   699.12881     -5455452.2      197.25713      197.25713      197.25713     -117.33258    
    221000   699.28731     -5455393.4      197.25713      197.25713      197.25713     -49.734918    
    222000   700.05126     -5455377.3      197.25713      197.25713      197.25713     -44.156639    
    223000   699.37609     -5455346.1      197.25713      197.25713      197.25713      20.55616     
    224000   700.46409     -5455437.9      197.25713      197.25713      197.25713     -69.806063    
    225000   700.10293     -5455454.3      197.25713      197.25713      197.25713     -213.14359    
    226000   700.2702      -5455281.1      197.25713      197.25713      197.25713     -82.538609    
    227000   699.91711     -5455489        197.25713      197.25713      197.25713     -149.12739    
    228000   697.74782     -5455490.2      197.25713      197.25713      197.25713     -214.97255    
    229000   700.14279     -5455359.2      197.25713      197.25713      197.25713      3.0652866    
    230000   700.5561      -5455288.5      197.25713      197.25713      197.25713     -50.674825    
    231000   699.40981     -5455347.8      197.25713      197.25713      197.25713     -3.8386532    
    232000   700.90238     -5455346.2      197.25713      197.25713      197.25713     -178.38064    
    233000   700.54553     -5455458.3      197.25713      197.25713      197.25713     -90.373581    
    234000   699.73617     -5455407.2      197.25713      197.25713      197.25713     -68.679046    
    235000   699.99148     -5455379.4      197.25713      197.25713      197.25713     -15.219445    
    236000   699.79741     -5455351.5      197.25713      197.25713      197.25713      18.821279    
    237000   701.3385      -5455369.5      197.25713      197.25713      197.25713     -94.287232    
    238000   700.22412     -5455256        197.25713      197.25713      197.25713     -19.887032    
    239000   701.29919     -5455370.4      197.25713      197.25713      197.25713     -102.86393    
    240000   698.54855     -5455397.9      197.25713      197.25713      197.25713     -224.41155    
    241000   700.66728     -5455381.6      197.25713      197.25713      197.25713     -146.79685    
    242000   698.96161     -5455484.5      197.25713      197.25713      197.25713     -230.93534    
    243000   699.95951     -5455426        197.25713      197.25713      197.25713     -133.85654    
    244000   700.52077     -5455303.1      197.25713      197.25713      197.25713     -69.428336    
    245000   700.63777     -5455379.9      197.25713      197.25713      197.25713      16.974376    
    246000   699.57768     -5455369.8      197.25713      197.25713      197.25713     -41.658081    
    247000   701.31032     -5455261.8      197.25713      197.25713      197.25713     -61.177287    
    248000   700.94059     -5455273.9      197.25713      197.25713      197.25713     -62.577684    
    249000   701.57457     -5455352.9      197.25713      197.25713      197.25713      36.188768    
    250000   701.36005     -5455292.1      197.25713      197.25713      197.25713     -45.972815    
    251000   700.81992     -5455265.7      197.25713      197.25713      197.25713      104.59051    
    252000   700.79151     -5455263.6      197.25713      197.25713      197.25713     -30.462302    
    253000   699.89666     -5455358.8      197.25713      197.25713      197.25713     -110.82536    
    254000   700.45669     -5455313.4      197.25713      197.25713      197.25713     -165.56753    
    255000   699.7077      -5455377.6      197.25713      197.25713      197.25713     -33.53901     
    256000   701.71525     -5455270.7      197.25713      197.25713      197.25713     -108.46711    
    257000   699.96483     -5455334.7      197.25713      197.25713      197.25713     -165.18427    
    258000   699.51354     -5455371.8      197.25713      197.25713      197.25713     -232.02408    
    259000   700.98106     -5455267        197.25713      197.25713      197.25713     -148.42305    
    260000   701.56261     -5455310.3      197.25713      197.25713      197.25713     -112.04328    
    261000   700.16943     -5455341.2      197.25713      197.25713      197.25713     -80.109052    
    262000   700.29754     -5455358.4      197.25713      197.25713      197.25713     -347.98857    
    263000   702.11858     -5455178.6      197.25713      197.25713      197.25713     -194.46023    
    264000   701.51336     -5455278.2      197.25713      197.25713      197.25713     -224.99751    
    265000   698.79203     -5455506.6      197.25713      197.25713      197.25713     -139.77913    
    266000   699.1054      -5455415.9      197.25713      197.25713      197.25713     -327.73631    
    267000   700.36543     -5455259.2      197.25713      197.25713      197.25713     -82.780443    
    268000   699.31054     -5455418.3      197.25713      197.25713      197.25713     -186.06141    
    269000   701.02558     -5455276        197.25713      197.25713      197.25713     -208.83717    
    270000   700.46615     -5455328.4      197.25713      197.25713      197.25713     -251.61276    
    271000   700.34966     -5455327.8      197.25713      197.25713      197.25713     -73.300974    
    272000   699.16332     -5455455.2      197.25713      197.25713      197.25713     -240.13682    
    273000   699.34022     -5455450.1      197.25713      197.25713      197.25713     -209.85816    
    274000   701.25641     -5455370.7      197.25713      197.25713      197.25713     -225.0032     
    275000   699.67226     -5455421.6      197.25713      197.25713      197.25713     -39.528328    
    276000   699.98743     -5455452.3      197.25713      197.25713      197.25713     -211.11382    
    277000   701.05123     -5455329.4      197.25713      197.25713      197.25713     -94.815259    
    278000   700.14609     -5455375.6      197.25713      197.25713      197.25713     -173.02378    
    279000   699.67592     -5455265        197.25713      197.25713      197.25713     -155.9533     
    280000   698.54699     -5455454.3      197.25713      197.25713      197.25713     -114.23565    
    281000   700.52825     -5455503.2      197.25713      197.25713      197.25713     -160.33167    
    282000   700.98982     -5455317        197.25713      197.25713      197.25713     -50.090077    
    283000   701.80272     -5455265.9      197.25713      197.25713      197.25713     -85.691712    
    284000   699.27162     -5455446.8      197.25713      197.25713      197.25713     -104.38241    
    285000   700.23389     -5455332.1      197.25713      197.25713      197.25713     -192.0194     
    286000   701.38544     -5455371.5      197.25713      197.25713      197.25713     -157.68243    
    287000   698.53072     -5455459.6      197.25713      197.25713      197.25713     -125.99524    
    288000   700.23268     -5455449.2      197.25713      197.25713      197.25713     -181.87437    
    289000   699.5622      -5455481.3      197.25713      197.25713      197.25713     -181.46888    
    290000   699.49424     -5455497.5      197.25713      197.25713      197.25713     -164.58521    
    291000   700.00879     -5455409.7      197.25713      197.25713      197.25713     -229.00406    
    292000   698.88608     -5455517.1      197.25713      197.25713      197.25713     -262.49227    
    293000   698.91098     -5455397        197.25713      197.25713      197.25713     -153.37954    
    294000   700.6878      -5455314        197.25713      197.25713      197.25713     -146.14569    
    295000   701.85519     -5455248.5      197.25713      197.25713      197.25713     -180.17803    
    296000   699.66647     -5455417.5      197.25713      197.25713      197.25713     -166.26364    
    297000   699.27394     -5455435.8      197.25713      197.25713      197.25713     -165.02116    
    298000   702.20669     -5455223.6      197.25713      197.25713      197.25713     -158.11834    
    299000   699.21212     -5455403.3      197.25713      197.25713      197.25713     -223.45062    
    300000   698.89035     -5455398.3      197.25713      197.25713      197.25713     -129.28055    
    301000   699.62267     -5455457.4      197.25713      197.25713      197.25713     -154.75192    
    302000   700.01617     -5455409.6      197.25713      197.25713      197.25713     -236.00602    
    303000   697.66594     -5455534.6      197.25713      197.25713      197.25713     -271.56089    
    304000   700.15304     -5455393.1      197.25713      197.25713      197.25713     -90.578268    
    305000   699.67343     -5455363.3      197.25713      197.25713      197.25713     -317.39065    
    306000   700.02103     -5455405.4      197.25713      197.25713      197.25713     -179.71227    
    307000   699.74444     -5455384.3      197.25713      197.25713      197.25713     -219.64342    
    308000   699.68421     -5455513.4      197.25713      197.25713      197.25713     -287.2403     
    309000   699.5727      -5455341.3      197.25713      197.25713      197.25713     -115.17521    
    310000   700.11062     -5455403.7      197.25713      197.25713      197.25713     -161.65701    
    311000   699.94346     -5455398.7      197.25713      197.25713      197.25713     -141.66125    
    312000   699.85016     -5455400.8      197.25713      197.25713      197.25713     -244.45735    
    313000   699.9317      -5455394.6      197.25713      197.25713      197.25713     -263.98058    
    314000   698.36862     -5455490.3      197.25713      197.25713      197.25713     -232.05365    
    315000   699.71233     -5455416.5      197.25713      197.25713      197.25713     -111.82642    
    316000   701.20701     -5455329.8      197.25713      197.25713      197.25713     -172.87802    
    317000   701.6009      -5455279.3      197.25713      197.25713      197.25713     -63.019611    
    318000   700.76279     -5455310.5      197.25713      197.25713      197.25713     -62.025021    
    319000   698.47738     -5455552.4      197.25713      197.25713      197.25713      27.615115    
    320000   700.83821     -5455526.4      197.25713      197.25713      197.25713     -210.66539    
    321000   699.60886     -5455408.6      197.25713      197.25713      197.25713     -166.03041    
    322000   699.1091      -5455467.9      197.25713      197.25713      197.25713     -183.39252    
    323000   700.18689     -5455435.8      197.25713      197.25713      197.25713     -206.81769    
    324000   701.39424     -5455314.1      197.25713      197.25713      197.25713     -76.646786    
    325000   701.60555     -5455238.2      197.25713      197.25713      197.25713     -76.785269    
    326000   699.78439     -5455400.2      197.25713      197.25713      197.25713     -224.46505    
    327000   701.20772     -5455316.1      197.25713      197.25713      197.25713      52.10343     
    328000   698.20431     -5455437.2      197.25713      197.25713      197.25713     -83.495271    
    329000   699.63067     -5455519        197.25713      197.25713      197.25713     -359.1126     
    330000   700.6224      -5455304.6      197.25713      197.25713      197.25713     -98.192831    
    331000   701.35669     -5455337.8      197.25713      197.25713      197.25713     -159.49659    
    332000   699.49392     -5455490.2      197.25713      197.25713      197.25713     -264.81594    
    333000   700.37599     -5455343.9      197.25713      197.25713      197.25713     -83.313523    
    334000   700.70216     -5455427.9      197.25713      197.25713      197.25713     -197.45756    
    335000   699.33626     -5455442.7      197.25713      197.25713      197.25713     -133.49919    
    336000   699.24683     -5455463.8      197.25713      197.25713      197.25713     -106.01108    
    337000   699.67184     -5455358.4      197.25713      197.25713      197.25713     -23.215488    
    338000   699.23815     -5455478.5      197.25713      197.25713      197.25713     -213.24752    
    339000   700.16637     -5455440.1      197.25713      197.25713      197.25713     -98.808628    
    340000   700.55654     -5455375.6      197.25713      197.25713      197.25713     -65.800755    
    341000   701.22823     -5455359.8      197.25713      197.25713      197.25713     -62.444826    
    342000   699.0052      -5455418.5      197.25713      197.25713      197.25713      28.119453    
    343000   700.26293     -5455466.9      197.25713      197.25713      197.25713     -22.584363    
    344000   701.02893     -5455402.7      197.25713      197.25713      197.25713     -145.86162    
    345000   700.54177     -5455290.6      197.25713      197.25713      197.25713     -83.658981    
    346000   698.21753     -5455486.2      197.25713      197.25713      197.25713     -213.93288    
    347000   699.57339     -5455408.1      197.25713      197.25713      197.25713     -102.98193    
    348000   700.61381     -5455327.3      197.25713      197.25713      197.25713     -75.264455    
    349000   700.26775     -5455416        197.25713      197.25713      197.25713     -147.65653    
    350000   700.87855     -5455351.4      197.25713      197.25713      197.25713     -155.9218     
    351000   701.06135     -5455282.2      197.25713      197.25713      197.25713     -203.65883    
    352000   699.45222     -5455375.5      197.25713      197.25713      197.25713     -98.436296    
    353000   699.84378     -5455360.1      197.25713      197.25713      197.25713     -16.748597    
    354000   699.41387     -5455465.8      197.25713      197.25713      197.25713     -221.88392    
    355000   700.75995     -5455491.8      197.25713      197.25713      197.25713     -356.22794    
    356000   700.02601     -5455454.3      197.25713      197.25713      197.25713     -119.03226    
    357000   699.76292     -5455445        197.25713      197.25713      197.25713     -86.87061     
    358000   700.95884     -5455309.7      197.25713      197.25713      197.25713     -201.04427    
    359000   698.83175     -5455474.6      197.25713      197.25713      197.25713     -192.54306    
    360000   699.94094     -5455396.9      197.25713      197.25713      197.25713     -246.04703    
    361000   698.96053     -5455504.6      197.25713      197.25713      197.25713     -133.24071    
    362000   700.23703     -5455365.9      197.25713      197.25713      197.25713     -229.10758    
    363000   699.49098     -5455500.7      197.25713      197.25713      197.25713     -14.224727    
    364000   699.78091     -5455449.4      197.25713      197.25713      197.25713     -190.32036    
    365000   700.17406     -5455374.1      197.25713      197.25713      197.25713     -112.64722    
    366000   700.79088     -5455377.6      197.25713      197.25713      197.25713     -141.87824    
    367000   700.21963     -5455404.1      197.25713      197.25713      197.25713     -80.042187    
    368000   699.25313     -5455413        197.25713      197.25713      197.25713     -79.065499    
    369000   701.1799      -5455427.1      197.25713      197.25713      197.25713     -93.76299     
    370000   699.38364     -5455378.6      197.25713      197.25713      197.25713     -19.210563    
    371000   699.79427     -5455407.9      197.25713      197.25713      197.25713     -234.86422    
    372000   700.37926     -5455449        197.25713      197.25713      197.25713     -173.48203    
    373000   699.4896      -5455477.6      197.25713      197.25713      197.25713     -191.82783    
    374000   701.59061     -5455370.2      197.25713      197.25713      197.25713     -124.65911    
    375000   701.22085     -5455179.4      197.25713      197.25713      197.25713      35.519828    
    376000   700.22146     -5455384.5      197.25713      197.25713      197.25713     -17.454367    
    377000   699.79674     -5455437.9      197.25713      197.25713      197.25713     -169.57002    
    378000   700.55103     -5455345.8      197.25713      197.25713      197.25713     -136.64188    
    379000   701.16347     -5455307.5      197.25713      197.25713      197.25713     -127.40433    
    380000   699.90224     -5455335.9      197.25713      197.25713      197.25713      4.0513705    
    381000   700.90316     -5455392.6      197.25713      197.25713      197.25713     -125.60957    
    382000   698.95369     -5455569.1      197.25713      197.25713      197.25713     -209.09661    
    383000   698.05727     -5455522        197.25713      197.25713      197.25713     -231.25381    
    384000   700.46131     -5455399.2      197.25713      197.25713      197.25713     -153.39579    
    385000   699.20534     -5455320.8      197.25713      197.25713      197.25713     -316.82832    
    386000   699.98539     -5455426.7      197.25713      197.25713      197.25713     -215.59786    
    387000   699.05043     -5455442.7      197.25713      197.25713      197.25713     -155.75901    
    388000   698.40361     -5455549.3      197.25713      197.25713      197.25713     -298.42911    
    389000   700.34579     -5455366.2      197.25713      197.25713      197.25713     -52.362899    
    390000   699.43459     -5455351.2      197.25713      197.25713      197.25713     -51.407596    
    391000   699.46658     -5455345.7      197.25713      197.25713      197.25713     -58.40026     
    392000   700.19675     -5455423.4      197.25713      197.25713      197.25713     -75.699548    
    393000   700.21808     -5455383.1      197.25713      197.25713      197.25713     -193.22678    
    394000   699.79314     -5455393.5      197.25713      197.25713      197.25713     -273.4839     
    395000   699.88913     -5455388        197.25713      197.25713      197.25713     -283.58216    
    396000   699.45074     -5455381.5      197.25713      197.25713      197.25713     -278.26414    
    397000   698.63054     -5455478.8      197.25713      197.25713      197.25713     -37.94103     
    398000   698.32387     -5455485.9      197.25713      197.25713      197.25713     -153.81704    
    399000   697.59739     -5455665.7      197.25713      197.25713      197.25713     -172.57697    
    400000   700.61547     -5455284.1      197.25713      197.25713      197.25713     -85.960573    
    401000   699.78682     -5455419.5      197.25713      197.25713      197.25713     -186.32212    
    402000   700.10601     -5455534.3      197.25713      197.25713      197.25713     -152.17844    
    403000   700.92117     -5455371.8      197.25713      197.25713      197.25713     -154.80783    
    404000   698.67094     -5455482.5      197.25713      197.25713      197.25713     -131.85663    
    405000   701.3263      -5455375.4      197.25713      197.25713      197.25713     -233.24942    
    406000   698.03325     -5455493.4      197.25713      197.25713      197.25713     -306.0261     
    407000   699.91669     -5455386.1      197.25713      197.25713      197.25713      50.923286    
    408000   700.26646     -5455372.9      197.25713      197.25713      197.25713     -71.286257    
    409000   700.42014     -5455342.6      197.25713      197.25713      197.25713     -92.76121     
    410000   699.96761     -5455493.4      197.25713      197.25713      197.25713     -138.23529    
    411000   700.44577     -5455451.5      197.25713      197.25713      197.25713     -157.33025    
    412000   700.75281     -5455357.7      197.25713      197.25713      197.25713     -157.70481    
    413000   701.04608     -5455308.7      197.25713      197.25713      197.25713     -104.82839    
    414000   700.82743     -5455454.3      197.25713      197.25713      197.25713     -352.61381    
    415000   699.9485      -5455476.4      197.25713      197.25713      197.25713     -272.76107    
    416000   699.38697     -5455403.5      197.25713      197.25713      197.25713     -181.91574    
    417000   699.23687     -5455437.5      197.25713      197.25713      197.25713     -195.03023    
    418000   700.35186     -5455366.5      197.25713      197.25713      197.25713     -75.036591    
    419000   699.56593     -5455453.8      197.25713      197.25713      197.25713     -215.96684    
    420000   701.65331     -5455348        197.25713      197.25713      197.25713     -50.565476    
    421000   700.57858     -5455297.1      197.25713      197.25713      197.25713     -121.98159    
    422000   699.62351     -5455501.1      197.25713      197.25713      197.25713     -227.86527    
    423000   698.98267     -5455673.9      197.25713      197.25713      197.25713     -163.36612    
    424000   700.88635     -5455427.2      197.25713      197.25713      197.25713     -174.93868    
    425000   701.66025     -5455306.5      197.25713      197.25713      197.25713     -182.05565    
    426000   701.36027     -5455317.2      197.25713      197.25713      197.25713     -127.61574    
    427000   701.43199     -5455390.8      197.25713      197.25713      197.25713     -245.50779    
    428000   700.41208     -5455379.8      197.25713      197.25713      197.25713     -253.31776    
    429000   700.83856     -5455353.4      197.25713      197.25713      197.25713     -20.160331    
    430000   699.67498     -5455476.6      197.25713      197.25713      197.25713     -227.04371    
    431000   700.58512     -5455457        197.25713      197.25713      197.25713     -136.8986     
    432000   699.2452      -5455517.3      197.25713      197.25713      197.25713     -208.33099    
    433000   699.24173     -5455423.1      197.25713      197.25713      197.25713     -118.75746    
    434000   700.71973     -5455336.6      197.25713      197.25713      197.25713     -171.123      
    435000   701.89406     -5455350.3      197.25713      197.25713      197.25713     -193.572      
    436000   700.42831     -5455311.9      197.25713      197.25713      197.25713     -233.16502    
    437000   697.76067     -5455484.2      197.25713      197.25713      197.25713     -214.28548    
    438000   700.74153     -5455364.8      197.25713      197.25713      197.25713     -178.72409    
    439000   699.47254     -5455463.7      197.25713      197.25713      197.25713     -249.55289    
    440000   699.11988     -5455391.9      197.25713      197.25713      197.25713     -120.26945    
    441000   698.49702     -5455586        197.25713      197.25713      197.25713     -74.104198    
    442000   700.59996     -5455452.9      197.25713      197.25713      197.25713     -198.45098    
    443000   699.80785     -5455524.6      197.25713      197.25713      197.25713     -211.6612     
    444000   699.71981     -5455475.3      197.25713      197.25713      197.25713     -181.71924    
    445000   699.04725     -5455552        197.25713      197.25713      197.25713     -144.9341     
    446000   699.50208     -5455434.8      197.25713      197.25713      197.25713     -249.94327    
    447000   698.79001     -5455613.6      197.25713      197.25713      197.25713     -237.76825    
    448000   699.81539     -5455390.5      197.25713      197.25713      197.25713     -80.02295     
    449000   699.49785     -5455384.8      197.25713      197.25713      197.25713     -225.25133    
    450000   699.52857     -5455449.6      197.25713      197.25713      197.25713     -246.9314     
    451000   698.86108     -5455501.3      197.25713      197.25713      197.25713     -297.73146    
    452000   699.7893      -5455452.9      197.25713      197.25713      197.25713     -179.38823    
    453000   699.34031     -5455488.9      197.25713      197.25713      197.25713     -97.549882    
    454000   700.81993     -5455422.8      197.25713      197.25713      197.25713     -198.84682    
    455000   700.09237     -5455422.5      197.25713      197.25713      197.25713     -127.74378    
    456000   700.92905     -5455457.4      197.25713      197.25713      197.25713     -196.28372    
    457000   699.06143     -5455567.9      197.25713      197.25713      197.25713     -106.35859    
    458000   698.35682     -5455573.4      197.25713      197.25713      197.25713     -122.57494    
    459000   700.19564     -5455494.3      197.25713      197.25713      197.25713     -54.611607    
    460000   700.34309     -5455379.3      197.25713      197.25713      197.25713     -189.98229    
    461000   699.67962     -5455469.6      197.25713      197.25713      197.25713     -112.58092    
    462000   699.94512     -5455499.3      197.25713      197.25713      197.25713     -221.94151    
    463000   699.6257      -5455488.8      197.25713      197.25713      197.25713     -165.24002    
    464000   700.15042     -5455481.3      197.25713      197.25713      197.25713     -29.057866    
    465000   698.98278     -5455595        197.25713      197.25713      197.25713     -152.07222    
    466000   699.20717     -5455486.1      197.25713      197.25713      197.25713      1.1051635    
    467000   700.91553     -5455404.1      197.25713      197.25713      197.25713     -187.51912    
    468000   699.51794     -5455581.4      197.25713      197.25713      197.25713     -183.28892    
    469000   699.30776     -5455441.6      197.25713      197.25713      197.25713     -122.29704    
    470000   700.14464     -5455386        197.25713      197.25713      197.25713     -25.033163    
    471000   701.54089     -5455385.5      197.25713      197.25713      197.25713     -132.65973    
    472000   700.53249     -5455399.4      197.25713      197.25713      197.25713     -90.959758    
    473000   700.72902     -5455395        197.25713      197.25713      197.25713     -73.801544    
    474000   698.97117     -5455482.4      197.25713      197.25713      197.25713     -288.58498    
    475000   699.586       -5455522.7      197.25713      197.25713      197.25713     -109.07464    
    476000   699.60656     -5455356.9      197.25713      197.25713      197.25713     -121.53977    
    477000   700.50094     -5455454        197.25713      197.25713      197.25713     -192.82701    
    478000   700.24384     -5455326.7      197.25713      197.25713      197.25713     -168.565      
    479000   699.50262     -5455530.8      197.25713      197.25713      197.25713     -223.39316    
    480000   701.26972     -5455353.6      197.25713      197.25713      197.25713     -68.545106    
    481000   701.59664     -5455467.4      197.25713      197.25713      197.25713     -56.863152    
    482000   699.98522     -5455550.6      197.25713      197.25713      197.25713     -235.12866    
    483000   699.54859     -5455422.1      197.25713      197.25713      197.25713     -26.103219    
    484000   699.98828     -5455440.9      197.25713      197.25713      197.25713     -206.48331    
    485000   700.52913     -5455387.4      197.25713      197.25713      197.25713     -129.45853    
    486000   700.31767     -5455499.8      197.25713      197.25713      197.25713     -70.711417    
    487000   699.64749     -5455438.7      197.25713      197.25713      197.25713     -142.09593    
    488000   698.20664     -5455579.9      197.25713      197.25713      197.25713     -176.11647    
    489000   699.07348     -5455537.8      197.25713      197.25713      197.25713     -45.920845    
    490000   699.59908     -5455430.2      197.25713      197.25713      197.25713     -78.364275    
    491000   701.61691     -5455400.2      197.25713      197.25713      197.25713     -76.211934    
    492000   699.88425     -5455537.7      197.25713      197.25713      197.25713     -143.67652    
    493000   699.11484     -5455495        197.25713      197.25713      197.25713     -124.3694     
    494000   699.55063     -5455479        197.25713      197.25713      197.25713     -174.02146    
    495000   699.41259     -5455446.7      197.25713      197.25713      197.25713     -136.99444    
    496000   699.80863     -5455430.2      197.25713      197.25713      197.25713     -103.40999    
    497000   701.56497     -5455390.3      197.25713      197.25713      197.25713     -38.909077    
    498000   698.76682     -5455539.7      197.25713      197.25713      197.25713     -34.195165    
    499000   697.81575     -5455710.4      197.25713      197.25713      197.25713     -261.20645    
    500000   700.5997      -5455366.6      197.25713      197.25713      197.25713     -87.960804    
    501000   699.19472     -5455501.3      197.25713      197.25713      197.25713     -181.34516    
    502000   698.44251     -5455664.1      197.25713      197.25713      197.25713     -290.83725    
    503000   701.24791     -5455462.8      197.25713      197.25713      197.25713     -152.36478    
    504000   700.09107     -5455502.8      197.25713      197.25713      197.25713     -105.7543     
    505000   699.64527     -5455574.5      197.25713      197.25713      197.25713     -305.02376    
    506000   698.66877     -5455486.8      197.25713      197.25713      197.25713     -281.65473    
    507000   701.23206     -5455377.8      197.25713      197.25713      197.25713     -188.1585     
    508000   700.0326      -5455467.1      197.25713      197.25713      197.25713     -109.65499    
    509000   702.35497     -5455291.8      197.25713      197.25713      197.25713     -113.64876    
    510000   701.00258     -5455402.3      197.25713      197.25713      197.25713     -213.34414    
    511000   700.78852     -5455393.2      197.25713      197.25713      197.25713     -238.72955    
    512000   700.59944     -5455418.8      197.25713      197.25713      197.25713     -104.21628    
    513000   700.28525     -5455385.4      197.25713      197.25713      197.25713     -174.49012    
    514000   700.30852     -5455499.7      197.25713      197.25713      197.25713     -62.802997    
    515000   700.34759     -5455474.6      197.25713      197.25713      197.25713     -242.48146    
    516000   700.74838     -5455403.3      197.25713      197.25713      197.25713     -87.336649    
    517000   699.47697     -5455541.9      197.25713      197.25713      197.25713     -61.88532     
    518000   700.36982     -5455424.8      197.25713      197.25713      197.25713     -157.20841    
    519000   701.31585     -5455336.7      197.25713      197.25713      197.25713     -156.78278    
    520000   699.76434     -5455428.2      197.25713      197.25713      197.25713     -128.75308    
    521000   700.27281     -5455477.7      197.25713      197.25713      197.25713     -152.87348    
    522000   699.2442      -5455492        197.25713      197.25713      197.25713     -201.46768    
    523000   699.75373     -5455405.9      197.25713      197.25713      197.25713     -91.555802    
    524000   700.98156     -5455424.7      197.25713      197.25713      197.25713      7.5034457    
    525000   699.56814     -5455552.3      197.25713      197.25713      197.25713     -122.27032    
    526000   700.15844     -5455441        197.25713      197.25713      197.25713     -162.15399    
    527000   700.56294     -5455436.2      197.25713      197.25713      197.25713     -210.76941    
    528000   699.67981     -5455388.2      197.25713      197.25713      197.25713     -212.02155    
    529000   698.59366     -5455511.7      197.25713      197.25713      197.25713     -191.51861    
    530000   699.75959     -5455471.2      197.25713      197.25713      197.25713     -201.23352    
    531000   699.85585     -5455559.8      197.25713      197.25713      197.25713     -259.80744    
    532000   700.17001     -5455427.2      197.25713      197.25713      197.25713     -215.30832    
    533000   700.51466     -5455417.6      197.25713      197.25713      197.25713     -138.20645    
    534000   699.80599     -5455405.8      197.25713      197.25713      197.25713     -264.07368    
    535000   699.24544     -5455510.2      197.25713      197.25713      197.25713     -116.89355    
    536000   700.39052     -5455527.3      197.25713      197.25713      197.25713     -149.46515    
    537000   700.58105     -5455464.8      197.25713      197.25713      197.25713     -161.66842    
    538000   700.0432      -5455528.2      197.25713      197.25713      197.25713     -184.80075    
    539000   699.98217     -5455486.1      197.25713      197.25713      197.25713     -180.91562    
    540000   700.49888     -5455471        197.25713      197.25713      197.25713     -69.083279    
    541000   699.91546     -5455509.7      197.25713      197.25713      197.25713     -169.289      
    542000   700.0438      -5455495.5      197.25713      197.25713      197.25713     -89.30666     
    543000   700.8025      -5455414.3      197.25713      197.25713      197.25713     -161.7534     
    544000   698.68512     -5455499.6      197.25713      197.25713      197.25713     -177.35143    
    545000   701.21011     -5455430.5      197.25713      197.25713      197.25713     -164.55567    
    546000   700.10493     -5455368.6      197.25713      197.25713      197.25713     -97.977841    
    547000   700.30712     -5455487.9      197.25713      197.25713      197.25713     -167.88603    
    548000   698.53952     -5455640.8      197.25713      197.25713      197.25713     -202.18053    
    549000   699.24312     -5455517.7      197.25713      197.25713      197.25713     -140.80766    
    550000   700.55733     -5455397.6      197.25713      197.25713      197.25713     -104.15525    
    551000   700.3392      -5455375.5      197.25713      197.25713      197.25713     -126.82184    
    552000   700.55163     -5455403.6      197.25713      197.25713      197.25713     -118.95466    
    553000   700.23771     -5455512.2      197.25713      197.25713      197.25713     -83.839343    
    554000   700.61511     -5455426.1      197.25713      197.25713      197.25713     -135.36304    
    555000   700.13706     -5455502.8      197.25713      197.25713      197.25713     -240.06433    
    556000   699.83234     -5455416.9      197.25713      197.25713      197.25713     -102.71498    
    557000   701.13013     -5455444.1      197.25713      197.25713      197.25713     -160.74989    
    558000   699.9425      -5455518.6      197.25713      197.25713      197.25713     -253.54296    
    559000   700.87245     -5455470.3      197.25713      197.25713      197.25713     -291.80792    
    560000   700.40168     -5455377.2      197.25713      197.25713      197.25713     -146.4268     
    561000   700.31606     -5455540.1      197.25713      197.25713      197.25713     -138.2953     
    562000   700.94294     -5455450.4      197.25713      197.25713      197.25713     -207.21331    
    563000   700.31128     -5455396.2      197.25713      197.25713      197.25713     -105.07326    
    564000   699.13497     -5455563        197.25713      197.25713      197.25713     -129.0814     
    565000   700.72009     -5455443.2      197.25713      197.25713      197.25713     -132.12444    
    566000   699.06081     -5455444.8      197.25713      197.25713      197.25713     -99.05447     
    567000   700.15378     -5455391.4      197.25713      197.25713      197.25713     -267.0584     
    568000   700.59125     -5455361.1      197.25713      197.25713      197.25713     -20.855605    
    569000   699.55611     -5455616.9      197.25713      197.25713      197.25713     -274.9471     
    570000   700.92733     -5455404.4      197.25713      197.25713      197.25713     -174.56623    
    571000   699.90301     -5455536.9      197.25713      197.25713      197.25713     -140.69479    
    572000   700.47836     -5455462        197.25713      197.25713      197.25713     -307.99723    
    573000   700.5822      -5455416        197.25713      197.25713      197.25713     -105.49135    
    574000   698.7553      -5455593.2      197.25713      197.25713      197.25713     -143.62438    
    575000   698.94713     -5455556.6      197.25713      197.25713      197.25713     -171.72662    
    576000   700.85549     -5455407.8      197.25713      197.25713      197.25713     -165.26632    
    577000   699.82307     -5455418.1      197.25713      197.25713      197.25713     -107.29035    
    578000   699.91843     -5455494.3      197.25713      197.25713      197.25713     -195.19029    
    579000   698.81582     -5455503.2      197.25713      197.25713      197.25713     -189.77368    
    580000   700.26042     -5455490.3      197.25713      197.25713      197.25713     -274.18768    
    581000   699.65534     -5455447.6      197.25713      197.25713      197.25713      49.712908    
    582000   701.12532     -5455444.1      197.25713      197.25713      197.25713     -238.09928    
    583000   698.14819     -5455614.8      197.25713      197.25713      197.25713     -319.01688    
    584000   700.83005     -5455397.3      197.25713      197.25713      197.25713     -244.61134    
    585000   700.48795     -5455446.9      197.25713      197.25713      197.25713     -114.08258    
    586000   700.26217     -5455389.6      197.25713      197.25713      197.25713     -152.78849    
    587000   699.83778     -5455491.5      197.25713      197.25713      197.25713     -152.93666    
    588000   699.94635     -5455503.9      197.25713      197.25713      197.25713     -168.43686    
    589000   700.27128     -5455413.4      197.25713      197.25713      197.25713     -209.6121     
    590000   700.81897     -5455349.3      197.25713      197.25713      197.25713     -146.01165    
    591000   698.98624     -5455516.7      197.25713      197.25713      197.25713     -240.79868    
    592000   699.70786     -5455494.4      197.25713      197.25713      197.25713     -242.77607    
    593000   700.97361     -5455484.5      197.25713      197.25713      197.25713     -254.4583     
    594000   699.62299     -5455543.2      197.25713      197.25713      197.25713     -64.933707    
    595000   700.20431     -5455457.4      197.25713      197.25713      197.25713     -89.79024     
    596000   700.87618     -5455374.6      197.25713      197.25713      197.25713     -37.568302    
    597000   700.10424     -5455489.2      197.25713      197.25713      197.25713     -82.090321    
    598000   700.59013     -5455481.4      197.25713      197.25713      197.25713     -121.82712    
    599000   699.7984      -5455557.5      197.25713      197.25713      197.25713     -243.80799    
    600000   700.58868     -5455383.4      197.25713      197.25713      197.25713     -86.532142    
    601000   699.87062     -5455506        197.25713      197.25713      197.25713     -96.566943    
    602000   700.93265     -5455412.7      197.25713      197.25713      197.25713     -105.13253    
    603000   700.5644      -5455431.6      197.25713      197.25713      197.25713     -47.144272    
    604000   699.0802      -5455522        197.25713      197.25713      197.25713     -103.525      
    605000   699.64253     -5455486.5      197.25713      197.25713      197.25713     -191.22736    
    606000   700.37972     -5455467.5      197.25713      197.25713      197.25713     -207.68122    
    607000   699.5364      -5455576.5      197.25713      197.25713      197.25713     -258.86527    
    608000   700.80996     -5455355.5      197.25713      197.25713      197.25713     -240.18853    
    609000   698.81352     -5455533.7      197.25713      197.25713      197.25713     -109.21722    
    610000   700.49631     -5455512        197.25713      197.25713      197.25713     -174.35346    
    611000   699.62828     -5455494.9      197.25713      197.25713      197.25713     -111.55403    
    612000   700.61389     -5455324        197.25713      197.25713      197.25713     -6.2888341    
    613000   700.5143      -5455464.5      197.25713      197.25713      197.25713     -65.054192    
    614000   700.22121     -5455559.9      197.25713      197.25713      197.25713     -86.687621    
    615000   698.48235     -5455609.4      197.25713      197.25713      197.25713     -150.85817    
    616000   701.05527     -5455437.7      197.25713      197.25713      197.25713     -268.03801    
    617000   698.3302      -5455622        197.25713      197.25713      197.25713     -194.44954    
    618000   699.45008     -5455548.1      197.25713      197.25713      197.25713     -259.53006    
    619000   700.14329     -5455495.6      197.25713      197.25713      197.25713     -181.68242    
    620000   700.10377     -5455341.2      197.25713      197.25713      197.25713      1.1913038    
    621000   700.54826     -5455461.3      197.25713      197.25713      197.25713     -100.98071    
    622000   700.78653     -5455516.6      197.25713      197.25713      197.25713     -99.169629    
    623000   699.42804     -5455515.3      197.25713      197.25713      197.25713     -146.31956    
    624000   701.09599     -5455378.8      197.25713      197.25713      197.25713     -97.105103    
    625000   698.8492      -5455665.5      197.25713      197.25713      197.25713     -191.0584     
    626000   698.89511     -5455515.7      197.25713      197.25713      197.25713     -189.19881    
    627000   700.87845     -5455452.8      197.25713      197.25713      197.25713     -44.127084    
    628000   700.343       -5455426.1      197.25713      197.25713      197.25713     -203.08616    
    629000   700.5         -5455579.7      197.25713      197.25713      197.25713     -25.530691    
    630000   700.82085     -5455586.8      197.25713      197.25713      197.25713     -280.80082    
    631000   700.51338     -5455445.8      197.25713      197.25713      197.25713     -179.56276    
    632000   701.19744     -5455397        197.25713      197.25713      197.25713     -131.177      
    633000   700.17719     -5455383.9      197.25713      197.25713      197.25713     -44.342645    
    634000   699.98757     -5455425.7      197.25713      197.25713      197.25713     -125.53553    
    635000   700.60641     -5455501.2      197.25713      197.25713      197.25713     -202.10817    
    636000   699.92887     -5455557.7      197.25713      197.25713      197.25713     -245.70864    
    637000   700.37544     -5455429.9      197.25713      197.25713      197.25713     -212.62793    
    638000   701.10872     -5455368.1      197.25713      197.25713      197.25713     -54.566301    
    639000   700.25709     -5455506.2      197.25713      197.25713      197.25713     -210.54221    
    640000   700.53903     -5455514.5      197.25713      197.25713      197.25713     -21.882222    
    641000   699.03632     -5455561        197.25713      197.25713      197.25713     -50.293917    
    642000   700.25866     -5455536.7      197.25713      197.25713      197.25713     -177.06841    
    643000   698.64438     -5455616        197.25713      197.25713      197.25713     -278.97948    
    644000   698.65634     -5455592.3      197.25713      197.25713      197.25713     -163.29208    
    645000   700.68451     -5455513.5      197.25713      197.25713      197.25713     -253.83049    
    646000   700.7869      -5455498.5      197.25713      197.25713      197.25713     -289.79086    
    647000   700.472       -5455491.8      197.25713      197.25713      197.25713     -205.53039    
    648000   701.02333     -5455472        197.25713      197.25713      197.25713     -201.65348    
    649000   700.61668     -5455439.6      197.25713      197.25713      197.25713     -45.214518    
    650000   699.92779     -5455405        197.25713      197.25713      197.25713     -198.62191    
    651000   698.14701     -5455649.5      197.25713      197.25713      197.25713     -235.35622    
    652000   700.77252     -5455463.6      197.25713      197.25713      197.25713     -192.93454    
    653000   699.85804     -5455515.7      197.25713      197.25713      197.25713     -252.00478    
    654000   701.06169     -5455344.5      197.25713      197.25713      197.25713     -102.99374    
    655000   699.35174     -5455591.2      197.25713      197.25713      197.25713     -295.86611    
    656000   699.82836     -5455547.2      197.25713      197.25713      197.25713     -228.68761    
    657000   699.08929     -5455535.5      197.25713      197.25713      197.25713     -267.52781    
    658000   699.31097     -5455521.1      197.25713      197.25713      197.25713     -222.1092     
    659000   699.41207     -5455406.1      197.25713      197.25713      197.25713     -295.08106    
    660000   699.82103     -5455452.4      197.25713      197.25713      197.25713     -320.13239    
    661000   700.57107     -5455557.8      197.25713      197.25713      197.25713     -345.42957    
    662000   700.86971     -5455471.9      197.25713      197.25713      197.25713     -139.69441    
    663000   699.32198     -5455465.6      197.25713      197.25713      197.25713     -164.43745    
    664000   701.85785     -5455354.4      197.25713      197.25713      197.25713     -336.57796    
    665000   701.807       -5455358.5      197.25713      197.25713      197.25713     -245.05612    
    666000   699.93567     -5455516.3      197.25713      197.25713      197.25713     -390.86806    
    667000   699.8606      -5455525.8      197.25713      197.25713      197.25713     -50.113155    
    668000   699.86636     -5455528.4      197.25713      197.25713      197.25713     -106.8957     
    669000   699.21495     -5455582.6      197.25713      197.25713      197.25713     -71.829281    
    670000   699.49114     -5455545.8      197.25713      197.25713      197.25713     -72.897824    
    671000   699.50695     -5455561.8      197.25713      197.25713      197.25713     -215.32366    
    672000   699.10802     -5455589.3      197.25713      197.25713      197.25713     -148.49137    
    673000   698.8371      -5455582.8      197.25713      197.25713      197.25713     -250.03646    
    674000   698.67079     -5455525.3      197.25713      197.25713      197.25713     -54.537632    
    675000   699.20316     -5455571.3      197.25713      197.25713      197.25713     -87.058955    
    676000   699.65477     -5455467.5      197.25713      197.25713      197.25713     -114.08851    
    677000   699.63588     -5455453.8      197.25713      197.25713      197.25713     -157.22705    
    678000   701.37068     -5455458.9      197.25713      197.25713      197.25713     -256.27324    
    679000   700.11311     -5455614        197.25713      197.25713      197.25713     -334.60117    
    680000   700.55167     -5455502.2      197.25713      197.25713      197.25713     -167.53712    
    681000   700.55145     -5455508.5      197.25713      197.25713      197.25713     -208.20611    
    682000   700.87035     -5455526.8      197.25713      197.25713      197.25713     -151.72397    
    683000   699.65848     -5455502.2      197.25713      197.25713      197.25713     -122.08588    
    684000   699.66309     -5455647.2      197.25713      197.25713      197.25713     -236.41118    
    685000   700.11135     -5455556.1      197.25713      197.25713      197.25713     -182.87996    
    686000   699.06906     -5455487.6      197.25713      197.25713      197.25713     -149.8888     
    687000   700.45379     -5455444.7      197.25713      197.25713      197.25713     -250.90414    
    688000   700.62471     -5455488.6      197.25713      197.25713      197.25713     -226.90041    
    689000   698.66749     -5455603.8      197.25713      197.25713      197.25713     -162.80702    
    690000   701.20538     -5455385.8      197.25713      197.25713      197.25713     -81.324485    
    691000   698.19456     -5455533.3      197.25713      197.25713      197.25713     -229.90821    
    692000   701.00348     -5455409.6      197.25713      197.25713      197.25713     -142.15325    
    693000   700.65876     -5455446        197.25713      197.25713      197.25713     -85.809464    
    694000   699.28467     -5455552        197.25713      197.25713      197.25713     -24.749016    
    695000   700.10333     -5455392.8      197.25713      197.25713      197.25713     -156.02854    
    696000   699.88871     -5455497.8      197.25713      197.25713      197.25713     -274.08705    
    697000   699.73149     -5455473.7      197.25713      197.25713      197.25713     -372.83632    
    698000   701.49583     -5455439.9      197.25713      197.25713      197.25713     -212.94719    
    699000   699.71715     -5455477.5      197.25713      197.25713      197.25713     -182.78601    
    700000   699.89078     -5455519.9      197.25713      197.25713      197.25713     -366.42101    
    701000   699.99568     -5455570.5      197.25713      197.25713      197.25713     -241.69811    
    702000   699.07037     -5455440.6      197.25713      197.25713      197.25713     -231.60089    
    703000   700.81256     -5455490.9      197.25713      197.25713      197.25713     -191.49114    
    704000   701.24817     -5455422.4      197.25713      197.25713      197.25713     -0.71358027   
    705000   700.10453     -5455451.7      197.25713      197.25713      197.25713     -159.55065    
    706000   699.34912     -5455582.4      197.25713      197.25713      197.25713     -140.56853    
    707000   699.79284     -5455514.7      197.25713      197.25713      197.25713     -21.039143    
    708000   699.83791     -5455455.5      197.25713      197.25713      197.25713     -108.38813    
    709000   700.6789      -5455474.3      197.25713      197.25713      197.25713     -94.796194    
    710000   699.23366     -5455637.3      197.25713      197.25713      197.25713     -27.515867    
    711000   699.83808     -5455505.2      197.25713      197.25713      197.25713     -26.060484    
    712000   700.50362     -5455419.3      197.25713      197.25713      197.25713     -122.55563    
    713000   698.32284     -5455664.6      197.25713      197.25713      197.25713     -139.01891    
    714000   701.37244     -5455473.1      197.25713      197.25713      197.25713     -47.509406    
    715000   700.73821     -5455473.7      197.25713      197.25713      197.25713     -251.6829     
    716000   699.01684     -5455470.4      197.25713      197.25713      197.25713     -210.00175    
    717000   701.17506     -5455410.8      197.25713      197.25713      197.25713     -113.1816     
    718000   699.17763     -5455522.1      197.25713      197.25713      197.25713     -135.63507    
    719000   699.16577     -5455615.6      197.25713      197.25713      197.25713     -27.965612    
    720000   698.70234     -5455653        197.25713      197.25713      197.25713     -139.40173    
    721000   699.56872     -5455561.4      197.25713      197.25713      197.25713      9.2655212    
    722000   700.34347     -5455531.4      197.25713      197.25713      197.25713     -182.96483    
    723000   700.29222     -5455639.9      197.25713      197.25713      197.25713     -154.78564    
    724000   701.19604     -5455466.6      197.25713      197.25713      197.25713     -42.960778    
    725000   697.79593     -5455696.6      197.25713      197.25713      197.25713     -24.085662    
    726000   701.2664      -5455413.5      197.25713      197.25713      197.25713     -77.769114    
    727000   699.52814     -5455545.2      197.25713      197.25713      197.25713     -210.96335    
    728000   700.32724     -5455497.5      197.25713      197.25713      197.25713     -27.573676    
    729000   699.66442     -5455573.5      197.25713      197.25713      197.25713     -111.46679    
    730000   699.60044     -5455556.5      197.25713      197.25713      197.25713     -75.871389    
    731000   701.45075     -5455401        197.25713      197.25713      197.25713     -207.54227    
    732000   702.42709     -5455377.2      197.25713      197.25713      197.25713     -145.62596    
    733000   699.4534      -5455442.1      197.25713      197.25713      197.25713     -211.17979    
    734000   699.23574     -5455532        197.25713      197.25713      197.25713     -230.36453    
    735000   700.02926     -5455551.6      197.25713      197.25713      197.25713     -160.41751    
    736000   700.20308     -5455506.5      197.25713      197.25713      197.25713     -135.75224    
    737000   700.90779     -5455461.8      197.25713      197.25713      197.25713     -241.54039    
    738000   700.74264     -5455434.2      197.25713      197.25713      197.25713     -142.73839    
    739000   699.76079     -5455581.3      197.25713      197.25713      197.25713     -30.896957    
    740000   700.3842      -5455544.3      197.25713      197.25713      197.25713     -180.71466    
    741000   699.31024     -5455716.1      197.25713      197.25713      197.25713     -213.67624    
    742000   700.27587     -5455390.9      197.25713      197.25713      197.25713     -133.97735    
    743000   701.42011     -5455381.4      197.25713      197.25713      197.25713      9.0527609    
    744000   700.33512     -5455446.3      197.25713      197.25713      197.25713     -156.27433    
    745000   698.94937     -5455637        197.25713      197.25713      197.25713     -329.62781    
    746000   701.37226     -5455405.6      197.25713      197.25713      197.25713     -87.38797     
    747000   699.84464     -5455512.3      197.25713      197.25713      197.25713     -209.43711    
    748000   699.29991     -5455635.4      197.25713      197.25713      197.25713     -182.01967    
    749000   701.0858      -5455360.6      197.25713      197.25713      197.25713     -81.822676    
    750000   700.91877     -5455474.9      197.25713      197.25713      197.25713     -149.44593    
    751000   700.50232     -5455555.5      197.25713      197.25713      197.25713     -148.79434    
    752000   700.78436     -5455514.6      197.25713      197.25713      197.25713     -72.89186     
    753000   700.16515     -5455525        197.25713      197.25713      197.25713     -299.05513    
    754000   701.51352     -5455345.1      197.25713      197.25713      197.25713     -255.35908    
    755000   698.77135     -5455666.8      197.25713      197.25713      197.25713     -86.863839    
    756000   699.20119     -5455557.4      197.25713      197.25713      197.25713     -171.80398    
    757000   700.44987     -5455566.5      197.25713      197.25713      197.25713     -316.50831    
    758000   700.30012     -5455436.8      197.25713      197.25713      197.25713     -151.38277    
    759000   700.03472     -5455481.3      197.25713      197.25713      197.25713     -247.66102    
    760000   700.00722     -5455502.2      197.25713      197.25713      197.25713     -86.220417    
    761000   700.91425     -5455477.9      197.25713      197.25713      197.25713     -117.11269    
    762000   700.39474     -5455478.6      197.25713      197.25713      197.25713     -102.14873    
    763000   701.66964     -5455421.2      197.25713      197.25713      197.25713     -98.622762    
    764000   699.91599     -5455501.6      197.25713      197.25713      197.25713     -246.28755    
    765000   701.17911     -5455549.6      197.25713      197.25713      197.25713     -248.39322    
    766000   701.76244     -5455489.8      197.25713      197.25713      197.25713     -101.98939    
    767000   700.02286     -5455562.7      197.25713      197.25713      197.25713     -308.03489    
    768000   701.09881     -5455445        197.25713      197.25713      197.25713     -162.76314    
    769000   699.87765     -5455506.2      197.25713      197.25713      197.25713     -157.10094    
    770000   700.62832     -5455515.8      197.25713      197.25713      197.25713     -161.60632    
    771000   698.05723     -5455636.8      197.25713      197.25713      197.25713     -212.8134     
    772000   698.13586     -5455714.9      197.25713      197.25713      197.25713     -75.967926    
    773000   699.7432      -5455458.3      197.25713      197.25713      197.25713     -31.841767    
    774000   699.16265     -5455538.9      197.25713      197.25713      197.25713     -139.75973    
    775000   698.53761     -5455649.9      197.25713      197.25713      197.25713     -249.91595    
    776000   700.96133     -5455470.3      197.25713      197.25713      197.25713     -346.79914    
    777000   702.39606     -5455394.6      197.25713      197.25713      197.25713     -118.36538    
    778000   699.311       -5455548.1      197.25713      197.25713      197.25713     -331.42692    
    779000   699.49203     -5455677.5      197.25713      197.25713      197.25713     -195.0477     
    780000   700.05107     -5455509        197.25713      197.25713      197.25713     -105.69375    
    781000   699.33143     -5455666.4      197.25713      197.25713      197.25713     -59.676205    
    782000   699.87863     -5455624.1      197.25713      197.25713      197.25713     -221.89839    
    783000   700.0463      -5455556.3      197.25713      197.25713      197.25713     -195.51882    
    784000   698.38189     -5455599        197.25713      197.25713      197.25713     -165.03005    
    785000   699.71844     -5455536        197.25713      197.25713      197.25713     -82.140195    
    786000   699.29598     -5455551.2      197.25713      197.25713      197.25713     -86.323409    
    787000   700.21589     -5455571.9      197.25713      197.25713      197.25713     -192.32402    
    788000   700.15648     -5455491.9      197.25713      197.25713      197.25713     -82.842287    
    789000   699.32722     -5455571.7      197.25713      197.25713      197.25713     -348.1177     
    790000   699.83927     -5455546.4      197.25713      197.25713      197.25713     -252.29906    
    791000   700.03286     -5455475.4      197.25713      197.25713      197.25713     -173.55038    
    792000   699.20407     -5455584.1      197.25713      197.25713      197.25713     -156.98136    
    793000   698.96051     -5455658.1      197.25713      197.25713      197.25713     -114.57289    
    794000   701.12242     -5455470.9      197.25713      197.25713      197.25713     -128.09488    
    795000   699.99256     -5455549.1      197.25713      197.25713      197.25713     -250.79391    
    796000   697.66896     -5455650.6      197.25713      197.25713      197.25713     -94.924368    
    797000   699.23497     -5455520.1      197.25713      197.25713      197.25713     -210.13331    
    798000   699.73074     -5455588.4      197.25713      197.25713      197.25713     -212.48521    
    799000   699.5317      -5455609        197.25713      197.25713      197.25713     -238.10201    
    800000   699.19256     -5455551        197.25713      197.25713      197.25713     -133.8251     
    801000   698.99029     -5455409.6      197.25713      197.25713      197.25713     -289.46539    
    802000   700.14599     -5455584.6      197.25713      197.25713      197.25713     -192.42145    
    803000   699.18395     -5455522        197.25713      197.25713      197.25713     -270.84006    
    804000   700.65259     -5455434.3      197.25713      197.25713      197.25713     -284.02201    
    805000   699.9659      -5455520.3      197.25713      197.25713      197.25713     -166.13502    
    806000   700.68132     -5455459.2      197.25713      197.25713      197.25713     -147.75774    
    807000   699.84286     -5455503.2      197.25713      197.25713      197.25713     -188.66137    
    808000   699.9502      -5455506.1      197.25713      197.25713      197.25713     -98.076044    
    809000   699.42847     -5455573.9      197.25713      197.25713      197.25713     -245.88765    
    810000   700.52437     -5455463.2      197.25713      197.25713      197.25713     -123.84079    
    811000   700.86688     -5455515.1      197.25713      197.25713      197.25713     -179.05702    
    812000   699.78634     -5455491.8      197.25713      197.25713      197.25713     -193.321      
    813000   701.31085     -5455466.1      197.25713      197.25713      197.25713     -164.36667    
    814000   700.53561     -5455586.5      197.25713      197.25713      197.25713     -130.45522    
    815000   698.85851     -5455662.6      197.25713      197.25713      197.25713     -250.21111    
    816000   700.07691     -5455457        197.25713      197.25713      197.25713     -139.523      
    817000   701.17254     -5455539.9      197.25713      197.25713      197.25713     -451.15291    
    818000   701.84657     -5455439        197.25713      197.25713      197.25713     -322.73493    
    819000   701.20569     -5455459.4      197.25713      197.25713      197.25713     -78.316713    
    820000   700.17926     -5455498.9      197.25713      197.25713      197.25713     -253.43298    
    821000   700.30676     -5455481.2      197.25713      197.25713      197.25713     -143.6632     
    822000   700.7577      -5455582.5      197.25713      197.25713      197.25713     -259.97811    
    823000   701.50403     -5455393.7      197.25713      197.25713      197.25713     -293.34333    
    824000   699.3591      -5455478.7      197.25713      197.25713      197.25713     -245.24466    
    825000   700.34566     -5455601.2      197.25713      197.25713      197.25713     -195.83566    
    826000   699.98837     -5455526.1      197.25713      197.25713      197.25713     -197.6052     
    827000   701.77899     -5455427.2      197.25713      197.25713      197.25713     -261.33387    
    828000   700.39215     -5455421.8      197.25713      197.25713      197.25713     -124.88311    
    829000   699.78901     -5455630.5      197.25713      197.25713      197.25713     -264.58938    
    830000   700.81988     -5455430.3      197.25713      197.25713      197.25713     -105.73489    
    831000   699.12613     -5455534        197.25713      197.25713      197.25713     -1.6336447    
    832000   701.81303     -5455472.6      197.25713      197.25713      197.25713     -107.5875     
    833000   699.13993     -5455504.5      197.25713      197.25713      197.25713     -136.07272    
    834000   700.01283     -5455593.9      197.25713      197.25713      197.25713     -240.02128    
    835000   699.6689      -5455595.1      197.25713      197.25713      197.25713     -159.90292    
    836000   698.53787     -5455614.4      197.25713      197.25713      197.25713     -161.53484    
    837000   699.59893     -5455590.7      197.25713      197.25713      197.25713     -263.73713    
    838000   699.11207     -5455543.8      197.25713      197.25713      197.25713     -278.70283    
    839000   700.1482      -5455526.9      197.25713      197.25713      197.25713     -169.71382    
    840000   700.56446     -5455531.6      197.25713      197.25713      197.25713     -155.25211    
    841000   699.51191     -5455553.1      197.25713      197.25713      197.25713     -278.55879    
    842000   699.82946     -5455603.7      197.25713      197.25713      197.25713     -323.18957    
    843000   700.12392     -5455539.3      197.25713      197.25713      197.25713     -55.398024    
    844000   699.40764     -5455608.2      197.25713      197.25713      197.25713     -228.01461    
    845000   700.09231     -5455497.7      197.25713      197.25713      197.25713     -19.634533    
    846000   701.20213     -5455472.7      197.25713      197.25713      197.25713      26.28226     
    847000   700.10344     -5455600.5      197.25713      197.25713      197.25713     -185.86731    
    848000   701.64444     -5455484.5      197.25713      197.25713      197.25713     -112.1885     
    849000   701.33047     -5455465.5      197.25713      197.25713      197.25713      3.2190919    
    850000   699.44509     -5455595.7      197.25713      197.25713      197.25713     -218.19974    
    851000   699.9203      -5455576.6      197.25713      197.25713      197.25713     -155.34483    
    852000   700.77843     -5455632.6      197.25713      197.25713      197.25713     -156.1006     
    853000   699.22226     -5455528.5      197.25713      197.25713      197.25713     -139.92803    
    854000   699.95277     -5455599.6      197.25713      197.25713      197.25713     -303.70638    
    855000   699.37089     -5455580.8      197.25713      197.25713      197.25713     -188.00859    
    856000   700.21822     -5455495.5      197.25713      197.25713      197.25713     -285.09602    
    857000   699.68895     -5455578.1      197.25713      197.25713      197.25713     -312.50403    
    858000   699.29155     -5455530.9      197.25713      197.25713      197.25713     -361.38101    
    859000   698.64742     -5455592.3      197.25713      197.25713      197.25713     -271.36296    
    860000   699.97252     -5455532.1      197.25713      197.25713      197.25713     -190.43239    
    861000   700.02313     -5455600.4      197.25713      197.25713      197.25713     -172.92778    
    862000   700.24973     -5455486.2      197.25713      197.25713      197.25713     -310.67052    
    863000   699.78438     -5455612.3      197.25713      197.25713      197.25713     -319.3052     
    864000   700.47665     -5455502        197.25713      197.25713      197.25713     -184.04123    
    865000   699.96439     -5455497.2      197.25713      197.25713      197.25713     -199.69195    
    866000   700.2586      -5455483        197.25713      197.25713      197.25713     -245.64356    
    867000   699.3567      -5455553.7      197.25713      197.25713      197.25713     -237.47893    
    868000   700.16994     -5455565.8      197.25713      197.25713      197.25713     -17.989493    
    869000   700.11493     -5455485.7      197.25713      197.25713      197.25713     -105.4935     
    870000   700.20432     -5455533.3      197.25713      197.25713      197.25713     -142.54573    
    871000   700.09552     -5455544.3      197.25713      197.25713      197.25713     -83.050831    
    872000   699.68886     -5455628.5      197.25713      197.25713      197.25713     -221.34665    
    873000   700.41041     -5455586        197.25713      197.25713      197.25713     -86.183647    
    874000   698.58206     -5455645.9      197.25713      197.25713      197.25713     -182.16261    
    875000   700.40051     -5455563.1      197.25713      197.25713      197.25713     -232.79226    
    876000   698.69066     -5455589.4      197.25713      197.25713      197.25713     -160.53337    
    877000   699.85691     -5455615.5      197.25713      197.25713      197.25713     -290.25428    
    878000   700.40998     -5455499.8      197.25713      197.25713      197.25713     -348.93395    
    879000   700.21854     -5455490.6      197.25713      197.25713      197.25713     -247.01914    
    880000   700.61268     -5455553.5      197.25713      197.25713      197.25713     -200.44931    
    881000   699.4218      -5455596.3      197.25713      197.25713      197.25713     -145.27705    
    882000   700.08427     -5455479.1      197.25713      197.25713      197.25713     -233.48413    
    883000   698.87537     -5455500        197.25713      197.25713      197.25713     -296.29682    
    884000   701.6874      -5455457.4      197.25713      197.25713      197.25713     -338.29257    
    885000   700.06716     -5455493.1      197.25713      197.25713      197.25713     -254.47023    
    886000   700.4858      -5455477.5      197.25713      197.25713      197.25713     -188.82223    
    887000   698.80217     -5455646.8      197.25713      197.25713      197.25713     -245.7783     
    888000   699.72184     -5455574        197.25713      197.25713      197.25713     -162.32935    
    889000   700.71612     -5455552.1      197.25713      197.25713      197.25713     -330.96935    
    890000   700.61826     -5455377.4      197.25713      197.25713      197.25713     -115.27059    
    891000   700.63267     -5455592.3      197.25713      197.25713      197.25713     -284.29176    
    892000   699.8367      -5455500.7      197.25713      197.25713      197.25713     -242.09973    
    893000   700.02668     -5455423.5      197.25713      197.25713      197.25713     -248.82487    
    894000   700.00947     -5455497        197.25713      197.25713      197.25713     -189.19414    
    895000   700.95041     -5455405.2      197.25713      197.25713      197.25713     -208.33001    
    896000   700.71059     -5455530.5      197.25713      197.25713      197.25713     -196.99623    
    897000   700.65437     -5455538.8      197.25713      197.25713      197.25713     -334.46361    
    898000   699.14951     -5455594.3      197.25713      197.25713      197.25713     -203.42005    
    899000   699.38006     -5455605.7      197.25713      197.25713      197.25713     -312.90608    
    900000   699.45755     -5455521.7      197.25713      197.25713      197.25713     -426.5545     
    901000   699.87377     -5455547.5      197.25713      197.25713      197.25713     -331.6071     
    902000   700.37678     -5455481.8      197.25713      197.25713      197.25713     -100.74389    
    903000   699.7637      -5455651.8      197.25713      197.25713      197.25713     -288.53666    
    904000   699.60633     -5455648.7      197.25713      197.25713      197.25713     -228.65109    
    905000   699.33032     -5455675.4      197.25713      197.25713      197.25713     -328.39803    
    906000   699.82791     -5455660.1      197.25713      197.25713      197.25713     -242.20788    
    907000   700.37684     -5455521        197.25713      197.25713      197.25713     -247.02423    
    908000   700.75789     -5455471        197.25713      197.25713      197.25713     -293.86559    
    909000   699.30647     -5455593.1      197.25713      197.25713      197.25713     -72.081547    
    910000   699.32747     -5455622        197.25713      197.25713      197.25713     -290.25643    
    911000   698.73844     -5455753        197.25713      197.25713      197.25713     -333.15107    
    912000   700.52595     -5455469.9      197.25713      197.25713      197.25713     -371.94889    
    913000   698.73166     -5455637.3      197.25713      197.25713      197.25713     -244.75331    
    914000   700.20859     -5455515        197.25713      197.25713      197.25713     -142.39603    
    915000   700.54358     -5455391.8      197.25713      197.25713      197.25713     -273.32981    
    916000   699.82447     -5455585.9      197.25713      197.25713      197.25713     -344.69555    
    917000   699.2828      -5455608.7      197.25713      197.25713      197.25713     -341.54481    
    918000   699.99621     -5455626.2      197.25713      197.25713      197.25713     -208.13326    
    919000   699.44748     -5455604.6      197.25713      197.25713      197.25713     -87.43844     
    920000   699.46529     -5455624.8      197.25713      197.25713      197.25713     -391.74423    
    921000   699.23338     -5455588.6      197.25713      197.25713      197.25713     -230.72634    
    922000   699.47889     -5455507.4      197.25713      197.25713      197.25713     -150.939      
    923000   699.29578     -5455572.8      197.25713      197.25713      197.25713     -249.69347    
    924000   699.23187     -5455596.3      197.25713      197.25713      197.25713     -178.89356    
    925000   700.55431     -5455560.6      197.25713      197.25713      197.25713     -104.04059    
    926000   700.20318     -5455553.2      197.25713      197.25713      197.25713     -204.86826    
    927000   699.45072     -5455584.4      197.25713      197.25713      197.25713     -26.89599     
    928000   699.96809     -5455613.9      197.25713      197.25713      197.25713     -262.40897    
    929000   699.48217     -5455580.4      197.25713      197.25713      197.25713     -192.8582     
    930000   699.36928     -5455608.1      197.25713      197.25713      197.25713     -277.4304     
    931000   700.64294     -5455411.5      197.25713      197.25713      197.25713     -238.89808    
    932000   701.11297     -5455474.5      197.25713      197.25713      197.25713     -153.80141    
    933000   700.31864     -5455504.3      197.25713      197.25713      197.25713     -296.107      
    934000   699.4153      -5455544.6      197.25713      197.25713      197.25713     -315.42767    
    935000   700.21733     -5455601.6      197.25713      197.25713      197.25713     -235.56748    
    936000   699.8666      -5455494.2      197.25713      197.25713      197.25713     -153.33466    
    937000   698.78077     -5455662.3      197.25713      197.25713      197.25713     -243.63441    
    938000   700.28772     -5455606.4      197.25713      197.25713      197.25713     -295.18844    
    939000   698.92274     -5455580.8      197.25713      197.25713      197.25713     -191.58834    
    940000   698.39664     -5455660.3      197.25713      197.25713      197.25713     -273.50718    
    941000   699.12949     -5455583.9      197.25713      197.25713      197.25713     -215.81366    
    942000   700.25232     -5455663.4      197.25713      197.25713      197.25713     -228.21444    
    943000   700.22721     -5455549.8      197.25713      197.25713      197.25713     -244.54633    
    944000   700.23378     -5455519.9      197.25713      197.25713      197.25713     -261.92285    
    945000   700.01014     -5455557.6      197.25713      197.25713      197.25713     -98.605904    
    946000   700.21673     -5455463.6      197.25713      197.25713      197.25713     -136.49245    
    947000   700.82331     -5455517.3      197.25713      197.25713      197.25713     -367.53899    
    948000   699.81611     -5455563.4      197.25713      197.25713      197.25713     -292.29679    
    949000   701.04526     -5455478.6      197.25713      197.25713      197.25713     -264.62569    
    950000   701.62781     -5455385.7      197.25713      197.25713      197.25713     -247.50372    
    951000   699.52795     -5455621.5      197.25713      197.25713      197.25713     -176.52406    
    952000   699.47991     -5455525.5      197.25713      197.25713      197.25713     -149.81139    
    953000   700.7192      -5455520.6      197.25713      197.25713      197.25713     -185.76722    
    954000   699.39514     -5455603.6      197.25713      197.25713      197.25713     -340.49484    
    955000   700.36655     -5455555.4      197.25713      197.25713      197.25713     -226.27267    
    956000   700.7238      -5455526.3      197.25713      197.25713      197.25713     -198.40059    
    957000   699.89861     -5455514.4      197.25713      197.25713      197.25713     -164.14615    
    958000   699.38499     -5455557.6      197.25713      197.25713      197.25713     -214.02594    
    959000   699.06473     -5455569.4      197.25713      197.25713      197.25713     -272.66175    
    960000   699.08645     -5455662.8      197.25713      197.25713      197.25713     -232.21862    
    961000   699.0542      -5455637.3      197.25713      197.25713      197.25713     -297.01026    
    962000   700.08044     -5455544.3      197.25713      197.25713      197.25713     -126.72689    
    963000   700.17396     -5455597.8      197.25713      197.25713      197.25713     -225.9254     
    964000   700.11576     -5455508.7      197.25713      197.25713      197.25713     -252.17906    
    965000   699.61999     -5455579        197.25713      197.25713      197.25713     -87.822293    
    966000   699.02682     -5455638        197.25713      197.25713      197.25713     -120.28589    
    967000   699.69473     -5455662.6      197.25713      197.25713      197.25713     -134.00343    
    968000   700.3842      -5455620.3      197.25713      197.25713      197.25713     -166.21625    
    969000   700.3303      -5455649.5      197.25713      197.25713      197.25713     -170.72356    
    970000   700.32019     -5455572.4      197.25713      197.25713      197.25713     -104.48376    
    971000   700.01281     -5455636.8      197.25713      197.25713      197.25713     -81.730339    
    972000   700.54679     -5455519.9      197.25713      197.25713      197.25713     -327.79424    
    973000   700.0155      -5455539        197.25713      197.25713      197.25713     -81.113072    
    974000   700.29741     -5455576.6      197.25713      197.25713      197.25713     -201.60416    
    975000   699.72984     -5455530.6      197.25713      197.25713      197.25713     -234.55489    
    976000   700.49148     -5455660.1      197.25713      197.25713      197.25713     -516.52547    
    977000   700.37457     -5455553        197.25713      197.25713      197.25713     -150.18245    
    978000   700.68517     -5455563.4      197.25713      197.25713      197.25713     -232.89772    
    979000   699.71891     -5455659.3      197.25713      197.25713      197.25713     -224.55156    
    980000   699.72451     -5455531.2      197.25713      197.25713      197.25713     -308.87238    
    981000   699.40428     -5455691.3      197.25713      197.25713      197.25713     -312.75093    
    982000   698.32114     -5455755.9      197.25713      197.25713      197.25713     -300.60147    
    983000   700.13057     -5455546        197.25713      197.25713      197.25713     -206.17047    
    984000   699.75332     -5455587.5      197.25713      197.25713      197.25713     -117.20976    
    985000   699.81678     -5455675.8      197.25713      197.25713      197.25713     -382.76356    
    986000   701.22393     -5455448.4      197.25713      197.25713      197.25713     -102.094      
    987000   701.07213     -5455519.9      197.25713      197.25713      197.25713     -257.7409     
    988000   699.15492     -5455627.5      197.25713      197.25713      197.25713     -181.2953     
    989000   699.81652     -5455615.3      197.25713      197.25713      197.25713     -218.98758    
    990000   700.5181      -5455628.3      197.25713      197.25713      197.25713     -333.25868    
    991000   699.61094     -5455603.1      197.25713      197.25713      197.25713     -32.435665    
    992000   701.36759     -5455446.7      197.25713      197.25713      197.25713     -177.69109    
    993000   699.60719     -5455662.3      197.25713      197.25713      197.25713     -204.54647    
    994000   701.52189     -5455466.7      197.25713      197.25713      197.25713     -26.513144    
    995000   698.89824     -5455589.9      197.25713      197.25713      197.25713     -297.30109    
    996000   698.98985     -5455642.7      197.25713      197.25713      197.25713     -174.12739    
    997000   700.61975     -5455557.8      197.25713      197.25713      197.25713     -449.26455    
    998000   700.16113     -5455601.6      197.25713      197.25713      197.25713     -154.1352     
    999000   699.49703     -5455557        197.25713      197.25713      197.25713     -261.97727    
   1000000   699.68124     -5455805.7      197.25713      197.25713      197.25713     -346.12656    
Loop time of 73315.8 on 16384 procs for 1000000 steps with 482050 atoms

Performance: 2.357 ns/day, 10.183 hours/ns, 13.640 timesteps/s, 6.575 Matom-step/s
79.8% CPU use with 128 MPI tasks x 128 OpenMP threads

MPI task timing breakdown:
Section |  min time  |  avg time  |  max time  |%varavg| %total
---------------------------------------------------------------
Pair    | 27818      | 39241      | 51021      |4442.2 | 53.52
Bond    | 0.089255   | 0.20827    | 0.38529    |  10.9 |  0.00
Kspace  | 12839      | 26409      | 39293      |6167.8 | 36.02
Neigh   | 3571.4     | 5202.7     | 6961.9     |1805.4 |  7.10
Comm    | 1724.3     | 1926.8     | 2139.8     | 219.5 |  2.63
Output  | 0.14242    | 0.1509     | 0.17608    |   0.9 |  0.00
Modify  | 192.86     | 377.75     | 598.11     | 661.5 |  0.52
Other   |            | 158.8      |            |       |  0.22

Nlocal:        3766.02 ave        4614 max        2894 min
Histogram: 64 0 0 0 0 0 0 0 0 64
Nghost:        12075.4 ave       13490 max       10681 min
Histogram: 64 0 0 0 0 0 0 0 1 63
Neighs:         932622 ave 1.23811e+06 max      642982 min
Histogram: 24 35 5 0 0 0 1 20 16 27

Total # of neighbors = 1.1937567e+08
Ave neighs/atom = 247.64168
Ave special neighs/atom = 0
Neighbor list builds = 169798
Dangerous builds = 0
System init for write_data ...
PPPM initialization ...
  using 12-bit tables for long-range coulomb (src/src/kspace.cpp:342)
  G vector (1/distance) = 0.27675344
  grid = 135 135 135
  stencil order = 5
  estimated absolute RMS force accuracy = 0.0016318071
  estimated relative force accuracy = 0.00011332273
  using double precision MKL FFT
  3d grid and FFT values/proc = 36800 36450
Generated 0 of 10 mixed pair_coeff terms from geometric mixing rule
Total wall time: 43:51:41
