LAMMPS (8 Feb 2023)
WARNING: Using I/O redirection is unreliable with parallel runs. Better to use the -in switch to read input files. (src/src/lammps.cpp:531)
  using 128 OpenMP thread(s) per MPI task
Reading data file ...
  orthogonal box = (-1.2056205 -1.2056205 -1.2056205) to (196.20562 196.20562 196.20562)
  4 by 8 by 8 MPI processor grid
  reading atoms ...
  632566 atoms
  reading velocities ...
  632566 velocities
Finding 1-2 1-3 1-4 neighbors ...
  special bond factors lj:    0        0        0       
  special bond factors coul:  0        0        0       
     0 = max # of 1-2 neighbors
     0 = max # of 1-3 neighbors
     0 = max # of 1-4 neighbors
     1 = max # of special neighbors
  special bonds CPU = 0.935 seconds
  read_data CPU = 5.227 seconds
168238 atoms in group Li
80751 atoms in group O
PPPM initialization ...
  using 12-bit tables for long-range coulomb (src/src/kspace.cpp:342)
  G vector (1/distance) = 0.27666399
  grid = 135 135 135
  stencil order = 5
  estimated absolute RMS force accuracy = 0.0018747845
  estimated relative force accuracy = 0.00013019658
  using double precision MKL FFT
  3d grid and FFT values/proc = 21160 10935
Generated 0 of 10 mixed pair_coeff terms from geometric mixing rule
Neighbor list info ...
  update: every = 1 steps, delay = 0 steps, check = yes
  max neighbors/atom: 5000, page size: 100000
  master list distance cutoff = 11.3
  ghost atom cutoff = 11.3
  binsize = 5.65, bins = 35 35 35
  3 neighbor lists, perpetual/occasional/extra = 3 0 0
  (1) pair buck/coul/long, perpetual
      attributes: half, newton on
      pair build: half/bin/newton
      stencil: half/bin/3d
      bin: standard
  (2) pair lennard/mdf, perpetual, skip from (3)
      attributes: half, newton on, cut 3.8
      pair build: skip
      stencil: none
      bin: none
  (3) neighbor class addition, perpetual, trim from (1)
      attributes: half, newton on, cut 3.8
      pair build: trim
      stencil: none
      bin: none
Setting up cg style minimization ...
  Unit style    : metal
  Current step  : 0
Per MPI rank memory allocation (min/avg/max) = 224.3 | 224.7 | 224.9 Mbytes
   Step          Temp          E_pair         E_mol          TotEng         Press     
         0   700.11015     -7229882.2      0             -7172637.4     -133.77848    
       704   700.11015     -7288026.6      0             -7230781.7     -25053.039    
Loop time of 70.8571 on 32768 procs for 704 steps with 632566 atoms

87.1% CPU use with 256 MPI tasks x 128 OpenMP threads

Minimization stats:
  Stopping criterion = linesearch alpha is zero
  Energy initial, next-to-last, final = 
     -7229882.21418969  -7288026.56374827  -7288026.56374827
  Force two-norm initial, final = 1164.7779 0.2790434
  Force max component initial, final = 7.2528895 0.071441455
  Final line search alpha, max atom move = 1.0321139e-07 7.3735715e-09
  Iterations, force evaluations = 704 1265

MPI task timing breakdown:
Section |  min time  |  avg time  |  max time  |%varavg| %total
---------------------------------------------------------------
Pair    | 41.299     | 46.086     | 51.186     |  30.2 | 65.04
Bond    | 8.9092e-05 | 0.00020867 | 0.00035188 |   0.0 |  0.00
Kspace  | 15.924     | 21.17      | 26.157     |  46.3 | 29.88
Neigh   | 1.3488     | 1.5359     | 1.6657     |   5.7 |  2.17
Comm    | 1.2756     | 1.4864     | 1.723      |   8.1 |  2.10
Output  | 0          | 0          | 0          |   0.0 |  0.00
Modify  | 0          | 0          | 0          |   0.0 |  0.00
Other   |            | 0.579      |            |       |  0.82

Nlocal:        2470.96 ave        2537 max        2344 min
Histogram: 1 0 7 6 25 56 48 66 37 10
Nghost:        10747.6 ave       10953 max       10464 min
Histogram: 5 2 11 25 33 61 52 36 24 7
Neighs:         616007 ave      649735 max      558713 min
Histogram: 1 2 8 16 35 35 61 54 32 12

Total # of neighbors = 1.576978e+08
Ave neighs/atom = 249.29857
Ave special neighs/atom = 0
Neighbor list builds = 77
Dangerous builds = 0
PPPM initialization ...
  using 12-bit tables for long-range coulomb (src/src/kspace.cpp:342)
  G vector (1/distance) = 0.27666399
  grid = 135 135 135
  stencil order = 5
  estimated absolute RMS force accuracy = 0.0018747845
  estimated relative force accuracy = 0.00013019658
  using double precision MKL FFT
  3d grid and FFT values/proc = 21160 10935
Generated 0 of 10 mixed pair_coeff terms from geometric mixing rule
Setting up Verlet run ...
  Unit style    : metal
  Current step  : 0
  Time step     : 0.002
Per MPI rank memory allocation (min/avg/max) = 224.5 | 224.9 | 225.1 Mbytes
   Step          Temp          TotEng           Lx             Ly             Lz           Press     
         0   700.11015     -7230781.7      197.41124      197.41124      197.41124     -25053.039    
      1000   699.35727     -7172875.8      197.41124      197.41124      197.41124     -119.57829    
      2000   699.59214     -7172729.4      197.41124      197.41124      197.41124     -184.91038    
      3000   699.18674     -7172764.8      197.41124      197.41124      197.41124      9.5114052    
      4000   698.31153     -7172855.5      197.41124      197.41124      197.41124     -122.30737    
      5000   700.55384     -7172593.7      197.41124      197.41124      197.41124     -1.3986966    
      6000   700.59708     -7172625.1      197.41124      197.41124      197.41124     -136.87048    
      7000   700.27779     -7172671.5      197.41124      197.41124      197.41124      1.1978374    
      8000   700.80746     -7172651        197.41124      197.41124      197.41124     -14.592105    
      9000   700.33205     -7172630        197.41124      197.41124      197.41124     -84.710043    
     10000   698.65006     -7172760.2      197.41124      197.41124      197.41124     -150.75943    
Loop time of 537.79 on 32768 procs for 10000 steps with 632566 atoms

Performance: 3.213 ns/day, 7.469 hours/ns, 18.595 timesteps/s, 11.762 Matom-step/s
84.6% CPU use with 256 MPI tasks x 128 OpenMP threads

MPI task timing breakdown:
Section |  min time  |  avg time  |  max time  |%varavg| %total
---------------------------------------------------------------
Pair    | 244.7      | 290.03     | 356.94     | 134.3 | 53.93
Bond    | 0.00076475 | 0.0016995  | 0.0028901  |   0.8 |  0.00
Kspace  | 118.03     | 187.49     | 237.37     | 176.7 | 34.86
Neigh   | 37.313     | 42.313     | 45.66      |  29.3 |  7.87
Comm    | 12.417     | 13.733     | 16.013     |  17.7 |  2.55
Output  | 0.0018218  | 0.0018781  | 0.0020443  |   0.1 |  0.00
Modify  | 1.9574     | 3.1418     | 4.7959     |  31.3 |  0.58
Other   |            | 1.078      |            |       |  0.20

Nlocal:        2470.96 ave        2528 max        2374 min
Histogram: 1 2 6 13 26 54 61 59 24 10
Nghost:        10747.9 ave       10922 max       10526 min
Histogram: 5 3 9 23 48 57 52 38 17 4
Neighs:         615825 ave      647890 max      569667 min
Histogram: 1 4 13 18 41 50 60 39 22 8

Total # of neighbors = 1.576512e+08
Ave neighs/atom = 249.2249
Ave special neighs/atom = 0
Neighbor list builds = 2066
Dangerous builds = 0
PPPM initialization ...
  using 12-bit tables for long-range coulomb (src/src/kspace.cpp:342)
  G vector (1/distance) = 0.27666399
  grid = 135 135 135
  stencil order = 5
  estimated absolute RMS force accuracy = 0.0018747845
  estimated relative force accuracy = 0.00013019658
  using double precision MKL FFT
  3d grid and FFT values/proc = 21160 10935
Generated 0 of 10 mixed pair_coeff terms from geometric mixing rule
Setting up Verlet run ...
  Unit style    : metal
  Current step  : 10000
  Time step     : 0.002
Per MPI rank memory allocation (min/avg/max) = 225.2 | 225.3 | 225.5 Mbytes
   Step          Temp          TotEng           Lx             Ly             Lz           Press     
     10000   698.65006     -7172760.2      197.41124      197.41124      197.41124     -150.75943    
     11000   700.22838     -7172701.2      197.41124      197.41124      197.41124     -111.52574    
     12000   700.10883     -7172685.6      197.41124      197.41124      197.41124     -14.89982     
     13000   699.2563      -7172773.3      197.41124      197.41124      197.41124     -148.09978    
     14000   700.36873     -7172660.3      197.41124      197.41124      197.41124     -130.64537    
     15000   700.0435      -7172621.1      197.41124      197.41124      197.41124     -76.853823    
     16000   700.76429     -7172690.2      197.41124      197.41124      197.41124     -160.95738    
     17000   699.85195     -7172813.3      197.41124      197.41124      197.41124     -138.88864    
     18000   701.19254     -7172598.1      197.41124      197.41124      197.41124     -87.658907    
     19000   699.46904     -7172721.1      197.41124      197.41124      197.41124     -11.928076    
     20000   698.49015     -7172788.5      197.41124      197.41124      197.41124     -47.513757    
     21000   699.45271     -7172801.4      197.41124      197.41124      197.41124     -83.262239    
     22000   700.19762     -7172741.2      197.41124      197.41124      197.41124     -112.28441    
     23000   701.30696     -7172668.9      197.41124      197.41124      197.41124     -183.7536     
     24000   700.34184     -7172634.8      197.41124      197.41124      197.41124     -1.2258286    
     25000   699.62111     -7172713.1      197.41124      197.41124      197.41124     -48.374265    
     26000   699.69973     -7172731.8      197.41124      197.41124      197.41124     -5.1148842    
     27000   699.47715     -7172700.5      197.41124      197.41124      197.41124     -26.588083    
     28000   700.36308     -7172632.4      197.41124      197.41124      197.41124     -44.100006    
     29000   700.31011     -7172740.8      197.41124      197.41124      197.41124     -90.658547    
     30000   700.35607     -7172694.7      197.41124      197.41124      197.41124     -122.47705    
     31000   699.45336     -7172720.1      197.41124      197.41124      197.41124     -156.70786    
     32000   699.32458     -7172799        197.41124      197.41124      197.41124     -115.03866    
     33000   699.74212     -7172728.1      197.41124      197.41124      197.41124     -125.43939    
     34000   700.25834     -7172746.9      197.41124      197.41124      197.41124     -85.890074    
     35000   699.57517     -7172748.1      197.41124      197.41124      197.41124     -118.86583    
     36000   699.22627     -7172653.2      197.41124      197.41124      197.41124     -118.67327    
     37000   700.12832     -7172666.6      197.41124      197.41124      197.41124     -6.3705882    
     38000   700.98898     -7172604.2      197.41124      197.41124      197.41124      0.065707373  
     39000   699.53163     -7172697.1      197.41124      197.41124      197.41124     -11.418225    
     40000   699.7613      -7172687.1      197.41124      197.41124      197.41124     -142.74239    
     41000   700.8761      -7172509.9      197.41124      197.41124      197.41124     -66.091512    
     42000   700.38976     -7172693.8      197.41124      197.41124      197.41124     -182.49564    
     43000   699.12534     -7172851.1      197.41124      197.41124      197.41124     -186.67389    
     44000   701.27816     -7172610.1      197.41124      197.41124      197.41124      20.899796    
     45000   699.92321     -7172690.5      197.41124      197.41124      197.41124     -157.59562    
     46000   699.79731     -7172604.3      197.41124      197.41124      197.41124      37.210883    
     47000   699.88452     -7172766.8      197.41124      197.41124      197.41124     -116.61876    
     48000   699.50372     -7172643.9      197.41124      197.41124      197.41124      61.317491    
     49000   700.08768     -7172581.2      197.41124      197.41124      197.41124     -113.96221    
     50000   700.74224     -7172608.1      197.41124      197.41124      197.41124     -13.770424    
     51000   699.97147     -7172750.7      197.41124      197.41124      197.41124     -105.3082     
     52000   700.20777     -7172672.1      197.41124      197.41124      197.41124     -136.38105    
     53000   699.62171     -7172729.5      197.41124      197.41124      197.41124     -163.12649    
     54000   699.75254     -7172722.3      197.41124      197.41124      197.41124      1.2906567    
     55000   699.99533     -7172759.7      197.41124      197.41124      197.41124     -199.88715    
     56000   700.54119     -7172646.4      197.41124      197.41124      197.41124     -157.02325    
     57000   699.08554     -7172652.1      197.41124      197.41124      197.41124      41.999798    
     58000   699.90168     -7172692.8      197.41124      197.41124      197.41124     -176.66766    
     59000   699.13924     -7172757.2      197.41124      197.41124      197.41124     -122.30645    
     60000   699.6235      -7172781.8      197.41124      197.41124      197.41124     -163.3713     
     61000   699.55668     -7172668.8      197.41124      197.41124      197.41124     -109.42014    
     62000   700.36574     -7172689.4      197.41124      197.41124      197.41124     -46.058051    
     63000   699.91896     -7172711.9      197.41124      197.41124      197.41124     -96.424835    
     64000   700.08503     -7172766.5      197.41124      197.41124      197.41124     -267.26206    
     65000   699.66313     -7172735.6      197.41124      197.41124      197.41124      55.441933    
     66000   700.72049     -7172675.3      197.41124      197.41124      197.41124     -248.32006    
     67000   699.22404     -7172754.4      197.41124      197.41124      197.41124     -142.22364    
     68000   699.842       -7172702.3      197.41124      197.41124      197.41124     -55.446004    
     69000   700.07769     -7172644.5      197.41124      197.41124      197.41124     -69.65573     
     70000   700.15994     -7172683.2      197.41124      197.41124      197.41124     -183.78154    
     71000   701.0082      -7172673.2      197.41124      197.41124      197.41124     -88.240016    
     72000   700.20812     -7172599.9      197.41124      197.41124      197.41124     -93.897735    
     73000   699.52303     -7172667.6      197.41124      197.41124      197.41124     -104.82681    
     74000   699.5064      -7172650.3      197.41124      197.41124      197.41124     -86.040762    
     75000   699.34624     -7172734.9      197.41124      197.41124      197.41124     -91.504663    
     76000   700.88237     -7172660.2      197.41124      197.41124      197.41124     -166.66499    
     77000   700.49872     -7172582.7      197.41124      197.41124      197.41124     -47.120856    
     78000   699.66323     -7172712        197.41124      197.41124      197.41124     -22.555377    
     79000   699.83309     -7172727        197.41124      197.41124      197.41124     -105.92713    
     80000   700.38593     -7172590.6      197.41124      197.41124      197.41124     -125.30952    
     81000   700.67133     -7172597.4      197.41124      197.41124      197.41124     -92.970805    
     82000   699.19712     -7172779.4      197.41124      197.41124      197.41124     -123.82311    
     83000   699.52273     -7172734.6      197.41124      197.41124      197.41124     -93.566209    
     84000   699.61286     -7172677.6      197.41124      197.41124      197.41124     -259.7401     
     85000   700.27667     -7172600.5      197.41124      197.41124      197.41124     -79.381233    
     86000   699.68619     -7172712.5      197.41124      197.41124      197.41124     -111.74662    
     87000   700.47977     -7172573.6      197.41124      197.41124      197.41124     -85.436479    
     88000   699.40256     -7172637.3      197.41124      197.41124      197.41124     -109.57271    
     89000   699.35719     -7172625.5      197.41124      197.41124      197.41124     -98.390558    
     90000   699.13885     -7172812.5      197.41124      197.41124      197.41124     -131.20824    
     91000   701.00171     -7172606.5      197.41124      197.41124      197.41124     -93.18545     
     92000   698.39222     -7172746.6      197.41124      197.41124      197.41124     -140.8358     
     93000   699.41672     -7172745.1      197.41124      197.41124      197.41124     -120.76674    
     94000   700.01485     -7172741.6      197.41124      197.41124      197.41124     -138.3548     
     95000   699.5858      -7172722        197.41124      197.41124      197.41124     -144.71729    
     96000   699.80334     -7172588.5      197.41124      197.41124      197.41124     -9.6926263    
     97000   700.08985     -7172750.6      197.41124      197.41124      197.41124     -180.90417    
     98000   700.91497     -7172649.6      197.41124      197.41124      197.41124     -295.67555    
     99000   700.17734     -7172733.4      197.41124      197.41124      197.41124     -118.14724    
    100000   700.70606     -7172707.1      197.41124      197.41124      197.41124     -41.706883    
    101000   698.99652     -7172698        197.41124      197.41124      197.41124     -107.80813    
    102000   699.86194     -7172608.2      197.41124      197.41124      197.41124     -37.263091    
    103000   700.49828     -7172666.8      197.41124      197.41124      197.41124     -15.715392    
    104000   698.81909     -7172733.2      197.41124      197.41124      197.41124      110.91148    
    105000   699.08776     -7172659.1      197.41124      197.41124      197.41124     -169.88608    
    106000   700.15833     -7172659.6      197.41124      197.41124      197.41124     -79.82789     
    107000   699.84919     -7172603        197.41124      197.41124      197.41124     -136.89312    
    108000   699.12236     -7172753.5      197.41124      197.41124      197.41124     -119.43048    
    109000   700.1906      -7172696.6      197.41124      197.41124      197.41124     -85.814066    
    110000   699.70181     -7172696.4      197.41124      197.41124      197.41124     -272.65914    
    111000   700.05545     -7172609.1      197.41124      197.41124      197.41124     -66.233551    
    112000   700.22875     -7172639.3      197.41124      197.41124      197.41124     -103.84549    
    113000   699.75173     -7172593.5      197.41124      197.41124      197.41124     -65.732469    
    114000   700.8545      -7172739.4      197.41124      197.41124      197.41124     -216.58851    
    115000   700.48568     -7172704.9      197.41124      197.41124      197.41124     -127.78534    
    116000   700.25008     -7172620.1      197.41124      197.41124      197.41124     -209.6144     
    117000   701.28232     -7172561.5      197.41124      197.41124      197.41124      15.973329    
    118000   699.94288     -7172645.6      197.41124      197.41124      197.41124     -100.14301    
    119000   699.61368     -7172760.7      197.41124      197.41124      197.41124     -101.14141    
    120000   699.33598     -7172683.7      197.41124      197.41124      197.41124     -16.11896     
    121000   699.05072     -7172737        197.41124      197.41124      197.41124     -174.12029    
    122000   700.04949     -7172710.5      197.41124      197.41124      197.41124     -170.70952    
    123000   699.7653      -7172698.2      197.41124      197.41124      197.41124     -66.594784    
    124000   700.39727     -7172712.9      197.41124      197.41124      197.41124     -164.76743    
    125000   700.31946     -7172675.3      197.41124      197.41124      197.41124     -7.9226835    
    126000   699.22785     -7172740.4      197.41124      197.41124      197.41124      14.99956     
    127000   699.96378     -7172530.3      197.41124      197.41124      197.41124     -118.17937    
    128000   699.77079     -7172729.6      197.41124      197.41124      197.41124     -135.88157    
    129000   701.05263     -7172696.5      197.41124      197.41124      197.41124     -227.84819    
    130000   700.87156     -7172591.4      197.41124      197.41124      197.41124     -137.4892     
    131000   699.43784     -7172665.9      197.41124      197.41124      197.41124     -19.505589    
    132000   699.32414     -7172854.7      197.41124      197.41124      197.41124     -69.713508    
    133000   700.47301     -7172728.9      197.41124      197.41124      197.41124     -96.212321    
    134000   699.1848      -7172662.5      197.41124      197.41124      197.41124     -42.909052    
    135000   700.50119     -7172650.2      197.41124      197.41124      197.41124     -194.73018    
    136000   699.09313     -7172698.9      197.41124      197.41124      197.41124     -45.673976    
    137000   700.67601     -7172548.7      197.41124      197.41124      197.41124     -6.5560013    
    138000   699.55629     -7172728.7      197.41124      197.41124      197.41124     -16.926402    
    139000   699.93884     -7172722.9      197.41124      197.41124      197.41124     -66.253007    
    140000   699.90768     -7172602.8      197.41124      197.41124      197.41124     -143.31086    
    141000   699.9719      -7172662.7      197.41124      197.41124      197.41124     -183.34491    
    142000   699.3819      -7172780.2      197.41124      197.41124      197.41124     -48.217153    
    143000   699.78864     -7172670.4      197.41124      197.41124      197.41124     -88.70928     
    144000   700.26622     -7172705.9      197.41124      197.41124      197.41124     -68.523853    
    145000   699.16104     -7172738.6      197.41124      197.41124      197.41124      10.792871    
    146000   698.66579     -7172777.6      197.41124      197.41124      197.41124     -53.53779     
    147000   700.82445     -7172607.6      197.41124      197.41124      197.41124      38.907503    
    148000   699.88849     -7172732.8      197.41124      197.41124      197.41124     -108.23947    
    149000   699.65323     -7172719.1      197.41124      197.41124      197.41124     -108.44739    
    150000   700.49321     -7172624.8      197.41124      197.41124      197.41124     -45.787169    
    151000   700.93404     -7172616.7      197.41124      197.41124      197.41124     -130.79704    
    152000   699.81988     -7172680.5      197.41124      197.41124      197.41124     -90.541178    
    153000   699.64717     -7172736.7      197.41124      197.41124      197.41124     -127.43171    
    154000   699.36364     -7172723.7      197.41124      197.41124      197.41124     -142.18784    
    155000   699.69712     -7172563.5      197.41124      197.41124      197.41124     -70.590401    
    156000   699.72683     -7172742.4      197.41124      197.41124      197.41124     -144.73597    
    157000   699.31037     -7172767.4      197.41124      197.41124      197.41124     -104.6994     
    158000   700.29947     -7172611.8      197.41124      197.41124      197.41124      0.28469136   
    159000   699.73136     -7172799        197.41124      197.41124      197.41124     -162.27036    
    160000   699.53651     -7172643.1      197.41124      197.41124      197.41124      11.190039    
    161000   699.66896     -7172810.5      197.41124      197.41124      197.41124     -95.091734    
    162000   700.19098     -7172571.4      197.41124      197.41124      197.41124     -24.537193    
    163000   700.72743     -7172634.7      197.41124      197.41124      197.41124     -68.504351    
    164000   701.5306      -7172593.2      197.41124      197.41124      197.41124     -6.3363461    
    165000   698.93061     -7172751.4      197.41124      197.41124      197.41124     -154.68783    
    166000   700.22865     -7172697        197.41124      197.41124      197.41124     -245.6512     
    167000   699.22341     -7172714.2      197.41124      197.41124      197.41124     -101.19959    
    168000   699.95136     -7172657.4      197.41124      197.41124      197.41124      111.33081    
    169000   699.70098     -7172812.4      197.41124      197.41124      197.41124     -43.28976     
    170000   697.91887     -7172853.9      197.41124      197.41124      197.41124     -204.47433    
    171000   701.82714     -7172548.1      197.41124      197.41124      197.41124     -63.435855    
    172000   699.58623     -7172772.9      197.41124      197.41124      197.41124     -201.96313    
    173000   700.79396     -7172565        197.41124      197.41124      197.41124      11.352385    
    174000   699.99643     -7172566        197.41124      197.41124      197.41124      85.157808    
    175000   699.96696     -7172759.9      197.41124      197.41124      197.41124      48.147621    
    176000   700.16751     -7172726        197.41124      197.41124      197.41124     -96.191834    
    177000   700.47979     -7172622.6      197.41124      197.41124      197.41124     -142.33257    
    178000   700.16872     -7172695.4      197.41124      197.41124      197.41124     -94.010632    
    179000   699.80992     -7172784.2      197.41124      197.41124      197.41124     -246.89309    
    180000   699.79708     -7172759.1      197.41124      197.41124      197.41124     -100.5719     
    181000   700.14918     -7172739.5      197.41124      197.41124      197.41124     -17.849193    
    182000   700.47945     -7172706.8      197.41124      197.41124      197.41124     -142.80183    
    183000   698.82052     -7172806.1      197.41124      197.41124      197.41124     -159.23576    
    184000   699.19491     -7172735.3      197.41124      197.41124      197.41124     -71.696959    
    185000   699.03543     -7172670.1      197.41124      197.41124      197.41124     -63.48737     
    186000   700.37239     -7172593.8      197.41124      197.41124      197.41124     -116.70063    
    187000   700.10289     -7172657.1      197.41124      197.41124      197.41124     -212.58497    
    188000   700.21804     -7172593.4      197.41124      197.41124      197.41124     -32.31886     
    189000   700.37141     -7172709.8      197.41124      197.41124      197.41124     -93.029181    
    190000   701.253       -7172582.4      197.41124      197.41124      197.41124     -21.495251    
    191000   700.42123     -7172636.9      197.41124      197.41124      197.41124      34.670498    
    192000   699.20392     -7172777.6      197.41124      197.41124      197.41124     -152.41057    
    193000   700.96412     -7172716.8      197.41124      197.41124      197.41124     -203.80545    
    194000   700.49739     -7172754.8      197.41124      197.41124      197.41124     -196.63011    
    195000   700.60218     -7172608.1      197.41124      197.41124      197.41124     -34.767996    
    196000   701.15652     -7172561.3      197.41124      197.41124      197.41124     -103.9391     
    197000   700.09605     -7172709.3      197.41124      197.41124      197.41124     -134.08305    
    198000   700.20634     -7172646        197.41124      197.41124      197.41124     -38.436957    
    199000   699.57742     -7172735.8      197.41124      197.41124      197.41124     -117.94344    
    200000   700.59148     -7172660.3      197.41124      197.41124      197.41124     -144.81044    
    201000   698.91877     -7172756        197.41124      197.41124      197.41124     -147.10148    
    202000   699.37484     -7172737.6      197.41124      197.41124      197.41124     -17.49328     
    203000   699.10971     -7172696.6      197.41124      197.41124      197.41124     -61.029658    
    204000   700.00142     -7172735.6      197.41124      197.41124      197.41124     -111.88359    
    205000   699.72448     -7172740.3      197.41124      197.41124      197.41124     -76.361701    
    206000   699.74673     -7172710.6      197.41124      197.41124      197.41124     -94.63829     
    207000   699.7558      -7172690.9      197.41124      197.41124      197.41124     -149.03472    
    208000   699.68707     -7172730        197.41124      197.41124      197.41124      15.875122    
    209000   700.56864     -7172581        197.41124      197.41124      197.41124      23.634745    
    210000   698.84585     -7172755.7      197.41124      197.41124      197.41124     -200.18314    
    211000   700.05279     -7172784.2      197.41124      197.41124      197.41124     -170.20419    
    212000   701.28531     -7172632.8      197.41124      197.41124      197.41124     -125.25366    
    213000   700.65376     -7172628.8      197.41124      197.41124      197.41124     -84.106562    
    214000   699.35197     -7172737.5      197.41124      197.41124      197.41124     -225.12712    
    215000   701.1249      -7172520.2      197.41124      197.41124      197.41124     -144.75728    
    216000   699.70761     -7172776.8      197.41124      197.41124      197.41124     -148.78359    
    217000   699.8324      -7172656.4      197.41124      197.41124      197.41124     -178.75898    
    218000   700.02032     -7172856.2      197.41124      197.41124      197.41124     -179.68455    
    219000   700.37037     -7172644.7      197.41124      197.41124      197.41124     -106.02793    
    220000   700.70727     -7172792.3      197.41124      197.41124      197.41124      84.05835     
    221000   700.61744     -7172695.4      197.41124      197.41124      197.41124     -193.02449    
    222000   700.73335     -7172652.4      197.41124      197.41124      197.41124     -133.58238    
    223000   699.38174     -7172831        197.41124      197.41124      197.41124     -244.07335    
    224000   699.85554     -7172752        197.41124      197.41124      197.41124     -231.16768    
    225000   700.15664     -7172707.5      197.41124      197.41124      197.41124     -155.88803    
    226000   699.72063     -7172632.3      197.41124      197.41124      197.41124     -55.458641    
    227000   700.63327     -7172670.2      197.41124      197.41124      197.41124     -158.79415    
    228000   701.0382      -7172689.4      197.41124      197.41124      197.41124     -114.01066    
    229000   700.4823      -7172611.9      197.41124      197.41124      197.41124     -64.704944    
    230000   699.36178     -7172754        197.41124      197.41124      197.41124     -89.790861    
    231000   700.25738     -7172700.4      197.41124      197.41124      197.41124     -186.74391    
    232000   700.55173     -7172603.3      197.41124      197.41124      197.41124     -43.7472      
    233000   700.17048     -7172670.8      197.41124      197.41124      197.41124     -56.405781    
    234000   700.93202     -7172634.4      197.41124      197.41124      197.41124     -82.432755    
    235000   700.04875     -7172647.1      197.41124      197.41124      197.41124     -148.68256    
    236000   701.07415     -7172484.4      197.41124      197.41124      197.41124     -24.417903    
    237000   700.33794     -7172598.4      197.41124      197.41124      197.41124     -69.206108    
    238000   700.38352     -7172633.4      197.41124      197.41124      197.41124     -91.175576    
    239000   701.17158     -7172586.9      197.41124      197.41124      197.41124     -10.094592    
    240000   699.58222     -7172823.7      197.41124      197.41124      197.41124     -104.61715    
    241000   699.61004     -7172682.5      197.41124      197.41124      197.41124     -110.64866    
    242000   699.27111     -7172677.8      197.41124      197.41124      197.41124      33.251751    
    243000   701.08254     -7172663.8      197.41124      197.41124      197.41124     -81.431225    
    244000   699.65678     -7172732.1      197.41124      197.41124      197.41124     -20.333068    
    245000   699.55834     -7172688.4      197.41124      197.41124      197.41124     -81.905698    
    246000   701.33112     -7172585.7      197.41124      197.41124      197.41124     -69.494426    
    247000   699.99269     -7172693.1      197.41124      197.41124      197.41124     -173.89864    
    248000   699.82642     -7172735.8      197.41124      197.41124      197.41124     -138.35519    
    249000   699.95619     -7172681.8      197.41124      197.41124      197.41124     -113.85019    
    250000   700.7951      -7172564.8      197.41124      197.41124      197.41124      50.503231    
    251000   698.73797     -7172671        197.41124      197.41124      197.41124      7.9326285    
    252000   700.61138     -7172650.8      197.41124      197.41124      197.41124     -137.08503    
    253000   700.21377     -7172672.9      197.41124      197.41124      197.41124     -103.44783    
    254000   701.1256      -7172635.3      197.41124      197.41124      197.41124     -150.70984    
    255000   700.92082     -7172700        197.41124      197.41124      197.41124     -127.28112    
    256000   699.44317     -7172740.8      197.41124      197.41124      197.41124     -86.122959    
    257000   700.89301     -7172654.1      197.41124      197.41124      197.41124     -46.928322    
    258000   700.00084     -7172712.9      197.41124      197.41124      197.41124     -142.81104    
    259000   699.58115     -7172735.2      197.41124      197.41124      197.41124     -83.500084    
    260000   699.74749     -7172691.2      197.41124      197.41124      197.41124      13.237092    
    261000   700.78766     -7172661.5      197.41124      197.41124      197.41124     -161.77746    
    262000   700.15253     -7172709.4      197.41124      197.41124      197.41124     -269.41681    
    263000   700.54035     -7172717.3      197.41124      197.41124      197.41124     -129.13458    
    264000   700.00945     -7172842.7      197.41124      197.41124      197.41124     -93.675473    
    265000   699.73657     -7172817.9      197.41124      197.41124      197.41124     -184.05633    
    266000   700.08096     -7172583.8      197.41124      197.41124      197.41124     -162.98807    
    267000   700.43541     -7172668.5      197.41124      197.41124      197.41124     -130.20944    
    268000   699.6578      -7172708.9      197.41124      197.41124      197.41124     -88.549593    
    269000   699.48966     -7172709.5      197.41124      197.41124      197.41124     -46.952141    
    270000   699.98116     -7172728.4      197.41124      197.41124      197.41124     -156.13989    
    271000   700.18677     -7172748.6      197.41124      197.41124      197.41124      39.866704    
    272000   699.15182     -7172788.1      197.41124      197.41124      197.41124     -114.31268    
    273000   699.7238      -7172659.1      197.41124      197.41124      197.41124     -61.982482    
    274000   700.42526     -7172709.1      197.41124      197.41124      197.41124     -62.463625    
    275000   700.30919     -7172702.5      197.41124      197.41124      197.41124      16.515054    
    276000   699.22579     -7172756.6      197.41124      197.41124      197.41124     -128.19212    
    277000   699.92937     -7172651.4      197.41124      197.41124      197.41124     -168.86314    
    278000   700.11086     -7172691.3      197.41124      197.41124      197.41124     -13.400263    
    279000   699.9458      -7172695.3      197.41124      197.41124      197.41124     -123.78142    
    280000   699.48042     -7172624.5      197.41124      197.41124      197.41124      23.71013     
    281000   699.10362     -7172627.7      197.41124      197.41124      197.41124      58.248173    
    282000   698.97196     -7172776.5      197.41124      197.41124      197.41124     -72.365468    
    283000   699.66458     -7172792.8      197.41124      197.41124      197.41124     -154.20271    
    284000   700.30773     -7172707.4      197.41124      197.41124      197.41124     -89.871629    
    285000   701.44372     -7172580.4      197.41124      197.41124      197.41124     -45.0512      
    286000   699.69924     -7172665.6      197.41124      197.41124      197.41124     -64.958247    
    287000   700.35655     -7172640.2      197.41124      197.41124      197.41124     -128.62411    
    288000   700.13729     -7172687.3      197.41124      197.41124      197.41124     -60.995103    
    289000   699.82437     -7172671.8      197.41124      197.41124      197.41124     -77.818121    
    290000   700.26527     -7172626.5      197.41124      197.41124      197.41124      3.656031     
    291000   699.75452     -7172797.9      197.41124      197.41124      197.41124     -91.761976    
    292000   699.83266     -7172612.8      197.41124      197.41124      197.41124     -179.04882    
    293000   699.51211     -7172757.8      197.41124      197.41124      197.41124     -71.449507    
    294000   700.54938     -7172608.9      197.41124      197.41124      197.41124     -140.65753    
    295000   700.19912     -7172620.4      197.41124      197.41124      197.41124     -100.2441     
    296000   699.65527     -7172781.9      197.41124      197.41124      197.41124     -127.34234    
    297000   700.43684     -7172626.7      197.41124      197.41124      197.41124     -167.23649    
    298000   700.20977     -7172721.7      197.41124      197.41124      197.41124     -215.10297    
    299000   699.82657     -7172727.5      197.41124      197.41124      197.41124     -83.116174    
    300000   701.32054     -7172626.1      197.41124      197.41124      197.41124     -77.590532    
    301000   700.17866     -7172628.4      197.41124      197.41124      197.41124     -53.704302    
    302000   700.31981     -7172629.6      197.41124      197.41124      197.41124     -109.58099    
    303000   698.75541     -7172738.2      197.41124      197.41124      197.41124     -81.947898    
    304000   700.14836     -7172660.3      197.41124      197.41124      197.41124     -28.895552    
    305000   701.15184     -7172592.8      197.41124      197.41124      197.41124     -0.90530207   
    306000   699.60714     -7172736.8      197.41124      197.41124      197.41124     -110.40319    
    307000   700.9489      -7172636.9      197.41124      197.41124      197.41124     -74.746577    
    308000   701.7943      -7172553.9      197.41124      197.41124      197.41124     -73.799129    
    309000   699.99957     -7172739.4      197.41124      197.41124      197.41124     -125.9264     
    310000   700.49754     -7172631.4      197.41124      197.41124      197.41124     -84.145636    
    311000   700.01723     -7172625.1      197.41124      197.41124      197.41124     -157.67682    
    312000   699.92784     -7172679        197.41124      197.41124      197.41124     -34.656666    
    313000   699.7111      -7172708        197.41124      197.41124      197.41124     -142.69731    
    314000   701.34644     -7172629.9      197.41124      197.41124      197.41124     -222.66434    
    315000   699.98864     -7172657.8      197.41124      197.41124      197.41124     -97.920705    
    316000   700.21167     -7172796.7      197.41124      197.41124      197.41124     -155.54837    
    317000   700.69057     -7172633.2      197.41124      197.41124      197.41124     -213.65334    
    318000   699.93185     -7172801.4      197.41124      197.41124      197.41124     -319.65224    
    319000   698.1698      -7172791.3      197.41124      197.41124      197.41124     -124.77307    
    320000   699.66976     -7172719.4      197.41124      197.41124      197.41124     -194.46577    
    321000   701.49721     -7172524.7      197.41124      197.41124      197.41124     -212.77578    
    322000   698.59858     -7172805.3      197.41124      197.41124      197.41124     -138.55899    
    323000   701.0841      -7172609.3      197.41124      197.41124      197.41124     -127.93964    
    324000   699.88222     -7172713.3      197.41124      197.41124      197.41124     -138.47995    
    325000   699.6174      -7172588.6      197.41124      197.41124      197.41124     -35.354883    
    326000   700.73379     -7172688.5      197.41124      197.41124      197.41124     -171.39263    
    327000   699.70307     -7172806.8      197.41124      197.41124      197.41124     -140.43196    
    328000   699.43374     -7172768.1      197.41124      197.41124      197.41124     -203.55336    
    329000   698.46979     -7172804.2      197.41124      197.41124      197.41124     -140.95198    
    330000   700.39722     -7172631        197.41124      197.41124      197.41124     -48.200427    
    331000   700.13654     -7172676.9      197.41124      197.41124      197.41124     -67.504268    
    332000   700.22656     -7172653.3      197.41124      197.41124      197.41124     -69.044968    
    333000   700.34732     -7172709.6      197.41124      197.41124      197.41124     -106.06941    
    334000   700.21459     -7172713.4      197.41124      197.41124      197.41124     -250.38388    
    335000   699.73263     -7172777.4      197.41124      197.41124      197.41124     -199.96124    
    336000   699.64172     -7172720.4      197.41124      197.41124      197.41124     -81.448075    
    337000   699.73025     -7172818        197.41124      197.41124      197.41124     -85.351606    
    338000   699.96902     -7172704.4      197.41124      197.41124      197.41124     -313.15284    
    339000   700.84764     -7172660.5      197.41124      197.41124      197.41124     -153.93849    
    340000   699.01164     -7172772.9      197.41124      197.41124      197.41124     -78.015925    
    341000   699.82585     -7172730.1      197.41124      197.41124      197.41124     -213.66387    
    342000   699.26794     -7172755        197.41124      197.41124      197.41124     -74.596189    
    343000   698.16191     -7172800.8      197.41124      197.41124      197.41124     -131.44453    
    344000   700.68277     -7172603.1      197.41124      197.41124      197.41124     -79.776485    
    345000   701.1265      -7172631.9      197.41124      197.41124      197.41124     -186.08921    
    346000   699.88934     -7172625.5      197.41124      197.41124      197.41124      10.663085    
    347000   699.14857     -7172750.6      197.41124      197.41124      197.41124     -117.01488    
    348000   700.83504     -7172636.6      197.41124      197.41124      197.41124     -139.46255    
    349000   700.23046     -7172740.5      197.41124      197.41124      197.41124     -63.018591    
    350000   698.52752     -7172753.7      197.41124      197.41124      197.41124     -265.25018    
    351000   698.59435     -7172795.3      197.41124      197.41124      197.41124     -7.9529598    
    352000   700.65291     -7172726.2      197.41124      197.41124      197.41124     -225.41546    
    353000   699.16984     -7172743.8      197.41124      197.41124      197.41124     -225.5337     
    354000   699.78846     -7172771.8      197.41124      197.41124      197.41124     -213.67986    
    355000   700.80069     -7172609        197.41124      197.41124      197.41124     -12.046951    
    356000   699.38378     -7172623.1      197.41124      197.41124      197.41124     -119.47653    
    357000   700.62833     -7172643.8      197.41124      197.41124      197.41124     -211.40839    
    358000   700.38343     -7172776.3      197.41124      197.41124      197.41124     -185.15322    
    359000   700.13416     -7172672.1      197.41124      197.41124      197.41124     -160.56572    
    360000   699.4957      -7172722.2      197.41124      197.41124      197.41124     -135.0856     
    361000   699.66942     -7172715.8      197.41124      197.41124      197.41124     -105.85104    
    362000   700.59194     -7172540.8      197.41124      197.41124      197.41124      93.418621    
    363000   699.78466     -7172696.3      197.41124      197.41124      197.41124     -133.01429    
    364000   699.9189      -7172678.1      197.41124      197.41124      197.41124     -25.418531    
    365000   700.99641     -7172612.9      197.41124      197.41124      197.41124     -20.198688    
    366000   699.1124      -7172684.6      197.41124      197.41124      197.41124     -73.815222    
    367000   699.17514     -7172836.2      197.41124      197.41124      197.41124     -291.26973    
    368000   699.04106     -7172822.6      197.41124      197.41124      197.41124     -189.67356    
    369000   700.05879     -7172743.4      197.41124      197.41124      197.41124     -176.22882    
    370000   700.40321     -7172609.9      197.41124      197.41124      197.41124     -107.56341    
    371000   699.55683     -7172790.1      197.41124      197.41124      197.41124     -203.32291    
    372000   700.75002     -7172527.2      197.41124      197.41124      197.41124     -105.86288    
    373000   699.81268     -7172805.1      197.41124      197.41124      197.41124     -188.00755    
    374000   700.35021     -7172742.4      197.41124      197.41124      197.41124     -136.51447    
    375000   698.97774     -7172744.8      197.41124      197.41124      197.41124     -59.40812     
    376000   700.44847     -7172759.3      197.41124      197.41124      197.41124     -107.62751    
    377000   700.32255     -7172587.8      197.41124      197.41124      197.41124     -81.342492    
    378000   698.86783     -7172819.6      197.41124      197.41124      197.41124     -106.81862    
    379000   699.73698     -7172684.7      197.41124      197.41124      197.41124     -111.52322    
    380000   699.39152     -7172758.6      197.41124      197.41124      197.41124     -173.08315    
    381000   700.55482     -7172656.3      197.41124      197.41124      197.41124     -170.39012    
    382000   700.22346     -7172712.9      197.41124      197.41124      197.41124     -208.86221    
    383000   700.14485     -7172687        197.41124      197.41124      197.41124     -77.907654    
    384000   699.84846     -7172682.7      197.41124      197.41124      197.41124     -211.26376    
    385000   699.89287     -7172656.2      197.41124      197.41124      197.41124     -288.60388    
    386000   699.20372     -7172768.2      197.41124      197.41124      197.41124     -144.14224    
    387000   700.41188     -7172648.4      197.41124      197.41124      197.41124     -203.19107    
    388000   699.32036     -7172589.7      197.41124      197.41124      197.41124     -121.16037    
    389000   699.51286     -7172735.6      197.41124      197.41124      197.41124     -124.45084    
    390000   698.79966     -7172746.1      197.41124      197.41124      197.41124     -130.88238    
    391000   700.44997     -7172575        197.41124      197.41124      197.41124     -120.61583    
    392000   699.90338     -7172656.8      197.41124      197.41124      197.41124     -123.52647    
    393000   699.56681     -7172776.9      197.41124      197.41124      197.41124     -223.49828    
    394000   700.4933      -7172581.2      197.41124      197.41124      197.41124     -90.502578    
    395000   700.27322     -7172722.5      197.41124      197.41124      197.41124     -84.490012    
    396000   700.11522     -7172623.5      197.41124      197.41124      197.41124     -164.75108    
    397000   700.32809     -7172641.3      197.41124      197.41124      197.41124     -35.555696    
    398000   699.74677     -7172753.4      197.41124      197.41124      197.41124     -217.68056    
    399000   699.17005     -7172658.3      197.41124      197.41124      197.41124      149.87688    
    400000   699.62971     -7172676.6      197.41124      197.41124      197.41124     -45.654554    
    401000   699.71582     -7172728.5      197.41124      197.41124      197.41124     -44.657783    
    402000   700.1671      -7172648.1      197.41124      197.41124      197.41124     -99.73678     
    403000   698.9608      -7172803.1      197.41124      197.41124      197.41124     -29.850887    
    404000   699.87845     -7172665.5      197.41124      197.41124      197.41124     -22.124287    
    405000   699.88173     -7172783.4      197.41124      197.41124      197.41124     -210.27188    
    406000   699.84532     -7172703.9      197.41124      197.41124      197.41124     -191.47139    
    407000   699.71842     -7172593.9      197.41124      197.41124      197.41124     -82.271569    
    408000   702.08508     -7172508.4      197.41124      197.41124      197.41124     -33.178232    
    409000   700.15248     -7172728.5      197.41124      197.41124      197.41124      69.301615    
    410000   701.10316     -7172547.5      197.41124      197.41124      197.41124     -19.915413    
    411000   701.34013     -7172655.6      197.41124      197.41124      197.41124     -109.84644    
    412000   700.95703     -7172683.2      197.41124      197.41124      197.41124     -110.64841    
    413000   699.64954     -7172744.1      197.41124      197.41124      197.41124     -88.627901    
    414000   699.93879     -7172667.2      197.41124      197.41124      197.41124     -104.24211    
    415000   700.59684     -7172575.1      197.41124      197.41124      197.41124     -155.7255     
    416000   701.19545     -7172573.1      197.41124      197.41124      197.41124     -128.80792    
    417000   700.53557     -7172666.8      197.41124      197.41124      197.41124     -186.03721    
    418000   699.39761     -7172786        197.41124      197.41124      197.41124     -166.55458    
    419000   700.08637     -7172694.9      197.41124      197.41124      197.41124     -110.23817    
    420000   699.73615     -7172749.4      197.41124      197.41124      197.41124     -71.694112    
    421000   699.80749     -7172771.5      197.41124      197.41124      197.41124     -162.70822    
    422000   700.63367     -7172770        197.41124      197.41124      197.41124     -65.633895    
    423000   699.92233     -7172625.2      197.41124      197.41124      197.41124     -162.53302    
    424000   700.46756     -7172653.9      197.41124      197.41124      197.41124      24.613041    
    425000   699.82887     -7172630.5      197.41124      197.41124      197.41124     -224.73656    
    426000   700.07783     -7172797.6      197.41124      197.41124      197.41124     -213.60122    
    427000   700.23677     -7172660.6      197.41124      197.41124      197.41124     -74.733409    
    428000   700.42679     -7172827.2      197.41124      197.41124      197.41124     -196.19754    
    429000   700.5374      -7172638.4      197.41124      197.41124      197.41124     -87.632548    
    430000   700.43392     -7172694.2      197.41124      197.41124      197.41124     -184.01093    
    431000   699.32494     -7172779.6      197.41124      197.41124      197.41124     -119.39778    
    432000   699.23413     -7172639.9      197.41124      197.41124      197.41124     -10.38588     
    433000   700.42055     -7172605.1      197.41124      197.41124      197.41124     -121.23423    
    434000   700.79837     -7172683.7      197.41124      197.41124      197.41124     -37.734984    
    435000   700.11178     -7172669.3      197.41124      197.41124      197.41124     -115.59411    
    436000   699.63791     -7172764.4      197.41124      197.41124      197.41124     -13.968521    
    437000   700.30019     -7172652.2      197.41124      197.41124      197.41124     -52.474214    
    438000   699.26191     -7172747.6      197.41124      197.41124      197.41124     -100.73285    
    439000   699.19623     -7172726.4      197.41124      197.41124      197.41124     -150.29673    
    440000   700.61272     -7172630.1      197.41124      197.41124      197.41124     -113.29497    
    441000   700.69976     -7172647.8      197.41124      197.41124      197.41124     -69.245222    
    442000   699.1166      -7172740.6      197.41124      197.41124      197.41124     -22.714497    
    443000   699.6717      -7172747.3      197.41124      197.41124      197.41124     -89.808834    
    444000   701.15666     -7172602.7      197.41124      197.41124      197.41124     -242.3504     
    445000   699.69861     -7172806.9      197.41124      197.41124      197.41124     -155.11623    
    446000   700.69625     -7172662.9      197.41124      197.41124      197.41124     -62.142369    
    447000   700.09778     -7172680.9      197.41124      197.41124      197.41124     -30.292726    
    448000   700.60377     -7172613.5      197.41124      197.41124      197.41124     -67.765233    
    449000   699.27968     -7172661.9      197.41124      197.41124      197.41124     -3.025373     
    450000   701.6216      -7172674        197.41124      197.41124      197.41124     -231.384      
    451000   699.66592     -7172665.4      197.41124      197.41124      197.41124     -71.582432    
    452000   700.54766     -7172659.7      197.41124      197.41124      197.41124     -167.40553    
    453000   700.05043     -7172770.4      197.41124      197.41124      197.41124     -111.9007     
    454000   699.86259     -7172680.4      197.41124      197.41124      197.41124     -99.089874    
    455000   699.4443      -7172746.1      197.41124      197.41124      197.41124     -125.26099    
    456000   701.13534     -7172547.5      197.41124      197.41124      197.41124     -82.52577     
    457000   698.69422     -7172759.3      197.41124      197.41124      197.41124     -123.81266    
    458000   699.60377     -7172680.2      197.41124      197.41124      197.41124     -20.404313    
    459000   699.50285     -7172837.6      197.41124      197.41124      197.41124     -198.92797    
    460000   701.09518     -7172628.2      197.41124      197.41124      197.41124     -114.10755    
    461000   700.59528     -7172611.1      197.41124      197.41124      197.41124      16.472036    
    462000   699.56667     -7172678        197.41124      197.41124      197.41124     -147.56255    
    463000   699.48922     -7172671.5      197.41124      197.41124      197.41124      13.498375    
    464000   699.27607     -7172843.3      197.41124      197.41124      197.41124     -134.01605    
    465000   699.95746     -7172679.4      197.41124      197.41124      197.41124     -39.425965    
    466000   699.38088     -7172770.8      197.41124      197.41124      197.41124     -112.4989     
    467000   699.41665     -7172660.7      197.41124      197.41124      197.41124     -202.50432    
    468000   700.21613     -7172720.6      197.41124      197.41124      197.41124     -9.8537578    
    469000   699.62349     -7172646.5      197.41124      197.41124      197.41124     -147.95624    
    470000   699.52631     -7172751.5      197.41124      197.41124      197.41124     -59.179969    
    471000   699.7842      -7172685.3      197.41124      197.41124      197.41124     -89.217421    
    472000   701.83279     -7172525.1      197.41124      197.41124      197.41124      69.154742    
    473000   700.97949     -7172681.2      197.41124      197.41124      197.41124     -131.41638    
    474000   699.00009     -7172822.3      197.41124      197.41124      197.41124     -37.039379    
    475000   700.50516     -7172679.1      197.41124      197.41124      197.41124     -137.20654    
    476000   699.77319     -7172739.9      197.41124      197.41124      197.41124     -102.00279    
    477000   697.82341     -7172800.7      197.41124      197.41124      197.41124     -128.82268    
    478000   700.37173     -7172619.4      197.41124      197.41124      197.41124     -73.461342    
    479000   700.70896     -7172697.1      197.41124      197.41124      197.41124     -118.5884     
    480000   700.76517     -7172689.3      197.41124      197.41124      197.41124      41.589912    
    481000   700.34944     -7172584        197.41124      197.41124      197.41124     -0.44651383   
    482000   699.72576     -7172747.7      197.41124      197.41124      197.41124     -27.134741    
    483000   700.36563     -7172647.2      197.41124      197.41124      197.41124     -42.274795    
    484000   699.96772     -7172717.1      197.41124      197.41124      197.41124     -119.67665    
    485000   700.62563     -7172693.6      197.41124      197.41124      197.41124     -24.875382    
    486000   699.31594     -7172781.2      197.41124      197.41124      197.41124     -5.7622371    
    487000   700.47946     -7172617.9      197.41124      197.41124      197.41124     -111.78004    
    488000   699.07737     -7172700.4      197.41124      197.41124      197.41124     -30.335331    
    489000   700.25055     -7172794.4      197.41124      197.41124      197.41124     -206.25797    
    490000   699.16242     -7172764.4      197.41124      197.41124      197.41124     -74.99961     
    491000   700.72331     -7172684.5      197.41124      197.41124      197.41124     -48.996115    
    492000   700.99186     -7172632.8      197.41124      197.41124      197.41124     -190.31659    
    493000   701.47252     -7172673.6      197.41124      197.41124      197.41124     -11.981823    
    494000   699.78391     -7172784.8      197.41124      197.41124      197.41124     -94.514968    
    495000   700.67599     -7172538.2      197.41124      197.41124      197.41124      37.251856    
    496000   700.89737     -7172627.3      197.41124      197.41124      197.41124     -6.8481054    
    497000   700.33497     -7172621.7      197.41124      197.41124      197.41124     -68.107849    
    498000   700.91824     -7172669.6      197.41124      197.41124      197.41124     -56.572307    
    499000   700.77065     -7172742.4      197.41124      197.41124      197.41124     -146.13373    
    500000   700.35324     -7172688.7      197.41124      197.41124      197.41124     -214.76136    
    501000   701.26835     -7172590.1      197.41124      197.41124      197.41124     -39.862232    
    502000   700.29858     -7172652.1      197.41124      197.41124      197.41124     -76.855867    
    503000   699.73453     -7172621.4      197.41124      197.41124      197.41124     -73.691238    
    504000   699.20616     -7172826.2      197.41124      197.41124      197.41124     -68.366151    
    505000   699.2234      -7172780.7      197.41124      197.41124      197.41124     -15.862501    
    506000   700.68121     -7172668.2      197.41124      197.41124      197.41124     -30.289845    
    507000   699.68263     -7172755.3      197.41124      197.41124      197.41124     -141.29681    
    508000   699.54635     -7172736.4      197.41124      197.41124      197.41124     -85.45425     
    509000   700.13668     -7172724.1      197.41124      197.41124      197.41124     -153.96642    
    510000   701.3455      -7172622.3      197.41124      197.41124      197.41124     -155.00836    
    511000   699.24346     -7172796.6      197.41124      197.41124      197.41124     -91.802676    
    512000   699.43903     -7172770.8      197.41124      197.41124      197.41124     -198.4613     
    513000   699.33577     -7172714.3      197.41124      197.41124      197.41124     -101.92667    
    514000   699.10515     -7172822        197.41124      197.41124      197.41124     -123.77165    
    515000   699.97716     -7172659        197.41124      197.41124      197.41124     -143.62793    
    516000   699.61064     -7172713        197.41124      197.41124      197.41124     -47.322558    
    517000   698.83361     -7172798.2      197.41124      197.41124      197.41124     -76.534791    
    518000   700.7952      -7172639        197.41124      197.41124      197.41124     -101.54514    
    519000   700.83335     -7172604        197.41124      197.41124      197.41124     -110.58381    
    520000   699.41835     -7172713.5      197.41124      197.41124      197.41124     -44.434199    
    521000   700.32849     -7172626.4      197.41124      197.41124      197.41124     -20.674666    
    522000   701.36515     -7172706.6      197.41124      197.41124      197.41124     -95.019448    
    523000   700.47988     -7172711.8      197.41124      197.41124      197.41124     -35.126817    
    524000   699.31345     -7172737.4      197.41124      197.41124      197.41124     -50.228719    
    525000   699.70874     -7172704.8      197.41124      197.41124      197.41124     -127.91827    
    526000   699.99747     -7172751.6      197.41124      197.41124      197.41124     -109.89698    
    527000   700.65959     -7172553.3      197.41124      197.41124      197.41124     -91.752207    
    528000   699.87169     -7172808.3      197.41124      197.41124      197.41124     -194.79294    
    529000   701.29069     -7172575.1      197.41124      197.41124      197.41124     -209.32768    
    530000   700.03516     -7172773.4      197.41124      197.41124      197.41124     -145.38222    
    531000   699.81707     -7172712.4      197.41124      197.41124      197.41124     -97.892788    
    532000   700.16615     -7172729        197.41124      197.41124      197.41124     -97.979185    
    533000   700.39459     -7172627.8      197.41124      197.41124      197.41124     -26.265229    
    534000   700.78768     -7172655.2      197.41124      197.41124      197.41124     -149.96666    
    535000   700.55338     -7172686.5      197.41124      197.41124      197.41124     -120.95408    
    536000   699.82253     -7172704.2      197.41124      197.41124      197.41124     -33.412324    
    537000   700.41663     -7172694.4      197.41124      197.41124      197.41124     -191.99807    
    538000   700.23886     -7172671.2      197.41124      197.41124      197.41124     -98.768527    
    539000   699.75623     -7172662.7      197.41124      197.41124      197.41124     -92.324053    
    540000   699.5299      -7172771.7      197.41124      197.41124      197.41124     -92.282433    
    541000   699.13379     -7172769.1      197.41124      197.41124      197.41124     -69.656968    
    542000   698.70853     -7172810.2      197.41124      197.41124      197.41124     -165.72888    
    543000   698.36991     -7172779.1      197.41124      197.41124      197.41124     -179.79039    
    544000   699.65307     -7172671.1      197.41124      197.41124      197.41124     -75.894238    
    545000   699.86688     -7172556.6      197.41124      197.41124      197.41124     -83.373256    
    546000   699.7341      -7172742.5      197.41124      197.41124      197.41124     -115.13017    
    547000   699.96515     -7172760.1      197.41124      197.41124      197.41124     -123.82009    
    548000   698.59116     -7172892.9      197.41124      197.41124      197.41124     -95.054152    
    549000   699.10195     -7172751.9      197.41124      197.41124      197.41124     -73.066885    
    550000   700.55424     -7172708.5      197.41124      197.41124      197.41124     -90.377682    
    551000   699.67641     -7172758.1      197.41124      197.41124      197.41124     -85.4749      
    552000   699.07282     -7172721.2      197.41124      197.41124      197.41124     -82.901723    
    553000   699.53968     -7172774.7      197.41124      197.41124      197.41124     -69.955127    
    554000   698.87445     -7172819.9      197.41124      197.41124      197.41124     -161.77107    
    555000   700.00134     -7172687.6      197.41124      197.41124      197.41124     -183.69053    
    556000   700.28475     -7172755.5      197.41124      197.41124      197.41124     -151.33469    
    557000   700.86246     -7172624        197.41124      197.41124      197.41124     -173.44513    
    558000   699.90004     -7172707.6      197.41124      197.41124      197.41124     -33.378184    
    559000   699.81693     -7172714.1      197.41124      197.41124      197.41124     -216.947      
    560000   699.94374     -7172774.9      197.41124      197.41124      197.41124     -119.47107    
    561000   702.09086     -7172640.3      197.41124      197.41124      197.41124     -139.65397    
    562000   699.53357     -7172695.2      197.41124      197.41124      197.41124     -133.83202    
    563000   699.48481     -7172824.7      197.41124      197.41124      197.41124     -272.16985    
    564000   699.85626     -7172820.9      197.41124      197.41124      197.41124     -196.21629    
    565000   700.87026     -7172671.3      197.41124      197.41124      197.41124     -77.508203    
    566000   698.91976     -7172780.1      197.41124      197.41124      197.41124     -168.98056    
    567000   700.64895     -7172725.2      197.41124      197.41124      197.41124     -55.675809    
    568000   699.56947     -7172843        197.41124      197.41124      197.41124     -273.00973    
    569000   699.17707     -7172741.7      197.41124      197.41124      197.41124     -17.443124    
    570000   701.38759     -7172608.8      197.41124      197.41124      197.41124     -234.18452    
    571000   700.77951     -7172627.5      197.41124      197.41124      197.41124     -28.494498    
    572000   700.18452     -7172685.7      197.41124      197.41124      197.41124      23.586822    
    573000   700.31251     -7172617        197.41124      197.41124      197.41124     -122.72176    
    574000   699.36079     -7172696.3      197.41124      197.41124      197.41124     -82.324564    
    575000   700.24492     -7172570.8      197.41124      197.41124      197.41124     -128.77548    
    576000   699.94491     -7172765.6      197.41124      197.41124      197.41124      10.922693    
    577000   699.46989     -7172733.3      197.41124      197.41124      197.41124     -47.344611    
    578000   700.67588     -7172754.5      197.41124      197.41124      197.41124     -175.9381     
    579000   699.5593      -7172808.2      197.41124      197.41124      197.41124     -62.154986    
    580000   698.78579     -7172761.9      197.41124      197.41124      197.41124     -165.33697    
    581000   699.18503     -7172818.8      197.41124      197.41124      197.41124     -109.2302     
    582000   699.87962     -7172732.6      197.41124      197.41124      197.41124      7.6049494    
    583000   700.0371      -7172736.7      197.41124      197.41124      197.41124     -178.07968    
    584000   699.61504     -7172735        197.41124      197.41124      197.41124     -79.987957    
    585000   700.33533     -7172666.8      197.41124      197.41124      197.41124     -132.41851    
    586000   699.49962     -7172694.4      197.41124      197.41124      197.41124     -50.46411     
    587000   700.37968     -7172701.4      197.41124      197.41124      197.41124     -35.663595    
    588000   699.84031     -7172750.8      197.41124      197.41124      197.41124     -237.50679    
    589000   699.89941     -7172644.2      197.41124      197.41124      197.41124     -107.79553    
    590000   700.94493     -7172591.7      197.41124      197.41124      197.41124     -43.886176    
    591000   700.86211     -7172690.6      197.41124      197.41124      197.41124     -177.73851    
    592000   699.72429     -7172800.2      197.41124      197.41124      197.41124     -168.53377    
    593000   698.98708     -7172759.2      197.41124      197.41124      197.41124     -2.0442634    
    594000   700.5699      -7172634        197.41124      197.41124      197.41124     -31.692874    
    595000   700.66621     -7172586.6      197.41124      197.41124      197.41124     -59.315261    
    596000   700.07674     -7172667.5      197.41124      197.41124      197.41124     -43.51935     
    597000   701.44002     -7172608.5      197.41124      197.41124      197.41124     -116.58965    
    598000   700.25484     -7172759.2      197.41124      197.41124      197.41124     -103.96506    
    599000   700.5009      -7172670.3      197.41124      197.41124      197.41124     -95.908418    
    600000   699.75312     -7172659.5      197.41124      197.41124      197.41124     -85.337944    
    601000   701.14392     -7172635.8      197.41124      197.41124      197.41124     -124.90568    
    602000   700.14844     -7172758.9      197.41124      197.41124      197.41124     -131.23974    
    603000   700.05826     -7172689.6      197.41124      197.41124      197.41124     -5.4497137    
    604000   701.26899     -7172618.1      197.41124      197.41124      197.41124     -145.25985    
    605000   700.42617     -7172662.3      197.41124      197.41124      197.41124     -183.35706    
    606000   701.14946     -7172567.2      197.41124      197.41124      197.41124     -73.668451    
    607000   701.33738     -7172651.7      197.41124      197.41124      197.41124     -93.405131    
    608000   700.15897     -7172843.5      197.41124      197.41124      197.41124     -156.60681    
    609000   699.93891     -7172785.3      197.41124      197.41124      197.41124     -171.75399    
    610000   701.06892     -7172744.3      197.41124      197.41124      197.41124     -72.968257    
    611000   699.51508     -7172760.4      197.41124      197.41124      197.41124     -144.23843    
    612000   700.45966     -7172703        197.41124      197.41124      197.41124     -28.886707    
    613000   700.36657     -7172696.7      197.41124      197.41124      197.41124     -126.89187    
    614000   700.52601     -7172626.5      197.41124      197.41124      197.41124     -42.904135    
    615000   699.13103     -7172853.2      197.41124      197.41124      197.41124     -225.33628    
    616000   698.86802     -7172782.6      197.41124      197.41124      197.41124     -70.692374    
    617000   700.0841      -7172756.1      197.41124      197.41124      197.41124     -93.735976    
    618000   699.54973     -7172694.9      197.41124      197.41124      197.41124     -113.04733    
    619000   699.56726     -7172757.1      197.41124      197.41124      197.41124     -273.96695    
    620000   700.27123     -7172740.5      197.41124      197.41124      197.41124     -176.42214    
    621000   699.8771      -7172658.6      197.41124      197.41124      197.41124      7.4817859    
    622000   700.00325     -7172680.9      197.41124      197.41124      197.41124     -61.765801    
    623000   700.23436     -7172656.8      197.41124      197.41124      197.41124     -6.3529545    
    624000   699.94204     -7172754.4      197.41124      197.41124      197.41124     -138.15287    
    625000   700.53261     -7172636.9      197.41124      197.41124      197.41124     -246.5453     
    626000   700.49542     -7172684.4      197.41124      197.41124      197.41124     -172.24617    
    627000   699.46868     -7172791.2      197.41124      197.41124      197.41124     -116.94361    
    628000   700.34452     -7172700.9      197.41124      197.41124      197.41124     -36.247691    
    629000   700.40506     -7172703.8      197.41124      197.41124      197.41124     -231.82311    
    630000   699.98157     -7172722.3      197.41124      197.41124      197.41124     -138.36742    
    631000   699.4199      -7172884.2      197.41124      197.41124      197.41124     -94.401505    
    632000   700.82777     -7172673.5      197.41124      197.41124      197.41124     -138.36772    
    633000   699.61507     -7172679.8      197.41124      197.41124      197.41124     -85.562241    
    634000   700.25913     -7172665.2      197.41124      197.41124      197.41124      9.8322189    
    635000   700.94852     -7172625.7      197.41124      197.41124      197.41124     -175.6188     
    636000   700.00863     -7172638.9      197.41124      197.41124      197.41124      20.411992    
    637000   699.84812     -7172775.5      197.41124      197.41124      197.41124     -95.327265    
    638000   700.43145     -7172662.7      197.41124      197.41124      197.41124     -135.23718    
    639000   700.3815      -7172794.7      197.41124      197.41124      197.41124     -197.74999    
    640000   699.07723     -7172788.1      197.41124      197.41124      197.41124     -120.14655    
    641000   699.51591     -7172728.9      197.41124      197.41124      197.41124     -109.47053    
    642000   701.1982      -7172630.3      197.41124      197.41124      197.41124     -133.49857    
    643000   700.17963     -7172625        197.41124      197.41124      197.41124     -100.22705    
    644000   700.77656     -7172685        197.41124      197.41124      197.41124     -80.498932    
    645000   699.90621     -7172746.6      197.41124      197.41124      197.41124     -221.90483    
    646000   700.82755     -7172632.7      197.41124      197.41124      197.41124     -116.14277    
    647000   701.71241     -7172614.1      197.41124      197.41124      197.41124     -86.277684    
    648000   699.35733     -7172890.7      197.41124      197.41124      197.41124     -158.63331    
    649000   699.92352     -7172744.1      197.41124      197.41124      197.41124     -77.154302    
    650000   700.9074      -7172689.5      197.41124      197.41124      197.41124     -131.35715    
    651000   698.9945      -7172765.3      197.41124      197.41124      197.41124     -53.210244    
    652000   700.8004      -7172609.8      197.41124      197.41124      197.41124     -174.50318    
    653000   699.01498     -7172754.8      197.41124      197.41124      197.41124     -99.688176    
    654000   700.6098      -7172739.2      197.41124      197.41124      197.41124     -64.104982    
    655000   700.56099     -7172741.7      197.41124      197.41124      197.41124     -194.07595    
    656000   700.84687     -7172683.3      197.41124      197.41124      197.41124     -92.405379    
    657000   700.06588     -7172668.1      197.41124      197.41124      197.41124     -147.01086    
    658000   700.12941     -7172701        197.41124      197.41124      197.41124     -71.735383    
    659000   700.00402     -7172659.2      197.41124      197.41124      197.41124     -95.89068     
    660000   700.20074     -7172761.8      197.41124      197.41124      197.41124     -116.57064    
    661000   700.86229     -7172573.2      197.41124      197.41124      197.41124     -90.166927    
    662000   699.21265     -7172843.1      197.41124      197.41124      197.41124     -201.41817    
    663000   700.71792     -7172666.6      197.41124      197.41124      197.41124     -133.51425    
    664000   700.06428     -7172738.4      197.41124      197.41124      197.41124     -203.63037    
    665000   699.99108     -7172729.1      197.41124      197.41124      197.41124     -119.80382    
    666000   700.32697     -7172697.4      197.41124      197.41124      197.41124     -65.003394    
    667000   700.29446     -7172750.6      197.41124      197.41124      197.41124     -174.44954    
    668000   700.00557     -7172692.8      197.41124      197.41124      197.41124     -33.996747    
    669000   700.23611     -7172634.6      197.41124      197.41124      197.41124     -195.63       
    670000   699.78533     -7172747.8      197.41124      197.41124      197.41124     -210.03704    
    671000   700.74971     -7172679        197.41124      197.41124      197.41124     -189.90981    
    672000   700.00022     -7172718.8      197.41124      197.41124      197.41124     -163.25996    
    673000   700.46315     -7172695.7      197.41124      197.41124      197.41124     -122.3586     
    674000   699.01788     -7172824.1      197.41124      197.41124      197.41124     -46.490557    
    675000   699.34205     -7172723.5      197.41124      197.41124      197.41124     -48.009426    
    676000   700.50475     -7172670.2      197.41124      197.41124      197.41124     -314.64644    
    677000   700.26794     -7172625        197.41124      197.41124      197.41124     -93.789845    
    678000   700.93964     -7172717        197.41124      197.41124      197.41124     -124.52164    
    679000   700.39931     -7172676.6      197.41124      197.41124      197.41124     -175.64217    
    680000   698.92156     -7172862.1      197.41124      197.41124      197.41124     -163.64491    
    681000   698.85945     -7172773.6      197.41124      197.41124      197.41124     -36.144311    
    682000   700.36709     -7172709.1      197.41124      197.41124      197.41124     -33.166602    
    683000   700.1013      -7172763.2      197.41124      197.41124      197.41124     -23.270854    
    684000   699.53468     -7172667.6      197.41124      197.41124      197.41124     -102.7991     
    685000   699.51555     -7172703.7      197.41124      197.41124      197.41124      0.63956081   
    686000   700.46669     -7172685.1      197.41124      197.41124      197.41124     -202.41254    
    687000   699.92738     -7172727.5      197.41124      197.41124      197.41124     -53.030321    
    688000   699.29091     -7172763.4      197.41124      197.41124      197.41124     -88.26368     
    689000   701.12992     -7172681.8      197.41124      197.41124      197.41124     -98.03364     
    690000   699.27531     -7172785.8      197.41124      197.41124      197.41124     -128.46603    
    691000   701.05565     -7172602.6      197.41124      197.41124      197.41124     -89.63511     
    692000   699.9544      -7172711.6      197.41124      197.41124      197.41124     -23.881994    
    693000   699.10927     -7172768.8      197.41124      197.41124      197.41124     -5.1046019    
    694000   699.33447     -7172679.8      197.41124      197.41124      197.41124     -12.301123    
    695000   700.27529     -7172809.9      197.41124      197.41124      197.41124     -81.256471    
    696000   699.60467     -7172840.5      197.41124      197.41124      197.41124     -149.03832    
    697000   699.25739     -7172775.8      197.41124      197.41124      197.41124     -111.2123     
    698000   700.93357     -7172603.1      197.41124      197.41124      197.41124     -210.88992    
    699000   700.32209     -7172641.2      197.41124      197.41124      197.41124     -70.150238    
    700000   700.55292     -7172660.7      197.41124      197.41124      197.41124     -91.651519    
    701000   701.07741     -7172624.3      197.41124      197.41124      197.41124     -25.890105    
    702000   700.23428     -7172673        197.41124      197.41124      197.41124     -12.228734    
    703000   700.69854     -7172772.1      197.41124      197.41124      197.41124     -172.20879    
    704000   699.54275     -7172689.9      197.41124      197.41124      197.41124     -204.6576     
    705000   701.30819     -7172578        197.41124      197.41124      197.41124     -196.38903    
    706000   699.83678     -7172654.9      197.41124      197.41124      197.41124     -107.48001    
    707000   700.43656     -7172655.5      197.41124      197.41124      197.41124     -68.856426    
    708000   700.01656     -7172671.7      197.41124      197.41124      197.41124     -191.43231    
    709000   700.23679     -7172768.7      197.41124      197.41124      197.41124     -144.33942    
    710000   698.86786     -7172698.6      197.41124      197.41124      197.41124     -125.25173    
    711000   699.33814     -7172777.9      197.41124      197.41124      197.41124     -45.995844    
    712000   701.26371     -7172683.4      197.41124      197.41124      197.41124     -88.002311    
    713000   700.31144     -7172713.7      197.41124      197.41124      197.41124     -190.94313    
    714000   699.82068     -7172791        197.41124      197.41124      197.41124     -183.54859    
    715000   700.60548     -7172565.1      197.41124      197.41124      197.41124     -76.327211    
    716000   699.94183     -7172817.7      197.41124      197.41124      197.41124     -230.54309    
    717000   700.18516     -7172681.5      197.41124      197.41124      197.41124     -43.21428     
    718000   700.73557     -7172718.5      197.41124      197.41124      197.41124     -116.4353     
    719000   699.20581     -7172665.1      197.41124      197.41124      197.41124     -174.98038    
    720000   699.53683     -7172719.5      197.41124      197.41124      197.41124     -86.774487    
    721000   700.0122      -7172726.6      197.41124      197.41124      197.41124     -216.79849    
    722000   699.30599     -7172768.8      197.41124      197.41124      197.41124     -188.14741    
    723000   699.66445     -7172622.7      197.41124      197.41124      197.41124     -26.327194    
    724000   699.74748     -7172737.2      197.41124      197.41124      197.41124     -8.9857277    
    725000   699.31398     -7172753.6      197.41124      197.41124      197.41124     -65.792897    
    726000   700.38805     -7172653.2      197.41124      197.41124      197.41124      30.024051    
    727000   699.35771     -7172747.4      197.41124      197.41124      197.41124     -42.330208    
    728000   699.3639      -7172753.2      197.41124      197.41124      197.41124     -102.41941    
    729000   700.0685      -7172651.6      197.41124      197.41124      197.41124     -34.277263    
    730000   700.34962     -7172712.9      197.41124      197.41124      197.41124     -257.70296    
    731000   700.09991     -7172722        197.41124      197.41124      197.41124     -268.45403    
    732000   700.05243     -7172630.9      197.41124      197.41124      197.41124      82.804229    
    733000   699.92838     -7172663.2      197.41124      197.41124      197.41124     -166.03441    
    734000   699.53819     -7172700.8      197.41124      197.41124      197.41124     -88.779813    
    735000   700.52608     -7172667        197.41124      197.41124      197.41124     -112.49587    
    736000   700.28859     -7172751.1      197.41124      197.41124      197.41124     -100.67503    
    737000   699.77148     -7172736.1      197.41124      197.41124      197.41124     -76.782128    
    738000   701.26932     -7172640.9      197.41124      197.41124      197.41124     -181.3865     
    739000   698.84392     -7172774        197.41124      197.41124      197.41124     -43.390064    
    740000   700.45937     -7172755.4      197.41124      197.41124      197.41124     -156.60783    
    741000   700.40573     -7172710.6      197.41124      197.41124      197.41124     -3.0097272    
    742000   699.56372     -7172712.5      197.41124      197.41124      197.41124     -159.75882    
    743000   700.30892     -7172682.4      197.41124      197.41124      197.41124     -135.12704    
    744000   699.89024     -7172703.8      197.41124      197.41124      197.41124     -132.18478    
    745000   699.18425     -7172804.3      197.41124      197.41124      197.41124     -162.37569    
    746000   700.95621     -7172635.4      197.41124      197.41124      197.41124     -97.779576    
    747000   699.41166     -7172785.5      197.41124      197.41124      197.41124     -28.812091    
    748000   699.21362     -7172695.2      197.41124      197.41124      197.41124     -36.494145    
    749000   700.87309     -7172744.5      197.41124      197.41124      197.41124      18.929869    
    750000   699.10962     -7172685.2      197.41124      197.41124      197.41124     -56.484455    
    751000   700.49349     -7172772.7      197.41124      197.41124      197.41124     -139.76461    
    752000   699.40043     -7172689.5      197.41124      197.41124      197.41124     -176.29887    
    753000   699.82187     -7172709.2      197.41124      197.41124      197.41124     -126.10137    
    754000   699.36377     -7172879.8      197.41124      197.41124      197.41124     -213.23172    
    755000   699.34361     -7172754.6      197.41124      197.41124      197.41124     -115.26884    
    756000   699.83229     -7172735.8      197.41124      197.41124      197.41124     -84.506246    
    757000   700.104       -7172619.4      197.41124      197.41124      197.41124     -56.388285    
    758000   701.29048     -7172545.2      197.41124      197.41124      197.41124     -86.118846    
    759000   701.54113     -7172677.4      197.41124      197.41124      197.41124     -71.243988    
    760000   700.71601     -7172664.9      197.41124      197.41124      197.41124     -180.54012    
    761000   700.41581     -7172732.8      197.41124      197.41124      197.41124     -34.937066    
    762000   699.67256     -7172860.6      197.41124      197.41124      197.41124     -261.97315    
    763000   700.21083     -7172747.2      197.41124      197.41124      197.41124     -229.37495    
    764000   700.85794     -7172632.2      197.41124      197.41124      197.41124      0.50862089   
    765000   700.85356     -7172707.2      197.41124      197.41124      197.41124     -97.513103    
    766000   700.10985     -7172685.4      197.41124      197.41124      197.41124     -228.88623    
    767000   700.60802     -7172723.7      197.41124      197.41124      197.41124     -92.797509    
    768000   699.67133     -7172729.4      197.41124      197.41124      197.41124      4.4462518    
    769000   699.02184     -7172758.3      197.41124      197.41124      197.41124      19.474447    
    770000   699.02523     -7172773.7      197.41124      197.41124      197.41124     -155.56569    
    771000   699.27787     -7172761.9      197.41124      197.41124      197.41124     -218.55873    
    772000   699.93976     -7172758.8      197.41124      197.41124      197.41124     -144.47133    
    773000   699.18138     -7172768.8      197.41124      197.41124      197.41124     -199.19693    
    774000   700.00938     -7172749.3      197.41124      197.41124      197.41124     -207.48753    
    775000   699.52746     -7172714.1      197.41124      197.41124      197.41124     -161.32744    
    776000   699.31485     -7172785.8      197.41124      197.41124      197.41124     -243.01172    
    777000   699.84483     -7172698        197.41124      197.41124      197.41124      56.094097    
    778000   700.88819     -7172613.7      197.41124      197.41124      197.41124     -209.70063    
    779000   699.08576     -7172781.3      197.41124      197.41124      197.41124     -167.69845    
    780000   700.51207     -7172626.6      197.41124      197.41124      197.41124     -153.91792    
    781000   699.86772     -7172715.3      197.41124      197.41124      197.41124     -126.4696     
    782000   701.22127     -7172649.3      197.41124      197.41124      197.41124     -2.5544022    
    783000   699.26731     -7172846        197.41124      197.41124      197.41124     -293.91841    
    784000   701.22421     -7172678        197.41124      197.41124      197.41124      23.130259    
    785000   699.70357     -7172741.7      197.41124      197.41124      197.41124     -173.45023    
    786000   701.13717     -7172621        197.41124      197.41124      197.41124     -55.883981    
    787000   699.96849     -7172668.8      197.41124      197.41124      197.41124     -70.435821    
    788000   701.98551     -7172595.8      197.41124      197.41124      197.41124     -133.88406    
    789000   700.32959     -7172747.3      197.41124      197.41124      197.41124     -207.79007    
    790000   700.05123     -7172657.5      197.41124      197.41124      197.41124     -60.175308    
    791000   698.92265     -7172862.3      197.41124      197.41124      197.41124     -136.71396    
    792000   699.58094     -7172684.6      197.41124      197.41124      197.41124      55.611895    
    793000   699.63265     -7172781.5      197.41124      197.41124      197.41124     -121.04122    
    794000   699.6137      -7172781.6      197.41124      197.41124      197.41124     -38.511015    
    795000   700.07506     -7172747.3      197.41124      197.41124      197.41124     -135.43089    
    796000   700.18483     -7172702.1      197.41124      197.41124      197.41124     -84.809806    
    797000   699.25919     -7172883.3      197.41124      197.41124      197.41124     -72.736863    
    798000   699.67779     -7172729.3      197.41124      197.41124      197.41124     -100.03546    
    799000   701.01298     -7172604.1      197.41124      197.41124      197.41124     -20.672255    
    800000   699.593       -7172814        197.41124      197.41124      197.41124     -38.075692    
    801000   701.02014     -7172763.2      197.41124      197.41124      197.41124     -129.52366    
    802000   700.58531     -7172737.1      197.41124      197.41124      197.41124     -157.98247    
    803000   699.61199     -7172740        197.41124      197.41124      197.41124     -55.566055    
    804000   700.00004     -7172722.1      197.41124      197.41124      197.41124      15.118791    
    805000   699.5359      -7172810.3      197.41124      197.41124      197.41124     -109.74275    
    806000   699.60483     -7172761.1      197.41124      197.41124      197.41124     -92.212785    
    807000   699.33435     -7172746.8      197.41124      197.41124      197.41124     -45.83487     
    808000   699.10078     -7172875.2      197.41124      197.41124      197.41124     -211.93347    
    809000   701.45757     -7172649.1      197.41124      197.41124      197.41124     -254.66481    
    810000   700.11307     -7172668.7      197.41124      197.41124      197.41124     -237.54741    
    811000   699.53468     -7172739.5      197.41124      197.41124      197.41124     -95.404368    
    812000   699.06753     -7172756.6      197.41124      197.41124      197.41124     -128.73512    
    813000   701.21649     -7172692.8      197.41124      197.41124      197.41124     -159.66816    
    814000   700.29857     -7172714.1      197.41124      197.41124      197.41124     -114.82454    
    815000   700.07153     -7172645.4      197.41124      197.41124      197.41124     -55.541503    
    816000   700.81817     -7172756.7      197.41124      197.41124      197.41124     -135.14544    
    817000   699.68005     -7172724.3      197.41124      197.41124      197.41124     -80.037673    
    818000   700.15761     -7172759.1      197.41124      197.41124      197.41124     -240.73458    
    819000   700.33404     -7172812.5      197.41124      197.41124      197.41124     -164.85669    
    820000   699.38659     -7172665.9      197.41124      197.41124      197.41124     -36.908091    
    821000   700.37291     -7172650.8      197.41124      197.41124      197.41124     -51.844369    
    822000   700.49671     -7172701.1      197.41124      197.41124      197.41124      0.38496585   
    823000   699.5663      -7172801.2      197.41124      197.41124      197.41124     -141.35392    
    824000   700.28753     -7172828.1      197.41124      197.41124      197.41124     -195.25316    
    825000   700.22309     -7172825.5      197.41124      197.41124      197.41124     -187.75482    
    826000   700.78941     -7172733.4      197.41124      197.41124      197.41124     -255.68316    
    827000   699.89736     -7172738.4      197.41124      197.41124      197.41124     -52.056252    
    828000   699.89415     -7172786.2      197.41124      197.41124      197.41124     -27.377848    
    829000   699.27946     -7172727.4      197.41124      197.41124      197.41124     -117.395      
    830000   698.7342      -7172698.7      197.41124      197.41124      197.41124     -55.035544    
    831000   700.34205     -7172728.8      197.41124      197.41124      197.41124     -83.66698     
    832000   699.08225     -7172814.7      197.41124      197.41124      197.41124     -115.87649    
    833000   699.37728     -7172791.9      197.41124      197.41124      197.41124     -26.253259    
    834000   699.90395     -7172830.8      197.41124      197.41124      197.41124     -122.48182    
    835000   700.7354      -7172615.6      197.41124      197.41124      197.41124     -47.587441    
    836000   699.90977     -7172789.4      197.41124      197.41124      197.41124     -72.447902    
    837000   699.66476     -7172763.4      197.41124      197.41124      197.41124     -162.16704    
    838000   701.20401     -7172646.1      197.41124      197.41124      197.41124     -44.535045    
    839000   699.27393     -7172746.8      197.41124      197.41124      197.41124     -141.18795    
    840000   699.97764     -7172799.4      197.41124      197.41124      197.41124     -142.26755    
    841000   700.22118     -7172737.1      197.41124      197.41124      197.41124     -83.456022    
    842000   699.97972     -7172715.4      197.41124      197.41124      197.41124     -125.04956    
    843000   700.04208     -7172727.4      197.41124      197.41124      197.41124     -82.565263    
    844000   700.0989      -7172744.2      197.41124      197.41124      197.41124     -55.126064    
    845000   699.18175     -7172805.2      197.41124      197.41124      197.41124     -20.687131    
    846000   699.52028     -7172806.9      197.41124      197.41124      197.41124     -242.72839    
    847000   699.4024      -7172779.9      197.41124      197.41124      197.41124     -153.5776     
    848000   700.01074     -7172792.1      197.41124      197.41124      197.41124     -153.32916    
    849000   701.07695     -7172568.7      197.41124      197.41124      197.41124     -75.827062    
    850000   699.53489     -7172781        197.41124      197.41124      197.41124     -70.977966    
    851000   700.4954      -7172748        197.41124      197.41124      197.41124     -122.0597     
    852000   699.45742     -7172681.1      197.41124      197.41124      197.41124     -93.194763    
    853000   699.09775     -7172846.7      197.41124      197.41124      197.41124     -60.716268    
    854000   701.61944     -7172635        197.41124      197.41124      197.41124      15.691004    
    855000   701.05543     -7172655.6      197.41124      197.41124      197.41124     -138.15438    
    856000   699.26224     -7172732.6      197.41124      197.41124      197.41124      73.571292    
    857000   700.18851     -7172773        197.41124      197.41124      197.41124     -75.274324    
    858000   700.96438     -7172728.6      197.41124      197.41124      197.41124     -126.39238    
    859000   699.44773     -7172709.6      197.41124      197.41124      197.41124     -157.93275    
    860000   700.66323     -7172734.4      197.41124      197.41124      197.41124     -203.58686    
    861000   699.8748      -7172864.3      197.41124      197.41124      197.41124     -69.360227    
    862000   700.15788     -7172682.5      197.41124      197.41124      197.41124     -187.28568    
    863000   699.18245     -7172810.9      197.41124      197.41124      197.41124     -89.54921     
    864000   698.80583     -7172851.5      197.41124      197.41124      197.41124     -101.52239    
    865000   700.1753      -7172667.4      197.41124      197.41124      197.41124     -164.17737    
    866000   700.8967      -7172667.1      197.41124      197.41124      197.41124     -93.411393    
    867000   700.02253     -7172680        197.41124      197.41124      197.41124     -71.85094     
    868000   700.20664     -7172778.2      197.41124      197.41124      197.41124     -201.98207    
    869000   700.14547     -7172670.7      197.41124      197.41124      197.41124      77.33619     
    870000   700.92717     -7172728.3      197.41124      197.41124      197.41124     -58.961572    
    871000   699.47223     -7172878        197.41124      197.41124      197.41124     -126.09261    
    872000   700.05419     -7172788.5      197.41124      197.41124      197.41124     -88.710179    
    873000   698.61328     -7172775.2      197.41124      197.41124      197.41124     -174.42693    
    874000   700.51034     -7172709.6      197.41124      197.41124      197.41124     -233.01774    
    875000   699.34875     -7172805.8      197.41124      197.41124      197.41124     -338.21482    
    876000   701.30641     -7172602.6      197.41124      197.41124      197.41124     -76.564097    
    877000   700.18836     -7172768.9      197.41124      197.41124      197.41124     -210.24623    
    878000   699.36458     -7172899.7      197.41124      197.41124      197.41124     -219.45738    
    879000   699.33173     -7172776.1      197.41124      197.41124      197.41124     -232.85516    
    880000   700.3504      -7172778.5      197.41124      197.41124      197.41124     -73.442395    
    881000   700.94054     -7172627        197.41124      197.41124      197.41124      11.050687    
    882000   700.53965     -7172795.1      197.41124      197.41124      197.41124     -110.05472    
    883000   699.56401     -7172757.7      197.41124      197.41124      197.41124     -273.28191    
    884000   699.7265      -7172767.1      197.41124      197.41124      197.41124     -181.15445    
    885000   699.4339      -7172815.9      197.41124      197.41124      197.41124     -79.666046    
    886000   699.92425     -7172732.7      197.41124      197.41124      197.41124     -117.98743    
    887000   700.70762     -7172684.4      197.41124      197.41124      197.41124     -239.24988    
    888000   700.64816     -7172722.1      197.41124      197.41124      197.41124     -125.15185    
    889000   700.25011     -7172640.5      197.41124      197.41124      197.41124     -8.3896311    
    890000   700.26919     -7172753.4      197.41124      197.41124      197.41124     -123.70423    
    891000   700.79031     -7172724.8      197.41124      197.41124      197.41124     -190.77479    
    892000   698.80463     -7172863.8      197.41124      197.41124      197.41124     -157.6463     
    893000   700.76359     -7172696.3      197.41124      197.41124      197.41124     -209.89922    
    894000   700.39312     -7172691.4      197.41124      197.41124      197.41124     -190.74294    
    895000   699.99619     -7172821.4      197.41124      197.41124      197.41124     -214.22023    
    896000   699.92382     -7172771.9      197.41124      197.41124      197.41124     -5.8430829    
    897000   699.96312     -7172784.9      197.41124      197.41124      197.41124     -109.81095    
    898000   700.35263     -7172785.5      197.41124      197.41124      197.41124     -236.1807     
    899000   699.61062     -7172677.1      197.41124      197.41124      197.41124     -130.85767    
    900000   699.78839     -7172756.7      197.41124      197.41124      197.41124     -92.259724    
    901000   698.72157     -7172822.9      197.41124      197.41124      197.41124     -8.4080062    
    902000   700.64586     -7172683.5      197.41124      197.41124      197.41124     -77.086015    
    903000   699.77312     -7172654        197.41124      197.41124      197.41124     -31.582414    
    904000   700.01022     -7172799.4      197.41124      197.41124      197.41124     -120.67141    
    905000   699.07746     -7172676.1      197.41124      197.41124      197.41124     -181.235      
    906000   700.13808     -7172647.7      197.41124      197.41124      197.41124     -169.37991    
    907000   699.11159     -7172817.7      197.41124      197.41124      197.41124     -123.89018    
    908000   699.88824     -7172671.7      197.41124      197.41124      197.41124     -121.6711     
    909000   699.01504     -7172759.9      197.41124      197.41124      197.41124     -193.65995    
    910000   699.79533     -7172788.2      197.41124      197.41124      197.41124     -257.12907    
    911000   700.41674     -7172702.3      197.41124      197.41124      197.41124     -101.64951    
    912000   699.65605     -7172662.3      197.41124      197.41124      197.41124     -64.096042    
    913000   700.3507      -7172726.7      197.41124      197.41124      197.41124     -160.03551    
    914000   699.80264     -7172741.1      197.41124      197.41124      197.41124     -137.53744    
    915000   699.67329     -7172707.9      197.41124      197.41124      197.41124     -214.60941    
    916000   700.18794     -7172705.5      197.41124      197.41124      197.41124     -122.64036    
    917000   699.36009     -7172765.8      197.41124      197.41124      197.41124     -19.290299    
    918000   699.88705     -7172767.7      197.41124      197.41124      197.41124     -167.74788    
    919000   699.91866     -7172756.8      197.41124      197.41124      197.41124      0.28969679   
    920000   700.66007     -7172761.9      197.41124      197.41124      197.41124     -168.86566    
    921000   699.42192     -7172826.6      197.41124      197.41124      197.41124     -85.864568    
    922000   701.16859     -7172767        197.41124      197.41124      197.41124     -90.62335     
    923000   700.16014     -7172724.7      197.41124      197.41124      197.41124     -232.18325    
    924000   699.45388     -7172796        197.41124      197.41124      197.41124     -281.74579    
    925000   700.73252     -7172649.1      197.41124      197.41124      197.41124     -45.007709    
    926000   699.83627     -7172749.1      197.41124      197.41124      197.41124      36.699219    
    927000   700.02593     -7172793.4      197.41124      197.41124      197.41124     -119.50709    
    928000   700.07136     -7172714.9      197.41124      197.41124      197.41124      21.108459    
    929000   699.52292     -7172906.7      197.41124      197.41124      197.41124     -236.71323    
    930000   699.33502     -7172737.7      197.41124      197.41124      197.41124     -129.91317    
    931000   700.62064     -7172700.2      197.41124      197.41124      197.41124     -64.606597    
    932000   698.6778      -7172914.4      197.41124      197.41124      197.41124     -55.809478    
    933000   700.72157     -7172614.4      197.41124      197.41124      197.41124     -34.025873    
    934000   700.74224     -7172710.3      197.41124      197.41124      197.41124     -206.3496     
    935000   700.23694     -7172868.1      197.41124      197.41124      197.41124     -240.33561    
    936000   699.39462     -7172639.4      197.41124      197.41124      197.41124      7.7093241    
    937000   700.8308      -7172640.6      197.41124      197.41124      197.41124     -156.77486    
    938000   700.90399     -7172737.3      197.41124      197.41124      197.41124     -216.82375    
    939000   700.89359     -7172669        197.41124      197.41124      197.41124     -63.636542    
    940000   699.44185     -7172766.1      197.41124      197.41124      197.41124     -116.27818    
    941000   699.99419     -7172717.1      197.41124      197.41124      197.41124     -137.20874    
    942000   699.01978     -7172764.8      197.41124      197.41124      197.41124     -61.866068    
    943000   700.93343     -7172606.4      197.41124      197.41124      197.41124     -193.60567    
    944000   699.76384     -7172857.5      197.41124      197.41124      197.41124     -178.98822    
    945000   699.74587     -7172749.7      197.41124      197.41124      197.41124     -136.86367    
    946000   699.052       -7172741.3      197.41124      197.41124      197.41124     -168.86438    
    947000   699.47048     -7172768.9      197.41124      197.41124      197.41124     -77.831619    
    948000   699.33574     -7172728.9      197.41124      197.41124      197.41124     -96.361896    
    949000   699.93799     -7172717.9      197.41124      197.41124      197.41124     -113.0831     
    950000   700.0398      -7172759.9      197.41124      197.41124      197.41124     -98.28702     
    951000   699.22379     -7172767.3      197.41124      197.41124      197.41124     -166.32337    
    952000   701.11808     -7172777.1      197.41124      197.41124      197.41124     -244.10243    
    953000   700.25327     -7172781.5      197.41124      197.41124      197.41124     -149.2445     
    954000   701.0205      -7172652        197.41124      197.41124      197.41124     -141.19849    
    955000   698.10926     -7172852        197.41124      197.41124      197.41124     -127.47234    
    956000   699.77806     -7172745.7      197.41124      197.41124      197.41124     -26.246078    
    957000   699.57072     -7172830.6      197.41124      197.41124      197.41124     -136.59398    
    958000   700.94676     -7172629        197.41124      197.41124      197.41124     -102.99121    
    959000   700.34202     -7172647.5      197.41124      197.41124      197.41124     -183.18134    
    960000   699.54416     -7172747        197.41124      197.41124      197.41124     -102.97355    
    961000   700.35313     -7172662.4      197.41124      197.41124      197.41124     -30.691223    
    962000   699.35999     -7172724.7      197.41124      197.41124      197.41124     -256.97794    
    963000   699.79086     -7172795.2      197.41124      197.41124      197.41124     -165.99366    
    964000   699.29591     -7172830        197.41124      197.41124      197.41124     -138.84774    
    965000   698.7628      -7172848.8      197.41124      197.41124      197.41124     -138.2752     
    966000   700.67826     -7172689.8      197.41124      197.41124      197.41124     -124.42202    
    967000   701.62773     -7172700.9      197.41124      197.41124      197.41124     -170.84607    
    968000   700.28529     -7172640.1      197.41124      197.41124      197.41124     -81.825641    
    969000   699.39043     -7172694.1      197.41124      197.41124      197.41124     -89.296471    
    970000   700.56226     -7172689.7      197.41124      197.41124      197.41124     -131.64495    
    971000   700.43271     -7172697.6      197.41124      197.41124      197.41124     -109.02422    
    972000   699.25226     -7172794.6      197.41124      197.41124      197.41124     -216.64231    
    973000   701.11509     -7172666.4      197.41124      197.41124      197.41124     -171.32887    
    974000   700.72506     -7172605.5      197.41124      197.41124      197.41124     -157.06092    
    975000   699.57876     -7172805        197.41124      197.41124      197.41124     -190.97445    
    976000   700.41672     -7172606        197.41124      197.41124      197.41124     -57.466745    
    977000   700.38376     -7172755.2      197.41124      197.41124      197.41124     -152.82458    
    978000   700.64119     -7172641.1      197.41124      197.41124      197.41124     -81.305024    
    979000   699.30996     -7172819.3      197.41124      197.41124      197.41124     -229.05577    
    980000   699.30313     -7172849        197.41124      197.41124      197.41124     -147.03661    
    981000   699.39371     -7172788.8      197.41124      197.41124      197.41124     -180.07964    
    982000   699.54664     -7172828.2      197.41124      197.41124      197.41124     -211.09014    
    983000   698.9388      -7172807.8      197.41124      197.41124      197.41124     -12.437849    
    984000   700.34746     -7172755.8      197.41124      197.41124      197.41124     -136.25472    
    985000   699.43329     -7172865.5      197.41124      197.41124      197.41124     -66.853796    
    986000   700.34292     -7172654.8      197.41124      197.41124      197.41124      17.047598    
    987000   698.81001     -7172790.3      197.41124      197.41124      197.41124     -29.686614    
    988000   701.19794     -7172704.2      197.41124      197.41124      197.41124     -53.708593    
    989000   700.08863     -7172752.3      197.41124      197.41124      197.41124     -37.734092    
    990000   700.07947     -7172727.2      197.41124      197.41124      197.41124     -154.87869    
    991000   700.34897     -7172653.6      197.41124      197.41124      197.41124      27.674501    
    992000   699.52374     -7172841.1      197.41124      197.41124      197.41124     -46.632805    
    993000   700.63912     -7172671.2      197.41124      197.41124      197.41124     -51.023171    
    994000   699.18133     -7172800.6      197.41124      197.41124      197.41124     -132.36968    
    995000   700.54564     -7172628.4      197.41124      197.41124      197.41124     -115.17232    
    996000   700.93553     -7172804.7      197.41124      197.41124      197.41124     -84.478867    
    997000   700.79089     -7172691.6      197.41124      197.41124      197.41124     -250.87081    
    998000   700.7657      -7172627.4      197.41124      197.41124      197.41124     -62.144444    
    999000   700.04819     -7172772.3      197.41124      197.41124      197.41124     -78.466229    
   1000000   698.99421     -7172845.9      197.41124      197.41124      197.41124     -227.62594    
   1001000   698.98561     -7172789.2      197.41124      197.41124      197.41124     -147.32166    
   1002000   698.68157     -7172921.6      197.41124      197.41124      197.41124     -206.45548    
   1003000   699.45212     -7172728.9      197.41124      197.41124      197.41124     -45.1549      
   1004000   699.72383     -7172785.3      197.41124      197.41124      197.41124     -93.202203    
   1005000   700.85501     -7172711.3      197.41124      197.41124      197.41124     -158.7442     
   1006000   700.70158     -7172761.7      197.41124      197.41124      197.41124     -180.07304    
   1007000   699.762       -7172768.8      197.41124      197.41124      197.41124     -159.90843    
   1008000   700.53291     -7172682.5      197.41124      197.41124      197.41124      6.2681403    
   1009000   700.10829     -7172740.9      197.41124      197.41124      197.41124     -241.0983     
   1010000   698.3195      -7172771.3      197.41124      197.41124      197.41124     -73.504697    
   1011000   700.63177     -7172701        197.41124      197.41124      197.41124     -246.75211    
   1012000   700.32067     -7172717.4      197.41124      197.41124      197.41124     -208.84671    
   1013000   699.4742      -7172855.9      197.41124      197.41124      197.41124     -154.4867     
   1014000   698.53853     -7172808.9      197.41124      197.41124      197.41124     -136.67591    
   1015000   699.26026     -7172721.2      197.41124      197.41124      197.41124     -62.669138    
   1016000   700.82494     -7172739        197.41124      197.41124      197.41124     -95.762977    
   1017000   699.14654     -7172781.7      197.41124      197.41124      197.41124     -126.70894    
   1018000   700.20851     -7172747.5      197.41124      197.41124      197.41124     -151.08477    
   1019000   699.47013     -7172788.5      197.41124      197.41124      197.41124     -156.00365    
   1020000   699.38653     -7172852.4      197.41124      197.41124      197.41124     -147.18234    
   1021000   699.04943     -7172760.2      197.41124      197.41124      197.41124     -100.15377    
   1022000   701.23974     -7172643.8      197.41124      197.41124      197.41124     -66.835919    
   1023000   699.45582     -7172745.5      197.41124      197.41124      197.41124     -170.61578    
   1024000   699.91326     -7172842.5      197.41124      197.41124      197.41124     -307.66361    
   1025000   700.31863     -7172687.3      197.41124      197.41124      197.41124      2.1215646    
   1026000   699.15234     -7172878.6      197.41124      197.41124      197.41124     -125.05643    
   1027000   699.17678     -7172874.6      197.41124      197.41124      197.41124     -134.35845    
   1028000   699.473       -7172756.6      197.41124      197.41124      197.41124     -193.73977    
   1029000   700.12581     -7172751.8      197.41124      197.41124      197.41124     -127.84551    
   1030000   699.67084     -7172825.9      197.41124      197.41124      197.41124     -62.208349    
   1031000   698.86898     -7172790.9      197.41124      197.41124      197.41124     -83.085496    
   1032000   699.96153     -7172785.8      197.41124      197.41124      197.41124     -190.08343    
   1033000   699.53708     -7172710.7      197.41124      197.41124      197.41124     -162.84996    
   1034000   698.68059     -7172843.7      197.41124      197.41124      197.41124     -13.099679    
   1035000   700.2553      -7172759.3      197.41124      197.41124      197.41124     -97.966987    
   1036000   699.56055     -7172758.9      197.41124      197.41124      197.41124     -42.94093     
   1037000   700.08944     -7172774.2      197.41124      197.41124      197.41124      24.430289    
   1038000   700.17053     -7172761.7      197.41124      197.41124      197.41124     -131.34594    
   1039000   700.14218     -7172644.1      197.41124      197.41124      197.41124      63.216005    
   1040000   699.56889     -7172731.9      197.41124      197.41124      197.41124     -186.88679    
   1041000   699.14337     -7172722        197.41124      197.41124      197.41124     -25.876782    
   1042000   700.58796     -7172722.2      197.41124      197.41124      197.41124     -112.13774    
   1043000   701.12987     -7172635        197.41124      197.41124      197.41124     -105.62872    
   1044000   699.88909     -7172789.6      197.41124      197.41124      197.41124     -164.35279    
   1045000   700.53864     -7172806.1      197.41124      197.41124      197.41124     -92.95368     
   1046000   700.37666     -7172655.7      197.41124      197.41124      197.41124     -24.053549    
   1047000   700.32603     -7172826.1      197.41124      197.41124      197.41124     -18.596361    
   1048000   700.4655      -7172661.8      197.41124      197.41124      197.41124     -75.462414    
   1049000   700.35035     -7172704.2      197.41124      197.41124      197.41124     -122.99722    
   1050000   700.52562     -7172707.5      197.41124      197.41124      197.41124     -64.579029    
   1051000   699.43622     -7172778.9      197.41124      197.41124      197.41124     -138.07761    
   1052000   699.09905     -7172855.1      197.41124      197.41124      197.41124     -155.01665    
   1053000   699.99824     -7172777.2      197.41124      197.41124      197.41124     -75.180608    
   1054000   699.74282     -7172732.5      197.41124      197.41124      197.41124     -92.684474    
   1055000   698.56902     -7172909.9      197.41124      197.41124      197.41124     -96.293828    
   1056000   700.60795     -7172811        197.41124      197.41124      197.41124     -74.689428    
   1057000   698.38031     -7172889.8      197.41124      197.41124      197.41124     -206.35455    
   1058000   700.26144     -7172777.4      197.41124      197.41124      197.41124     -145.67366    
   1059000   699.78664     -7172784.9      197.41124      197.41124      197.41124     -185.9847     
   1060000   700.3035      -7172666.5      197.41124      197.41124      197.41124     -32.992929    
   1061000   700.25441     -7172744.2      197.41124      197.41124      197.41124     -125.21388    
   1062000   700.2826      -7172720.6      197.41124      197.41124      197.41124     -182.44061    
   1063000   700.73655     -7172683.4      197.41124      197.41124      197.41124      15.353486    
   1064000   700.08824     -7172742.1      197.41124      197.41124      197.41124     -250.46142    
   1065000   699.96381     -7172630.7      197.41124      197.41124      197.41124     -122.97628    
   1066000   699.35534     -7172828.9      197.41124      197.41124      197.41124     -26.494388    
   1067000   698.63011     -7172723.7      197.41124      197.41124      197.41124     -188.65402    
   1068000   699.80796     -7172723.5      197.41124      197.41124      197.41124     -200.60793    
   1069000   700.90488     -7172720.1      197.41124      197.41124      197.41124     -66.823505    
   1070000   699.98796     -7172759.6      197.41124      197.41124      197.41124     -170.7286     
   1071000   700.17839     -7172746.4      197.41124      197.41124      197.41124     -234.52187    
   1072000   700.63479     -7172737        197.41124      197.41124      197.41124     -68.858479    
   1073000   701.67224     -7172652.9      197.41124      197.41124      197.41124     -199.51414    
   1074000   698.80263     -7172831.9      197.41124      197.41124      197.41124     -210.0234     
   1075000   699.88841     -7172809.7      197.41124      197.41124      197.41124     -145.02152    
   1076000   700.04691     -7172687.9      197.41124      197.41124      197.41124     -70.611885    
   1077000   700.47186     -7172772.6      197.41124      197.41124      197.41124     -60.512576    
   1078000   698.82581     -7172816.1      197.41124      197.41124      197.41124      15.610375    
   1079000   699.1834      -7172892.4      197.41124      197.41124      197.41124     -101.10824    
   1080000   700.8379      -7172720        197.41124      197.41124      197.41124     -185.64944    
   1081000   700.06981     -7172722        197.41124      197.41124      197.41124     -125.35706    
   1082000   698.84986     -7172849.6      197.41124      197.41124      197.41124     -107.31508    
   1083000   699.85835     -7172841.6      197.41124      197.41124      197.41124     -155.67238    
   1084000   700.61531     -7172670.9      197.41124      197.41124      197.41124     -116.77539    
   1085000   700.11641     -7172756.8      197.41124      197.41124      197.41124     -258.36769    
   1086000   701.07508     -7172739.6      197.41124      197.41124      197.41124     -107.24166    
   1087000   700.48941     -7172614.2      197.41124      197.41124      197.41124      37.632054    
   1088000   700.92638     -7172706.6      197.41124      197.41124      197.41124     -91.751592    
   1089000   698.92644     -7172829        197.41124      197.41124      197.41124     -222.719      
   1090000   700.30024     -7172737.4      197.41124      197.41124      197.41124     -79.933663    
   1091000   699.08582     -7172852.1      197.41124      197.41124      197.41124     -191.62218    
   1092000   700.03679     -7172834        197.41124      197.41124      197.41124     -174.89796    
   1093000   699.95231     -7172734.9      197.41124      197.41124      197.41124     -132.04078    
   1094000   700.46699     -7172731        197.41124      197.41124      197.41124     -185.57614    
   1095000   700.29652     -7172786.4      197.41124      197.41124      197.41124     -186.54361    
   1096000   700.21646     -7172850.6      197.41124      197.41124      197.41124     -204.02543    
   1097000   699.16656     -7172874.2      197.41124      197.41124      197.41124     -162.73368    
   1098000   700.01365     -7172827.5      197.41124      197.41124      197.41124     -194.97673    
   1099000   701.22913     -7172739.3      197.41124      197.41124      197.41124     -17.755495    
   1100000   699.99886     -7172678        197.41124      197.41124      197.41124     -151.26261    
   1101000   700.57349     -7172691.2      197.41124      197.41124      197.41124     -129.66164    
   1102000   698.8716      -7172881.8      197.41124      197.41124      197.41124     -229.41742    
   1103000   699.71577     -7172709        197.41124      197.41124      197.41124     -53.233453    
   1104000   700.16598     -7172729.7      197.41124      197.41124      197.41124     -164.43681    
   1105000   699.81576     -7172735.7      197.41124      197.41124      197.41124     -70.207314    
   1106000   700.22069     -7172710.5      197.41124      197.41124      197.41124     -164.07775    
   1107000   699.59042     -7172828.7      197.41124      197.41124      197.41124     -143.77391    
   1108000   700.60154     -7172655.9      197.41124      197.41124      197.41124     -189.43814    
   1109000   699.12199     -7172740.6      197.41124      197.41124      197.41124     -129.2746     
   1110000   700.97461     -7172695.2      197.41124      197.41124      197.41124     -132.81409    
   1111000   699.87487     -7172717.2      197.41124      197.41124      197.41124     -119.50261    
   1112000   699.52535     -7172769.4      197.41124      197.41124      197.41124     -28.125014    
   1113000   700.29241     -7172718.2      197.41124      197.41124      197.41124     -57.241347    
   1114000   701.29757     -7172655.6      197.41124      197.41124      197.41124     -15.663373    
   1115000   699.8206      -7172804.9      197.41124      197.41124      197.41124     -220.86532    
   1116000   700.11707     -7172710.6      197.41124      197.41124      197.41124     -88.548973    
   1117000   699.96844     -7172798.1      197.41124      197.41124      197.41124     -201.40875    
   1118000   700.33658     -7172729.9      197.41124      197.41124      197.41124     -139.18306    
   1119000   699.39755     -7172761.3      197.41124      197.41124      197.41124     -101.92735    
   1120000   700.06131     -7172731.5      197.41124      197.41124      197.41124     -57.294852    
   1121000   700.89736     -7172642.7      197.41124      197.41124      197.41124      98.109271    
   1122000   699.05645     -7172765        197.41124      197.41124      197.41124     -97.136586    
   1123000   698.95412     -7172812.9      197.41124      197.41124      197.41124     -199.26532    
   1124000   699.5632      -7172820.2      197.41124      197.41124      197.41124     -199.93878    
   1125000   701.20896     -7172631.6      197.41124      197.41124      197.41124     -21.275914    
   1126000   699.47546     -7172733.3      197.41124      197.41124      197.41124     -37.701494    
   1127000   698.66798     -7172835.1      197.41124      197.41124      197.41124     -131.08508    
   1128000   699.62283     -7172838.1      197.41124      197.41124      197.41124     -111.55679    
   1129000   699.42364     -7172828.7      197.41124      197.41124      197.41124     -208.54469    
   1130000   700.02805     -7172792.7      197.41124      197.41124      197.41124     -250.2694     
   1131000   698.2198      -7172777.2      197.41124      197.41124      197.41124     -34.42826     
   1132000   699.38448     -7172803.9      197.41124      197.41124      197.41124     -147.15216    
   1133000   700.82174     -7172714        197.41124      197.41124      197.41124      2.4642932    
   1134000   699.67141     -7172705        197.41124      197.41124      197.41124      4.6990049    
   1135000   699.85658     -7172757.5      197.41124      197.41124      197.41124     -174.63289    
   1136000   699.69825     -7172806.4      197.41124      197.41124      197.41124     -100.12582    
   1137000   699.90316     -7172713.8      197.41124      197.41124      197.41124     -108.66606    
   1138000   699.56633     -7172746        197.41124      197.41124      197.41124     -9.6665257    
   1139000   699.39253     -7172795.9      197.41124      197.41124      197.41124     -179.44759    
   1140000   700.01495     -7172788.4      197.41124      197.41124      197.41124     -87.536927    
   1141000   699.63294     -7172804.8      197.41124      197.41124      197.41124     -156.03693    
   1142000   700.39341     -7172737        197.41124      197.41124      197.41124     -53.379483    
   1143000   699.59265     -7172820.7      197.41124      197.41124      197.41124     -225.83084    
   1144000   700.54981     -7172648.3      197.41124      197.41124      197.41124     -78.525667    
   1145000   699.65608     -7172844.1      197.41124      197.41124      197.41124     -286.998      
   1146000   700.87675     -7172752.4      197.41124      197.41124      197.41124      2.2177915    
   1147000   699.63676     -7172801.8      197.41124      197.41124      197.41124     -258.06861    
   1148000   699.47013     -7172886.7      197.41124      197.41124      197.41124      25.856242    
   1149000   701.19022     -7172742        197.41124      197.41124      197.41124     -302.48823    
   1150000   699.22818     -7172874.1      197.41124      197.41124      197.41124     -145.68999    
   1151000   700.62975     -7172700.1      197.41124      197.41124      197.41124     -225.66031    
   1152000   699.62981     -7172754.4      197.41124      197.41124      197.41124     -201.32256    
   1153000   699.28404     -7172727.2      197.41124      197.41124      197.41124     -132.7878     
   1154000   700.34686     -7172786.2      197.41124      197.41124      197.41124     -191.06896    
   1155000   700.3777      -7172744.8      197.41124      197.41124      197.41124     -19.393177    
   1156000   700.52377     -7172784.2      197.41124      197.41124      197.41124     -157.53435    
   1157000   699.73555     -7172691.8      197.41124      197.41124      197.41124     -94.159989    
   1158000   700.06126     -7172790.1      197.41124      197.41124      197.41124     -42.571798    
   1159000   699.66867     -7172793.3      197.41124      197.41124      197.41124     -118.14891    
   1160000   699.79975     -7172837.8      197.41124      197.41124      197.41124     -98.527894    
   1161000   698.64986     -7172901.6      197.41124      197.41124      197.41124     -245.97826    
   1162000   699.27581     -7172794.3      197.41124      197.41124      197.41124     -91.918762    
   1163000   698.79293     -7172847.7      197.41124      197.41124      197.41124      3.918395     
   1164000   700.26287     -7172757.9      197.41124      197.41124      197.41124     -205.85407    
   1165000   699.67667     -7172772.3      197.41124      197.41124      197.41124     -62.982466    
   1166000   701.49126     -7172615.4      197.41124      197.41124      197.41124     -81.085737    
   1167000   700.06159     -7172776.6      197.41124      197.41124      197.41124     -199.0566     
   1168000   699.17597     -7172849.2      197.41124      197.41124      197.41124     -47.572159    
   1169000   700.73986     -7172756        197.41124      197.41124      197.41124     -199.71982    
   1170000   700.52406     -7172703.7      197.41124      197.41124      197.41124     -139.52305    
   1171000   699.58527     -7172836.8      197.41124      197.41124      197.41124     -123.3866     
   1172000   701.07974     -7172698.6      197.41124      197.41124      197.41124     -44.106117    
   1173000   700.14623     -7172726.6      197.41124      197.41124      197.41124     -201.3656     
   1174000   700.76541     -7172707.7      197.41124      197.41124      197.41124     -98.885215    
   1175000   699.47284     -7172759.4      197.41124      197.41124      197.41124     -204.05446    
   1176000   699.76727     -7172785.5      197.41124      197.41124      197.41124     -267.99807    
   1177000   699.52139     -7172763        197.41124      197.41124      197.41124     -119.26112    
   1178000   699.58656     -7172751.9      197.41124      197.41124      197.41124     -38.011764    
   1179000   701.0588      -7172740.4      197.41124      197.41124      197.41124     -178.39332    
   1180000   699.94867     -7172694.2      197.41124      197.41124      197.41124     -26.789738    
   1181000   699.87578     -7172708.4      197.41124      197.41124      197.41124     -49.968911    
   1182000   699.5186      -7172787.3      197.41124      197.41124      197.41124     -232.20176    
   1183000   699.88377     -7172776.6      197.41124      197.41124      197.41124     -71.830891    
   1184000   701.06583     -7172697.8      197.41124      197.41124      197.41124     -194.11508    
   1185000   700.80078     -7172680.6      197.41124      197.41124      197.41124     -219.52285    
   1186000   700.35468     -7172677.6      197.41124      197.41124      197.41124     -210.96875    
   1187000   700.31234     -7172741.7      197.41124      197.41124      197.41124     -222.27961    
   1188000   699.44455     -7172843.3      197.41124      197.41124      197.41124     -352.11791    
   1189000   700.71838     -7172798.1      197.41124      197.41124      197.41124     -233.64627    
   1190000   699.92867     -7172713.6      197.41124      197.41124      197.41124     -53.451577    
   1191000   700.42224     -7172655.9      197.41124      197.41124      197.41124     -79.320857    
   1192000   699.74299     -7172755        197.41124      197.41124      197.41124     -206.85736    
   1193000   699.71143     -7172809.8      197.41124      197.41124      197.41124     -111.08855    
   1194000   700.80236     -7172767.9      197.41124      197.41124      197.41124     -257.04038    
   1195000   701.60062     -7172653.4      197.41124      197.41124      197.41124     -161.69483    
   1196000   700.78701     -7172693.5      197.41124      197.41124      197.41124     -120.0397     
   1197000   700.2002      -7172737.9      197.41124      197.41124      197.41124     -73.270605    
   1198000   700.07655     -7172704        197.41124      197.41124      197.41124      24.077591    
   1199000   700.56667     -7172679        197.41124      197.41124      197.41124     -31.021647    
   1200000   698.89942     -7172771        197.41124      197.41124      197.41124     -41.93922     
   1201000   699.44624     -7172781.9      197.41124      197.41124      197.41124     -97.895242    
   1202000   699.10442     -7172799.4      197.41124      197.41124      197.41124     -22.713389    
   1203000   699.23546     -7172822        197.41124      197.41124      197.41124     -81.403621    
   1204000   701.34122     -7172712.6      197.41124      197.41124      197.41124     -87.538008    
   1205000   699.9883      -7172741.7      197.41124      197.41124      197.41124     -78.898147    
   1206000   699.68636     -7172838.1      197.41124      197.41124      197.41124     -170.55491    
   1207000   701.78036     -7172581.9      197.41124      197.41124      197.41124     -121.15714    
   1208000   700.59128     -7172604.8      197.41124      197.41124      197.41124     -112.70333    
   1209000   699.89489     -7172817.7      197.41124      197.41124      197.41124     -188.37539    
   1210000   699.07782     -7172846.5      197.41124      197.41124      197.41124     -69.372595    
   1211000   700.5544      -7172724.9      197.41124      197.41124      197.41124     -221.85391    
   1212000   699.98047     -7172718.6      197.41124      197.41124      197.41124     -114.91428    
   1213000   699.40124     -7172805.4      197.41124      197.41124      197.41124     -62.274923    
   1214000   699.99946     -7172789.5      197.41124      197.41124      197.41124     -140.95333    
   1215000   699.70239     -7172762.7      197.41124      197.41124      197.41124     -125.88582    
   1216000   699.38865     -7172792.1      197.41124      197.41124      197.41124     -143.86325    
   1217000   701.26734     -7172662.3      197.41124      197.41124      197.41124     -77.346954    
   1218000   700.16753     -7172790.8      197.41124      197.41124      197.41124     -205.10308    
   1219000   699.14345     -7172848        197.41124      197.41124      197.41124     -221.33016    
   1220000   699.60244     -7172755.6      197.41124      197.41124      197.41124     -153.93329    
   1221000   700.76278     -7172681.6      197.41124      197.41124      197.41124     -159.86733    
   1222000   700.74156     -7172743.8      197.41124      197.41124      197.41124     -214.68412    
   1223000   700.50676     -7172724.4      197.41124      197.41124      197.41124     -106.11128    
   1224000   699.62607     -7172865.7      197.41124      197.41124      197.41124     -241.75565    
   1225000   700.16595     -7172806.2      197.41124      197.41124      197.41124     -211.19797    
   1226000   700.62238     -7172738.8      197.41124      197.41124      197.41124     -156.61128    
   1227000   699.79553     -7172786        197.41124      197.41124      197.41124     -139.8523     
   1228000   699.41494     -7172850.7      197.41124      197.41124      197.41124     -251.19071    
   1229000   699.88805     -7172713.7      197.41124      197.41124      197.41124     -111.96001    
   1230000   699.90273     -7172755.1      197.41124      197.41124      197.41124     -129.74796    
   1231000   700.182       -7172725.6      197.41124      197.41124      197.41124     -172.03141    
   1232000   698.81787     -7172792.3      197.41124      197.41124      197.41124     -169.47171    
   1233000   700.1951      -7172778.7      197.41124      197.41124      197.41124     -238.01263    
   1234000   699.84296     -7172748.8      197.41124      197.41124      197.41124     -92.468635    
   1235000   700.73289     -7172716.9      197.41124      197.41124      197.41124     -175.29089    
   1236000   701.03756     -7172647.5      197.41124      197.41124      197.41124     -247.96728    
   1237000   699.40441     -7172847.1      197.41124      197.41124      197.41124     -95.184311    
   1238000   701.15308     -7172659.4      197.41124      197.41124      197.41124     -163.51122    
   1239000   698.85654     -7172837.6      197.41124      197.41124      197.41124     -229.06682    
   1240000   699.42269     -7172828.7      197.41124      197.41124      197.41124     -18.132397    
   1241000   700.41038     -7172695.6      197.41124      197.41124      197.41124     -147.86504    
   1242000   699.93696     -7172807.4      197.41124      197.41124      197.41124     -181.46885    
   1243000   699.49474     -7172810.7      197.41124      197.41124      197.41124     -71.858765    
   1244000   701.01611     -7172749.2      197.41124      197.41124      197.41124     -283.52565    
   1245000   700.07195     -7172839.7      197.41124      197.41124      197.41124     -301.23839    
   1246000   700.65014     -7172800.3      197.41124      197.41124      197.41124     -142.35993    
   1247000   699.3808      -7172890.6      197.41124      197.41124      197.41124     -133.66502    
   1248000   700.20725     -7172696.8      197.41124      197.41124      197.41124     -56.45995     
   1249000   700.45038     -7172746.1      197.41124      197.41124      197.41124     -56.879259    
   1250000   700.0296      -7172845.1      197.41124      197.41124      197.41124     -34.324363    
   1251000   699.61088     -7172772.8      197.41124      197.41124      197.41124     -141.52212    
   1252000   700.82015     -7172706.7      197.41124      197.41124      197.41124     -285.30028    
   1253000   699.92267     -7172684.8      197.41124      197.41124      197.41124     -99.102106    
   1254000   700.15179     -7172729        197.41124      197.41124      197.41124     -98.925259    
   1255000   700.75269     -7172762.3      197.41124      197.41124      197.41124      8.1992903    
   1256000   699.99306     -7172725.4      197.41124      197.41124      197.41124     -30.698574    
   1257000   700.0944      -7172702.7      197.41124      197.41124      197.41124     -266.79352    
   1258000   700.07746     -7172781.8      197.41124      197.41124      197.41124     -32.250458    
   1259000   699.81232     -7172768.5      197.41124      197.41124      197.41124     -138.69472    
   1260000   700.12666     -7172772.7      197.41124      197.41124      197.41124     -240.77046    
   1261000   698.90118     -7172867.5      197.41124      197.41124      197.41124     -246.88782    
   1262000   700.34959     -7172777.6      197.41124      197.41124      197.41124     -83.159505    
   1263000   701.45963     -7172664.4      197.41124      197.41124      197.41124     -174.0128     
   1264000   700.85411     -7172628.2      197.41124      197.41124      197.41124      23.876244    
   1265000   699.67152     -7172794.9      197.41124      197.41124      197.41124     -226.5033     
   1266000   699.64596     -7172856.4      197.41124      197.41124      197.41124     -143.49103    
   1267000   700.38251     -7172711.6      197.41124      197.41124      197.41124     -84.433088    
   1268000   700.95698     -7172759.8      197.41124      197.41124      197.41124     -174.25075    
   1269000   700.40488     -7172799.1      197.41124      197.41124      197.41124     -192.71758    
   1270000   700.69767     -7172696.2      197.41124      197.41124      197.41124     -214.62937    
   1271000   701.58064     -7172633.1      197.41124      197.41124      197.41124     -139.08435    
   1272000   700.20509     -7172731.6      197.41124      197.41124      197.41124     -211.32696    
   1273000   699.94497     -7172771        197.41124      197.41124      197.41124     -91.58378     
   1274000   699.89461     -7172778.1      197.41124      197.41124      197.41124     -41.124149    
   1275000   699.44608     -7172839.3      197.41124      197.41124      197.41124     -84.00336     
   1276000   699.55997     -7172833.7      197.41124      197.41124      197.41124     -57.56201     
   1277000   700.26257     -7172718.3      197.41124      197.41124      197.41124     -143.88426    
   1278000   700.20406     -7172667.2      197.41124      197.41124      197.41124      61.882352    
   1279000   700.09917     -7172805.3      197.41124      197.41124      197.41124     -223.45645    
   1280000   699.95807     -7172679.9      197.41124      197.41124      197.41124     -72.00019     
   1281000   700.30711     -7172781.4      197.41124      197.41124      197.41124     -199.46128    
   1282000   699.43909     -7172859        197.41124      197.41124      197.41124     -205.75426    
   1283000   700.5981      -7172671.7      197.41124      197.41124      197.41124     -23.094774    
   1284000   700.5263      -7172710.6      197.41124      197.41124      197.41124     -243.37556    
   1285000   699.70816     -7172742.9      197.41124      197.41124      197.41124     -125.52908    
   1286000   700.39256     -7172662.1      197.41124      197.41124      197.41124     -168.66026    
   1287000   699.31041     -7172822.5      197.41124      197.41124      197.41124      35.428392    
   1288000   699.60495     -7172755.2      197.41124      197.41124      197.41124     -28.537575    
   1289000   699.63971     -7172797.6      197.41124      197.41124      197.41124     -106.70842    
   1290000   700.09319     -7172747.1      197.41124      197.41124      197.41124     -81.163993    
   1291000   699.24293     -7172862.9      197.41124      197.41124      197.41124     -190.65001    
   1292000   700.71135     -7172626.3      197.41124      197.41124      197.41124     -164.80715    
   1293000   699.29018     -7172800.2      197.41124      197.41124      197.41124     -145.65232    
   1294000   699.85082     -7172781.4      197.41124      197.41124      197.41124     -112.21697    
   1295000   700.38761     -7172797.8      197.41124      197.41124      197.41124     -212.92168    
   1296000   699.9357      -7172672        197.41124      197.41124      197.41124     -37.349319    
   1297000   700.18403     -7172752.5      197.41124      197.41124      197.41124     -111.71643    
   1298000   699.53502     -7172858.7      197.41124      197.41124      197.41124     -282.09094    
   1299000   699.35121     -7172821.6      197.41124      197.41124      197.41124     -30.194041    
   1300000   700.43669     -7172681.2      197.41124      197.41124      197.41124      35.16626     
   1301000   699.36415     -7172730.8      197.41124      197.41124      197.41124     -129.46666    
   1302000   700.0761      -7172702.3      197.41124      197.41124      197.41124     -121.22399    
   1303000   699.46234     -7172701.9      197.41124      197.41124      197.41124     -135.26931    
   1304000   699.05793     -7172762.3      197.41124      197.41124      197.41124     -201.08386    
   1305000   697.98523     -7172929.9      197.41124      197.41124      197.41124     -193.80131    
   1306000   699.17053     -7172787.4      197.41124      197.41124      197.41124     -148.58855    
   1307000   699.7472      -7172764.4      197.41124      197.41124      197.41124     -125.8561     
   1308000   701.1821      -7172617.1      197.41124      197.41124      197.41124     -66.431701    
   1309000   699.36347     -7172831.5      197.41124      197.41124      197.41124     -98.653582    
   1310000   699.31231     -7172822.7      197.41124      197.41124      197.41124     -210.09916    
   1311000   700.13216     -7172784.3      197.41124      197.41124      197.41124     -172.36324    
   1312000   699.3875      -7172778.9      197.41124      197.41124      197.41124     -135.23303    
   1313000   700.95827     -7172734.3      197.41124      197.41124      197.41124     -227.80616    
   1314000   699.34668     -7172793.4      197.41124      197.41124      197.41124     -24.22652     
   1315000   700.19801     -7172719.7      197.41124      197.41124      197.41124     -114.25806    
   1316000   700.90315     -7172693.4      197.41124      197.41124      197.41124     -120.28208    
   1317000   699.64709     -7172811.5      197.41124      197.41124      197.41124     -238.07112    
   1318000   699.83597     -7172858.1      197.41124      197.41124      197.41124     -60.193218    
   1319000   699.7619      -7172757        197.41124      197.41124      197.41124     -192.26796    
   1320000   700.3232      -7172652.5      197.41124      197.41124      197.41124     -273.41641    
   1321000   699.79769     -7172699.8      197.41124      197.41124      197.41124     -153.29239    
   1322000   699.85        -7172685.1      197.41124      197.41124      197.41124     -21.792943    
   1323000   699.88003     -7172840.1      197.41124      197.41124      197.41124     -137.07799    
   1324000   700.06695     -7172709.8      197.41124      197.41124      197.41124     -112.96032    
   1325000   700.66675     -7172836.8      197.41124      197.41124      197.41124     -208.37806    
   1326000   699.00657     -7172829.3      197.41124      197.41124      197.41124     -156.71367    
   1327000   699.89324     -7172748.9      197.41124      197.41124      197.41124     -155.87769    
   1328000   700.69587     -7172780        197.41124      197.41124      197.41124     -157.86604    
   1329000   699.56672     -7172768.2      197.41124      197.41124      197.41124     -224.82301    
   1330000   700.47868     -7172714.9      197.41124      197.41124      197.41124     -155.69558    
   1331000   700.2651      -7172681.5      197.41124      197.41124      197.41124     -35.945596    
   1332000   699.72642     -7172863.5      197.41124      197.41124      197.41124     -144.34838    
   1333000   700.41268     -7172771.5      197.41124      197.41124      197.41124     -267.66326    
   1334000   700.05466     -7172765.4      197.41124      197.41124      197.41124     -161.44161    
   1335000   699.59764     -7172808.8      197.41124      197.41124      197.41124     -167.90951    
   1336000   700.88467     -7172754.2      197.41124      197.41124      197.41124     -228.83696    
   1337000   699.98067     -7172724.1      197.41124      197.41124      197.41124     -112.82318    
   1338000   700.20754     -7172782.9      197.41124      197.41124      197.41124     -121.28425    
   1339000   699.99942     -7172691.4      197.41124      197.41124      197.41124     -203.24756    
   1340000   700.23781     -7172719.2      197.41124      197.41124      197.41124     -233.93427    
   1341000   700.08687     -7172809.3      197.41124      197.41124      197.41124     -231.19853    
   1342000   700.79754     -7172686.5      197.41124      197.41124      197.41124     -119.76363    
   1343000   699.51232     -7172855.8      197.41124      197.41124      197.41124     -176.53574    
   1344000   699.10615     -7172807.1      197.41124      197.41124      197.41124     -116.72807    
   1345000   700.13175     -7172775.1      197.41124      197.41124      197.41124     -130.97304    
   1346000   700.95132     -7172671.6      197.41124      197.41124      197.41124     -87.300013    
   1347000   699.09834     -7172747.5      197.41124      197.41124      197.41124     -56.809468    
   1348000   700.08178     -7172772.6      197.41124      197.41124      197.41124     -187.62299    
   1349000   700.11213     -7172818.4      197.41124      197.41124      197.41124     -181.59407    
   1350000   700.4623      -7172669.7      197.41124      197.41124      197.41124     -90.817773    
   1351000   700.56273     -7172696        197.41124      197.41124      197.41124     -51.988018    
   1352000   700.78929     -7172646        197.41124      197.41124      197.41124     -77.442694    
   1353000   700.96972     -7172545.9      197.41124      197.41124      197.41124     -41.680337    
   1354000   699.29679     -7172849.4      197.41124      197.41124      197.41124     -105.69012    
   1355000   700.38391     -7172722.4      197.41124      197.41124      197.41124     -120.53431    
   1356000   699.68843     -7172889.4      197.41124      197.41124      197.41124     -70.629611    
   1357000   700.40464     -7172804.6      197.41124      197.41124      197.41124     -155.4026     
   1358000   700.9176      -7172732.8      197.41124      197.41124      197.41124     -124.92599    
   1359000   700.36034     -7172809.1      197.41124      197.41124      197.41124     -96.365249    
   1360000   699.13172     -7172753.2      197.41124      197.41124      197.41124     -75.815143    
   1361000   700.16829     -7172818.9      197.41124      197.41124      197.41124     -267.21407    
   1362000   699.41941     -7172674.9      197.41124      197.41124      197.41124     -136.55495    
   1363000   699.69363     -7172793.1      197.41124      197.41124      197.41124     -116.05723    
   1364000   699.01463     -7172889.8      197.41124      197.41124      197.41124     -264.52891    
   1365000   699.43437     -7172832.1      197.41124      197.41124      197.41124     -151.14615    
   1366000   699.83308     -7172796.6      197.41124      197.41124      197.41124     -158.3634     
   1367000   699.59745     -7172861.7      197.41124      197.41124      197.41124     -265.77402    
   1368000   699.73031     -7172796.2      197.41124      197.41124      197.41124     -256.097      
   1369000   699.67483     -7172776.2      197.41124      197.41124      197.41124     -182.24747    
   1370000   700.43907     -7172677.9      197.41124      197.41124      197.41124     -212.37201    
   1371000   699.72485     -7172712.4      197.41124      197.41124      197.41124     -34.130717    
   1372000   700.7502      -7172651.7      197.41124      197.41124      197.41124     -176.99453    
   1373000   699.9686      -7172777.5      197.41124      197.41124      197.41124     -156.05636    
   1374000   699.17676     -7172749.1      197.41124      197.41124      197.41124     -108.3669     
   1375000   698.64289     -7172792.6      197.41124      197.41124      197.41124     -72.415268    
   1376000   699.86579     -7172767.6      197.41124      197.41124      197.41124      27.340194    
   1377000   700.42242     -7172685.2      197.41124      197.41124      197.41124      22.695158    
   1378000   700.06596     -7172834.9      197.41124      197.41124      197.41124     -296.66833    
   1379000   699.74539     -7172650.6      197.41124      197.41124      197.41124      46.724731    
   1380000   700.15763     -7172815.1      197.41124      197.41124      197.41124     -176.17776    
   1381000   700.22515     -7172698.4      197.41124      197.41124      197.41124     -158.47505    
   1382000   699.57673     -7172794.6      197.41124      197.41124      197.41124     -10.981605    
   1383000   700.57793     -7172733.3      197.41124      197.41124      197.41124     -160.94652    
   1384000   700.21687     -7172731        197.41124      197.41124      197.41124     -110.22119    
   1385000   700.28333     -7172767.4      197.41124      197.41124      197.41124     -132.25365    
   1386000   701.2186      -7172654.4      197.41124      197.41124      197.41124     -165.11417    
   1387000   700.11978     -7172769.4      197.41124      197.41124      197.41124     -142.03586    
   1388000   699.63732     -7172733.4      197.41124      197.41124      197.41124     -213.58107    
   1389000   700.45683     -7172661.4      197.41124      197.41124      197.41124     -209.32132    
   1390000   698.99428     -7172824.4      197.41124      197.41124      197.41124     -102.7607     
   1391000   699.06143     -7172837.9      197.41124      197.41124      197.41124     -148.3791     
   1392000   700.45924     -7172788.5      197.41124      197.41124      197.41124     -217.04342    
   1393000   698.93545     -7172922.3      197.41124      197.41124      197.41124     -208.6832     
   1394000   700.03558     -7172716.4      197.41124      197.41124      197.41124     -188.08292    
   1395000   700.4581      -7172744        197.41124      197.41124      197.41124     -101.58092    
   1396000   700.24928     -7172804.8      197.41124      197.41124      197.41124     -192.57923    
   1397000   700.87105     -7172792.6      197.41124      197.41124      197.41124     -226.7122     
   1398000   698.90167     -7172878.4      197.41124      197.41124      197.41124     -189.765      
   1399000   699.61229     -7172821.3      197.41124      197.41124      197.41124     -137.80592    
   1400000   700.62175     -7172641.3      197.41124      197.41124      197.41124     -133.93389    
   1401000   701.15655     -7172694.9      197.41124      197.41124      197.41124     -55.175865    
   1402000   699.9554      -7172789.3      197.41124      197.41124      197.41124     -149.27055    
   1403000   700.00574     -7172721.7      197.41124      197.41124      197.41124     -126.97457    
   1404000   700.57121     -7172734.7      197.41124      197.41124      197.41124     -135.12328    
   1405000   701.10777     -7172660.1      197.41124      197.41124      197.41124     -79.481191    
   1406000   699.8428      -7172825.2      197.41124      197.41124      197.41124     -131.94469    
   1407000   700.5039      -7172713.9      197.41124      197.41124      197.41124     -56.988545    
   1408000   700.43926     -7172778.7      197.41124      197.41124      197.41124     -34.431121    
   1409000   700.07551     -7172719.2      197.41124      197.41124      197.41124     -110.58881    
   1410000   699.24265     -7172869.3      197.41124      197.41124      197.41124     -180.06269    
   1411000   701.39239     -7172707.4      197.41124      197.41124      197.41124     -234.94073    
   1412000   700.60754     -7172643.8      197.41124      197.41124      197.41124      3.8565279    
   1413000   701.05993     -7172723.5      197.41124      197.41124      197.41124     -179.0033     
   1414000   701.69947     -7172640.6      197.41124      197.41124      197.41124     -50.739686    
   1415000   700.48806     -7172743.9      197.41124      197.41124      197.41124     -144.70635    
   1416000   699.70637     -7172764.6      197.41124      197.41124      197.41124     -200.16472    
   1417000   700.09421     -7172743.7      197.41124      197.41124      197.41124     -57.846946    
   1418000   699.71261     -7172838.4      197.41124      197.41124      197.41124     -192.63294    
   1419000   699.39087     -7172786.1      197.41124      197.41124      197.41124     -325.62728    
   1420000   700.68624     -7172696.6      197.41124      197.41124      197.41124     -215.14099    
   1421000   700.02471     -7172809.9      197.41124      197.41124      197.41124     -320.84814    
   1422000   699.56588     -7172736.3      197.41124      197.41124      197.41124     -167.75297    
   1423000   699.88615     -7172773.6      197.41124      197.41124      197.41124     -138.14495    
   1424000   700.02939     -7172703        197.41124      197.41124      197.41124     -355.54724    
   1425000   700.27577     -7172731.1      197.41124      197.41124      197.41124     -146.56628    
   1426000   699.15614     -7172801.6      197.41124      197.41124      197.41124     -69.799879    
   1427000   700.03538     -7172776.1      197.41124      197.41124      197.41124     -180.00379    
   1428000   699.18375     -7172800.2      197.41124      197.41124      197.41124     -129.00548    
   1429000   700.47521     -7172730.9      197.41124      197.41124      197.41124     -99.388598    
   1430000   699.72373     -7172840.4      197.41124      197.41124      197.41124     -216.40808    
   1431000   700.11412     -7172744.4      197.41124      197.41124      197.41124     -140.21993    
   1432000   698.9952      -7172792.5      197.41124      197.41124      197.41124     -172.81397    
   1433000   700.50168     -7172699.2      197.41124      197.41124      197.41124     -97.796725    
   1434000   699.79319     -7172859.3      197.41124      197.41124      197.41124     -210.32871    
   1435000   700.33069     -7172690.6      197.41124      197.41124      197.41124     -258.82769    
   1436000   700.13827     -7172850        197.41124      197.41124      197.41124     -174.31407    
   1437000   699.09425     -7172871        197.41124      197.41124      197.41124     -166.59499    
   1438000   700.92496     -7172876.7      197.41124      197.41124      197.41124     -103.54052    
   1439000   699.7978      -7172751.7      197.41124      197.41124      197.41124     -194.0072     
   1440000   700.79831     -7172679.3      197.41124      197.41124      197.41124     -216.74369    
   1441000   699.88338     -7172707.7      197.41124      197.41124      197.41124     -85.973741    
   1442000   699.99152     -7172799.9      197.41124      197.41124      197.41124     -241.31788    
   1443000   700.17846     -7172727.6      197.41124      197.41124      197.41124     -59.188862    
   1444000   699.40454     -7172838        197.41124      197.41124      197.41124     -116.56718    
   1445000   699.28012     -7172784.6      197.41124      197.41124      197.41124     -219.84418    
   1446000   699.95773     -7172703.2      197.41124      197.41124      197.41124     -191.40008    
   1447000   699.64628     -7172906.6      197.41124      197.41124      197.41124     -233.25089    
   1448000   700.36773     -7172839.4      197.41124      197.41124      197.41124     -158.9986     
   1449000   701.00699     -7172695        197.41124      197.41124      197.41124     -215.3302     
   1450000   699.92824     -7172761.1      197.41124      197.41124      197.41124     -208.66736    
   1451000   699.89444     -7172791.5      197.41124      197.41124      197.41124     -146.91471    
   1452000   700.00901     -7172758.5      197.41124      197.41124      197.41124     -100.88264    
   1453000   700.27057     -7172669.8      197.41124      197.41124      197.41124     -313.55911    
   1454000   700.58771     -7172727.3      197.41124      197.41124      197.41124     -165.61299    
   1455000   700.16955     -7172697.2      197.41124      197.41124      197.41124     -181.00539    
   1456000   700.6214      -7172707.9      197.41124      197.41124      197.41124     -220.27       
   1457000   700.8418      -7172634.8      197.41124      197.41124      197.41124     -72.275394    
   1458000   700.05524     -7172769.4      197.41124      197.41124      197.41124     -235.13814    
   1459000   700.0167      -7172780.3      197.41124      197.41124      197.41124     -156.74863    
   1460000   699.74358     -7172806.5      197.41124      197.41124      197.41124     -177.6582     
   1461000   699.80817     -7172696.7      197.41124      197.41124      197.41124     -27.441903    
   1462000   700.74735     -7172698.8      197.41124      197.41124      197.41124     -165.80116    
   1463000   700.85932     -7172715.6      197.41124      197.41124      197.41124     -209.53614    
   1464000   699.61621     -7172783.9      197.41124      197.41124      197.41124     -178.60878    
   1465000   700.33598     -7172747.1      197.41124      197.41124      197.41124     -204.91415    
   1466000   699.70311     -7172841.8      197.41124      197.41124      197.41124     -177.01701    
   1467000   700.00855     -7172870.3      197.41124      197.41124      197.41124     -217.38136    
   1468000   700.0495      -7172851.9      197.41124      197.41124      197.41124     -231.38629    
   1469000   701.66671     -7172677.5      197.41124      197.41124      197.41124     -155.0943     
   1470000   699.80196     -7172724.3      197.41124      197.41124      197.41124     -265.48643    
   1471000   699.88622     -7172663.4      197.41124      197.41124      197.41124     -100.51997    
   1472000   699.01781     -7172802.1      197.41124      197.41124      197.41124     -27.644783    
   1473000   699.29102     -7172719.1      197.41124      197.41124      197.41124     -87.206615    
   1474000   699.49016     -7172886.3      197.41124      197.41124      197.41124     -301.74862    
   1475000   700.26367     -7172714.8      197.41124      197.41124      197.41124     -143.29065    
   1476000   699.98263     -7172647.1      197.41124      197.41124      197.41124      27.400744    
   1477000   700.4141      -7172651.6      197.41124      197.41124      197.41124     -126.62188    
   1478000   700.01982     -7172652.8      197.41124      197.41124      197.41124     -99.553996    
   1479000   700.51959     -7172681.6      197.41124      197.41124      197.41124     -100.59348    
   1480000   699.5389      -7172823.7      197.41124      197.41124      197.41124     -248.77618    
   1481000   700.23328     -7172762.3      197.41124      197.41124      197.41124     -126.54917    
   1482000   700.51768     -7172657.3      197.41124      197.41124      197.41124     -148.2536     
   1483000   698.91435     -7172874.1      197.41124      197.41124      197.41124     -282.11187    
   1484000   699.35169     -7172673.8      197.41124      197.41124      197.41124     -83.103988    
   1485000   700.22319     -7172749.9      197.41124      197.41124      197.41124     -256.98887    
   1486000   700.02845     -7172736.9      197.41124      197.41124      197.41124     -115.17401    
   1487000   700.66167     -7172678.4      197.41124      197.41124      197.41124     -28.441951    
   1488000   699.28964     -7172808.7      197.41124      197.41124      197.41124     -189.23563    
   1489000   699.47674     -7172738        197.41124      197.41124      197.41124     -57.599205    
   1490000   699.90489     -7172820.1      197.41124      197.41124      197.41124     -202.33357    
   1491000   699.39532     -7172888.9      197.41124      197.41124      197.41124     -299.92388    
   1492000   699.91104     -7172804.8      197.41124      197.41124      197.41124     -113.60296    
   1493000   699.81641     -7172850.2      197.41124      197.41124      197.41124     -256.14331    
   1494000   699.58207     -7172904.2      197.41124      197.41124      197.41124     -192.4394     
   1495000   699.67831     -7172793.6      197.41124      197.41124      197.41124     -61.590985    
   1496000   700.46483     -7172701        197.41124      197.41124      197.41124     -160.76688    
   1497000   701.63845     -7172613        197.41124      197.41124      197.41124     -148.4326     
   1498000   699.32425     -7172805.7      197.41124      197.41124      197.41124     -63.604981    
   1499000   698.94332     -7172873.8      197.41124      197.41124      197.41124     -214.02312    
   1500000   700.17937     -7172835.1      197.41124      197.41124      197.41124     -82.028995    
   1501000   700.07755     -7172708.8      197.41124      197.41124      197.41124     -159.32414    
   1502000   698.96029     -7172763.9      197.41124      197.41124      197.41124     -149.71153    
   1503000   699.60524     -7172745.5      197.41124      197.41124      197.41124     -129.25942    
   1504000   699.84299     -7172744.3      197.41124      197.41124      197.41124     -131.37187    
   1505000   700.23951     -7172785.6      197.41124      197.41124      197.41124     -118.22406    
   1506000   700.50301     -7172822.5      197.41124      197.41124      197.41124     -213.07447    
   1507000   700.06361     -7172723.1      197.41124      197.41124      197.41124     -151.96702    
   1508000   700.31608     -7172743.8      197.41124      197.41124      197.41124     -207.81776    
   1509000   699.98634     -7172697.5      197.41124      197.41124      197.41124     -82.736989    
   1510000   699.78052     -7172782.5      197.41124      197.41124      197.41124     -316.46734    
   1511000   699.35481     -7172786.5      197.41124      197.41124      197.41124     -193.71966    
   1512000   699.246       -7172888.2      197.41124      197.41124      197.41124     -226.26169    
   1513000   700.72437     -7172775.3      197.41124      197.41124      197.41124     -337.00194    
   1514000   699.8259      -7172764.1      197.41124      197.41124      197.41124     -156.49596    
   1515000   700.07051     -7172739.3      197.41124      197.41124      197.41124     -147.13402    
   1516000   700.55854     -7172661.4      197.41124      197.41124      197.41124     -97.920315    
   1517000   700.60257     -7172672.3      197.41124      197.41124      197.41124     -114.07691    
   1518000   700.76285     -7172758.5      197.41124      197.41124      197.41124     -272.13413    
   1519000   699.66975     -7172766.1      197.41124      197.41124      197.41124     -98.529198    
   1520000   700.38686     -7172655        197.41124      197.41124      197.41124     -308.57151    
   1521000   700.47297     -7172729.4      197.41124      197.41124      197.41124     -120.94765    
   1522000   700.42933     -7172815.1      197.41124      197.41124      197.41124     -101.58816    
   1523000   699.69021     -7172728.8      197.41124      197.41124      197.41124     -152.67688    
   1524000   699.72561     -7172710.4      197.41124      197.41124      197.41124     -62.300591    
   1525000   700.30476     -7172670.9      197.41124      197.41124      197.41124     -99.372755    
   1526000   698.93639     -7172856.2      197.41124      197.41124      197.41124     -255.34878    
   1527000   700.3345      -7172575.2      197.41124      197.41124      197.41124     -236.42256    
   1528000   700.72583     -7172769.9      197.41124      197.41124      197.41124     -199.92457    
   1529000   700.3262      -7172778        197.41124      197.41124      197.41124     -287.67371    
   1530000   699.68018     -7172810.8      197.41124      197.41124      197.41124     -219.53268    
   1531000   700.09951     -7172881        197.41124      197.41124      197.41124     -214.15702    
   1532000   700.16269     -7172731.5      197.41124      197.41124      197.41124     -130.89134    
   1533000   701.28906     -7172738.5      197.41124      197.41124      197.41124     -164.66792    
   1534000   699.11778     -7172839.7      197.41124      197.41124      197.41124     -155.49236    
   1535000   700.13939     -7172824.2      197.41124      197.41124      197.41124     -203.10345    
   1536000   697.75357     -7172860.6      197.41124      197.41124      197.41124     -108.55328    
   1537000   699.7258      -7172695.9      197.41124      197.41124      197.41124      1.8413538    
   1538000   700.07342     -7172807.6      197.41124      197.41124      197.41124     -178.68192    
   1539000   699.07272     -7172881.3      197.41124      197.41124      197.41124     -127.59594    
   1540000   700.11152     -7172874.7      197.41124      197.41124      197.41124     -301.18458    
   1541000   698.90848     -7172872.3      197.41124      197.41124      197.41124     -98.429109    
   1542000   699.79328     -7172866.3      197.41124      197.41124      197.41124     -221.63378    
   1543000   700.75188     -7172735.7      197.41124      197.41124      197.41124     -168.8894     
   1544000   701.17991     -7172626.6      197.41124      197.41124      197.41124     -164.6224     
   1545000   699.69271     -7172825.8      197.41124      197.41124      197.41124     -239.08733    
   1546000   699.43475     -7172763.1      197.41124      197.41124      197.41124     -125.34398    
   1547000   700.44305     -7172761        197.41124      197.41124      197.41124     -207.28358    
   1548000   700.65525     -7172708.7      197.41124      197.41124      197.41124     -205.62411    
   1549000   699.48907     -7172751.5      197.41124      197.41124      197.41124     -141.89925    
   1550000   700.36125     -7172829.8      197.41124      197.41124      197.41124     -189.81187    
   1551000   699.4499      -7172793.5      197.41124      197.41124      197.41124     -137.80303    
   1552000   699.03372     -7172787.1      197.41124      197.41124      197.41124     -48.979543    
   1553000   699.93066     -7172832        197.41124      197.41124      197.41124     -174.34144    
   1554000   699.06526     -7172823.7      197.41124      197.41124      197.41124     -191.39876    
   1555000   699.0209      -7172818.6      197.41124      197.41124      197.41124     -258.40922    
   1556000   700.43021     -7172699.9      197.41124      197.41124      197.41124     -196.17221    
   1557000   699.98149     -7172760.7      197.41124      197.41124      197.41124     -191.63789    
   1558000   699.99725     -7172753.1      197.41124      197.41124      197.41124     -66.384114    
   1559000   698.80082     -7172854.4      197.41124      197.41124      197.41124     -83.759024    
   1560000   700.3104      -7172733.9      197.41124      197.41124      197.41124     -177.9037     
   1561000   700.20684     -7172765.2      197.41124      197.41124      197.41124     -93.430187    
   1562000   699.1992      -7172801.3      197.41124      197.41124      197.41124     -122.74329    
   1563000   701.07625     -7172720.7      197.41124      197.41124      197.41124     -226.5395     
   1564000   699.45073     -7172779.6      197.41124      197.41124      197.41124     -90.76615     
   1565000   700.3318      -7172806.8      197.41124      197.41124      197.41124     -212.60865    
   1566000   700.43048     -7172689.9      197.41124      197.41124      197.41124     -233.32938    
   1567000   701.30941     -7172657.2      197.41124      197.41124      197.41124     -124.0557     
   1568000   699.65508     -7172755.1      197.41124      197.41124      197.41124     -225.86702    
   1569000   699.85827     -7172768.7      197.41124      197.41124      197.41124     -29.640814    
   1570000   699.82457     -7172781        197.41124      197.41124      197.41124     -273.05638    
   1571000   699.20542     -7172858.9      197.41124      197.41124      197.41124     -166.12843    
   1572000   700.11731     -7172760.3      197.41124      197.41124      197.41124     -138.79221    
   1573000   699.82496     -7172734.9      197.41124      197.41124      197.41124     -198.21697    
   1574000   700.15045     -7172798        197.41124      197.41124      197.41124     -232.07955    
   1575000   699.72337     -7172780.8      197.41124      197.41124      197.41124     -185.33687    
   1576000   700.27435     -7172720.7      197.41124      197.41124      197.41124     -245.55883    
   1577000   700.47753     -7172764.9      197.41124      197.41124      197.41124     -167.23154    
   1578000   700.1128      -7172762.4      197.41124      197.41124      197.41124     -98.504158    
   1579000   700.30368     -7172681        197.41124      197.41124      197.41124     -151.36066    
   1580000   700.30044     -7172729.8      197.41124      197.41124      197.41124     -214.94685    
   1581000   700.52528     -7172814.1      197.41124      197.41124      197.41124     -252.75615    
   1582000   699.59841     -7172752        197.41124      197.41124      197.41124     -182.77067    
   1583000   701.69729     -7172725.2      197.41124      197.41124      197.41124     -134.87541    
   1584000   699.24889     -7172818        197.41124      197.41124      197.41124     -214.89953    
   1585000   700.41343     -7172753.9      197.41124      197.41124      197.41124     -243.56611    
   1586000   700.50167     -7172676.2      197.41124      197.41124      197.41124     -72.377239    
   1587000   701.11626     -7172674.6      197.41124      197.41124      197.41124     -199.66896    
   1588000   700.67511     -7172728.7      197.41124      197.41124      197.41124     -50.620954    
   1589000   700.78578     -7172679.7      197.41124      197.41124      197.41124     -170.0034     
   1590000   701.08252     -7172688.1      197.41124      197.41124      197.41124     -105.75783    
   1591000   699.20408     -7172794.8      197.41124      197.41124      197.41124     -94.23112     
   1592000   700.94955     -7172720.4      197.41124      197.41124      197.41124     -87.353003    
   1593000   699.60533     -7172845.5      197.41124      197.41124      197.41124     -228.11488    
   1594000   701.0048      -7172653.9      197.41124      197.41124      197.41124     -77.511118    
   1595000   701.53343     -7172641.2      197.41124      197.41124      197.41124     -107.30344    
   1596000   700.95181     -7172704.5      197.41124      197.41124      197.41124     -37.919214    
   1597000   699.03199     -7172866.2      197.41124      197.41124      197.41124     -130.60353    
   1598000   699.58813     -7172731.7      197.41124      197.41124      197.41124     -230.88814    
   1599000   700.43005     -7172714.1      197.41124      197.41124      197.41124     -179.75567    
   1600000   700.66801     -7172767.6      197.41124      197.41124      197.41124     -267.36214    
   1601000   700.58199     -7172757.4      197.41124      197.41124      197.41124     -261.85344    
   1602000   700.12224     -7172713.6      197.41124      197.41124      197.41124     -176.80506    
   1603000   698.56964     -7172783.4      197.41124      197.41124      197.41124      38.835885    
   1604000   700.87805     -7172696        197.41124      197.41124      197.41124     -163.14009    
   1605000   700.02874     -7172745.7      197.41124      197.41124      197.41124     -107.18207    
   1606000   700.06642     -7172657.1      197.41124      197.41124      197.41124     -71.603164    
   1607000   698.74255     -7172829.2      197.41124      197.41124      197.41124     -309.38126    
   1608000   700.42069     -7172774.5      197.41124      197.41124      197.41124     -78.221268    
   1609000   700.38544     -7172846.8      197.41124      197.41124      197.41124     -355.82095    
   1610000   699.98399     -7172735        197.41124      197.41124      197.41124     -127.05283    
   1611000   699.7196      -7172788.6      197.41124      197.41124      197.41124     -197.15929    
   1612000   701.53224     -7172777.7      197.41124      197.41124      197.41124     -171.67858    
   1613000   699.82051     -7172791.6      197.41124      197.41124      197.41124     -159.18134    
   1614000   700.51904     -7172701.9      197.41124      197.41124      197.41124     -145.09715    
   1615000   700.54454     -7172646.2      197.41124      197.41124      197.41124     -90.240796    
   1616000   699.53453     -7172761.2      197.41124      197.41124      197.41124     -261.15486    
   1617000   699.82488     -7172747.2      197.41124      197.41124      197.41124     -238.51084    
   1618000   699.50176     -7172817.1      197.41124      197.41124      197.41124     -97.001417    
   1619000   700.62416     -7172798.3      197.41124      197.41124      197.41124     -260.97989    
   1620000   699.51867     -7172823.1      197.41124      197.41124      197.41124     -136.73678    
   1621000   700.97906     -7172682.2      197.41124      197.41124      197.41124     -163.84055    
   1622000   699.65454     -7172835.1      197.41124      197.41124      197.41124     -84.815658    
   1623000   700.59525     -7172762.1      197.41124      197.41124      197.41124     -231.36747    
   1624000   699.84196     -7172810.1      197.41124      197.41124      197.41124     -142.07957    
   1625000   700.54431     -7172816.9      197.41124      197.41124      197.41124     -171.75169    
   1626000   700.64227     -7172678.4      197.41124      197.41124      197.41124     -74.645085    
   1627000   700.50308     -7172713        197.41124      197.41124      197.41124     -106.59545    
   1628000   699.80961     -7172719.7      197.41124      197.41124      197.41124     -211.90668    
   1629000   700.69153     -7172709.9      197.41124      197.41124      197.41124     -115.9397     
   1630000   700.95483     -7172639.9      197.41124      197.41124      197.41124     -57.356702    
   1631000   699.96345     -7172825.2      197.41124      197.41124      197.41124     -282.81549    
   1632000   699.2266      -7172870.7      197.41124      197.41124      197.41124     -199.41655    
   1633000   701.09217     -7172743.2      197.41124      197.41124      197.41124     -108.21213    
   1634000   699.89851     -7172798.2      197.41124      197.41124      197.41124     -204.08003    
   1635000   701.81684     -7172628.5      197.41124      197.41124      197.41124     -128.72639    
   1636000   701.34993     -7172626        197.41124      197.41124      197.41124     -194.51759    
   1637000   699.50405     -7172887.8      197.41124      197.41124      197.41124     -250.67159    
   1638000   699.80884     -7172846.3      197.41124      197.41124      197.41124     -183.53296    
   1639000   701.47599     -7172661.4      197.41124      197.41124      197.41124     -149.2165     
   1640000   699.39812     -7172803.9      197.41124      197.41124      197.41124     -227.40427    
   1641000   698.69792     -7172871.9      197.41124      197.41124      197.41124     -293.3406     
   1642000   700.34808     -7172813.6      197.41124      197.41124      197.41124     -234.28954    
   1643000   699.43027     -7172796        197.41124      197.41124      197.41124     -135.94774    
   1644000   700.6678      -7172740        197.41124      197.41124      197.41124     -181.30189    
   1645000   701.31976     -7172602.9      197.41124      197.41124      197.41124     -177.13437    
   1646000   699.62687     -7172809.1      197.41124      197.41124      197.41124     -127.05865    
   1647000   700.75201     -7172702.3      197.41124      197.41124      197.41124     -191.08396    
   1648000   700.44325     -7172652.3      197.41124      197.41124      197.41124     -87.141468    
   1649000   699.34981     -7172854        197.41124      197.41124      197.41124     -215.22858    
   1650000   699.87453     -7172700.4      197.41124      197.41124      197.41124     -140.84332    
   1651000   701.1413      -7172649        197.41124      197.41124      197.41124     -258.21687    
   1652000   699.87076     -7172732.6      197.41124      197.41124      197.41124     -99.666697    
   1653000   700.20771     -7172810.3      197.41124      197.41124      197.41124     -190.82871    
   1654000   701.01435     -7172735.6      197.41124      197.41124      197.41124     -80.934309    
   1655000   700.15973     -7172797.8      197.41124      197.41124      197.41124     -270.18205    
   1656000   701.04252     -7172762.5      197.41124      197.41124      197.41124     -166.63015    
   1657000   699.2463      -7172724.7      197.41124      197.41124      197.41124     -272.17667    
   1658000   699.50997     -7172796.8      197.41124      197.41124      197.41124     -113.11881    
   1659000   699.34589     -7172914.8      197.41124      197.41124      197.41124     -223.95142    
   1660000   700.51805     -7172747.5      197.41124      197.41124      197.41124     -131.6645     
   1661000   699.58811     -7172815.3      197.41124      197.41124      197.41124     -156.84414    
   1662000   699.87404     -7172775        197.41124      197.41124      197.41124     -83.100353    
   1663000   700.3698      -7172734.5      197.41124      197.41124      197.41124     -267.95547    
   1664000   699.90049     -7172777.8      197.41124      197.41124      197.41124     -216.98037    
   1665000   698.73885     -7172802.5      197.41124      197.41124      197.41124     -157.80261    
   1666000   699.5807      -7172736.5      197.41124      197.41124      197.41124     -144.8103     
   1667000   700.43783     -7172635        197.41124      197.41124      197.41124     -192.34649    
   1668000   699.75305     -7172730.5      197.41124      197.41124      197.41124     -133.17247    
   1669000   698.95944     -7172944.6      197.41124      197.41124      197.41124     -113.94387    
   1670000   699.12312     -7172818.2      197.41124      197.41124      197.41124     -189.8677     
   1671000   698.29251     -7172914.9      197.41124      197.41124      197.41124     -282.27129    
   1672000   700.22492     -7172674.7      197.41124      197.41124      197.41124     -200.89942    
   1673000   699.99045     -7172808.4      197.41124      197.41124      197.41124     -83.981852    
   1674000   699.67817     -7172805.2      197.41124      197.41124      197.41124     -100.28991    
   1675000   699.00109     -7172740        197.41124      197.41124      197.41124     -118.83659    
   1676000   700.81658     -7172865.7      197.41124      197.41124      197.41124     -174.07048    
   1677000   699.76819     -7172764.7      197.41124      197.41124      197.41124     -48.570673    
   1678000   699.97461     -7172799.1      197.41124      197.41124      197.41124     -210.85176    
   1679000   699.76547     -7172749        197.41124      197.41124      197.41124     -186.81365    
   1680000   699.32609     -7172882.9      197.41124      197.41124      197.41124     -380.17976    
   1681000   700.18699     -7172732.2      197.41124      197.41124      197.41124     -255.98388    
   1682000   700.53844     -7172641.7      197.41124      197.41124      197.41124     -221.32176    
   1683000   699.44708     -7172790.4      197.41124      197.41124      197.41124     -236.53174    
   1684000   700.23917     -7172762.8      197.41124      197.41124      197.41124     -209.68903    
   1685000   700.1508      -7172659.1      197.41124      197.41124      197.41124     -112.7563     
   1686000   699.89388     -7172741.6      197.41124      197.41124      197.41124     -136.05302    
   1687000   700.95249     -7172721.8      197.41124      197.41124      197.41124     -132.11956    
   1688000   700.22804     -7172820.1      197.41124      197.41124      197.41124     -342.59633    
   1689000   699.02354     -7172756.1      197.41124      197.41124      197.41124     -185.28161    
   1690000   700.69946     -7172669        197.41124      197.41124      197.41124     -124.23478    
   1691000   700.75586     -7172723.2      197.41124      197.41124      197.41124     -119.37787    
   1692000   699.18706     -7172893.4      197.41124      197.41124      197.41124     -266.23904    
   1693000   698.62784     -7172865.2      197.41124      197.41124      197.41124     -310.26339    
   1694000   699.81422     -7172802.4      197.41124      197.41124      197.41124     -203.61648    
   1695000   700.91387     -7172687.9      197.41124      197.41124      197.41124     -175.44682    
   1696000   698.91337     -7172881.3      197.41124      197.41124      197.41124     -231.64583    
   1697000   699.96306     -7172793.9      197.41124      197.41124      197.41124     -225.64467    
   1698000   699.19624     -7172870.1      197.41124      197.41124      197.41124     -156.39731    
   1699000   699.87613     -7172711.8      197.41124      197.41124      197.41124     -191.94175    
   1700000   700.52129     -7172623.4      197.41124      197.41124      197.41124     -7.7860894    
   1701000   700.08921     -7172744.5      197.41124      197.41124      197.41124     -228.10898    
   1702000   701.22063     -7172749.6      197.41124      197.41124      197.41124     -152.15024    
   1703000   700.36735     -7172638.8      197.41124      197.41124      197.41124     -45.816672    
   1704000   699.7868      -7172770.2      197.41124      197.41124      197.41124     -90.22678     
   1705000   700.90431     -7172711.9      197.41124      197.41124      197.41124     -110.09197    
   1706000   700.81767     -7172798.3      197.41124      197.41124      197.41124     -325.81754    
   1707000   699.85916     -7172830.7      197.41124      197.41124      197.41124     -225.43635    
   1708000   699.77613     -7172723        197.41124      197.41124      197.41124     -230.8053     
   1709000   699.05308     -7172853.9      197.41124      197.41124      197.41124     -362.5408     
   1710000   701.04091     -7172737.5      197.41124      197.41124      197.41124     -111.179      
   1711000   699.47608     -7172781.7      197.41124      197.41124      197.41124     -74.533525    
   1712000   700.81462     -7172676.3      197.41124      197.41124      197.41124     -281.7419     
   1713000   699.37302     -7172803.4      197.41124      197.41124      197.41124     -117.83276    
   1714000   700.37733     -7172645.2      197.41124      197.41124      197.41124     -99.153587    
   1715000   700.01348     -7172830        197.41124      197.41124      197.41124     -161.59807    
   1716000   699.47469     -7172871.6      197.41124      197.41124      197.41124     -166.3739     
   1717000   700.4201      -7172718.6      197.41124      197.41124      197.41124     -125.64183    
   1718000   700.58027     -7172740.7      197.41124      197.41124      197.41124     -222.16746    
   1719000   700.04824     -7172765.6      197.41124      197.41124      197.41124     -296.23474    
   1720000   699.27434     -7172866.3      197.41124      197.41124      197.41124     -274.31794    
   1721000   700.72233     -7172819.8      197.41124      197.41124      197.41124     -223.13469    
   1722000   700.82708     -7172676.4      197.41124      197.41124      197.41124     -105.15797    
   1723000   700.39014     -7172722.5      197.41124      197.41124      197.41124     -213.76979    
   1724000   699.76756     -7172683.2      197.41124      197.41124      197.41124     -97.979947    
   1725000   699.6821      -7172797.3      197.41124      197.41124      197.41124     -205.25165    
   1726000   699.43101     -7172815        197.41124      197.41124      197.41124     -216.7957     
   1727000   700.67474     -7172678.5      197.41124      197.41124      197.41124     -127.90278    
   1728000   700.58344     -7172744.9      197.41124      197.41124      197.41124     -269.05187    
   1729000   699.67615     -7172836.5      197.41124      197.41124      197.41124     -383.68624    
   1730000   700.31959     -7172846.9      197.41124      197.41124      197.41124     -214.75416    
   1731000   700.03466     -7172769.2      197.41124      197.41124      197.41124     -239.77867    
   1732000   700.07348     -7172785.8      197.41124      197.41124      197.41124     -172.36669    
   1733000   700.72703     -7172801.1      197.41124      197.41124      197.41124     -316.49071    
   1734000   699.83185     -7172861.9      197.41124      197.41124      197.41124     -319.76582    
   1735000   699.40498     -7172880.4      197.41124      197.41124      197.41124     -288.43416    
   1736000   700.67345     -7172630.8      197.41124      197.41124      197.41124     -191.18404    
   1737000   700.61949     -7172706.3      197.41124      197.41124      197.41124     -143.12644    
   1738000   698.66347     -7172772.2      197.41124      197.41124      197.41124     -121.65964    
   1739000   699.59496     -7172793.3      197.41124      197.41124      197.41124     -233.04601    
   1740000   700.12433     -7172780.9      197.41124      197.41124      197.41124     -67.397923    
   1741000   699.96734     -7172721.7      197.41124      197.41124      197.41124     -181.14633    
   1742000   700.53798     -7172721.7      197.41124      197.41124      197.41124     -262.8884     
   1743000   700.53059     -7172700.1      197.41124      197.41124      197.41124     -122.35118    
   1744000   699.40488     -7172715.1      197.41124      197.41124      197.41124     -16.960507    
   1745000   699.59209     -7172831.8      197.41124      197.41124      197.41124     -122.54274    
   1746000   698.70505     -7172794        197.41124      197.41124      197.41124     -176.09989    
   1747000   699.9813      -7172730        197.41124      197.41124      197.41124     -396.02787    
   1748000   700.75302     -7172680        197.41124      197.41124      197.41124     -143.27483    
   1749000   699.14434     -7172726.1      197.41124      197.41124      197.41124     -134.48407    
   1750000   700.4298      -7172789.1      197.41124      197.41124      197.41124     -223.41435    
   1751000   699.3966      -7172827.7      197.41124      197.41124      197.41124     -258.82166    
   1752000   699.82046     -7172805.6      197.41124      197.41124      197.41124     -381.4516     
   1753000   699.89737     -7172715.1      197.41124      197.41124      197.41124     -159.7097     
   1754000   699.82725     -7172783.1      197.41124      197.41124      197.41124     -313.40826    
   1755000   700.44104     -7172764.6      197.41124      197.41124      197.41124     -156.52709    
   1756000   699.3676      -7172748        197.41124      197.41124      197.41124     -209.50614    
   1757000   700.44678     -7172746        197.41124      197.41124      197.41124     -333.65094    
   1758000   699.54074     -7172853        197.41124      197.41124      197.41124     -225.35094    
   1759000   697.83949     -7172945.9      197.41124      197.41124      197.41124     -381.83742    
   1760000   699.64582     -7172767.1      197.41124      197.41124      197.41124     -154.40851    
   1761000   699.91335     -7172770.3      197.41124      197.41124      197.41124     -202.73121    
   1762000   699.77199     -7172807.4      197.41124      197.41124      197.41124     -67.043181    
   1763000   700.1897      -7172767.5      197.41124      197.41124      197.41124     -210.31504    
   1764000   699.86724     -7172929.6      197.41124      197.41124      197.41124     -259.36269    
   1765000   699.80123     -7172761.5      197.41124      197.41124      197.41124     -145.96844    
   1766000   699.84219     -7172755.9      197.41124      197.41124      197.41124     -242.84289    
   1767000   699.99885     -7172725.9      197.41124      197.41124      197.41124     -252.60025    
   1768000   700.26402     -7172763.2      197.41124      197.41124      197.41124     -241.91746    
   1769000   698.76346     -7172878        197.41124      197.41124      197.41124     -299.38239    
   1770000   700.69723     -7172650.4      197.41124      197.41124      197.41124     -119.15932    
   1771000   699.5371      -7172726        197.41124      197.41124      197.41124     -289.78998    
   1772000   699.82514     -7172852.9      197.41124      197.41124      197.41124     -262.81576    
   1773000   700.02274     -7172787.6      197.41124      197.41124      197.41124     -233.78536    
   1774000   700.41212     -7172799.6      197.41124      197.41124      197.41124     -240.83007    
   1775000   701.46546     -7172662.8      197.41124      197.41124      197.41124     -98.919127    
   1776000   699.34951     -7172862.7      197.41124      197.41124      197.41124     -295.77704    
   1777000   698.5708      -7172807.4      197.41124      197.41124      197.41124     -82.512184    
   1778000   700.27077     -7172737.9      197.41124      197.41124      197.41124     -337.69122    
   1779000   700.07139     -7172761.6      197.41124      197.41124      197.41124     -364.1215     
   1780000   699.2963      -7172801.7      197.41124      197.41124      197.41124     -127.31843    
   1781000   699.09211     -7172853.1      197.41124      197.41124      197.41124     -171.78664    
   1782000   700.09127     -7172847.4      197.41124      197.41124      197.41124     -232.87021    
   1783000   698.92095     -7172857.1      197.41124      197.41124      197.41124     -321.74231    
   1784000   699.83339     -7172838.4      197.41124      197.41124      197.41124     -250.6497     
   1785000   700.29304     -7172737.7      197.41124      197.41124      197.41124     -260.62843    
   1786000   701.15538     -7172680.6      197.41124      197.41124      197.41124     -175.3888     
   1787000   699.2104      -7172727.7      197.41124      197.41124      197.41124      39.373819    
   1788000   699.4241      -7172855.3      197.41124      197.41124      197.41124     -116.86025    
   1789000   700.52831     -7172720.3      197.41124      197.41124      197.41124     -275.67688    
   1790000   699.95362     -7172668.1      197.41124      197.41124      197.41124     -222.11366    
   1791000   699.78088     -7172796        197.41124      197.41124      197.41124     -102.13194    
   1792000   699.04958     -7172782.2      197.41124      197.41124      197.41124     -222.9518     
   1793000   699.03368     -7172747.1      197.41124      197.41124      197.41124     -116.48468    
   1794000   699.11295     -7172914.6      197.41124      197.41124      197.41124     -161.4687     
   1795000   699.39916     -7172730.6      197.41124      197.41124      197.41124     -316.6819     
   1796000   701.37411     -7172726.9      197.41124      197.41124      197.41124     -252.2381     
   1797000   699.80719     -7172755.6      197.41124      197.41124      197.41124     -8.0228106    
   1798000   700.31522     -7172721.6      197.41124      197.41124      197.41124     -73.056487    
   1799000   700.5316      -7172693.5      197.41124      197.41124      197.41124     -160.63872    
   1800000   699.34229     -7172916.1      197.41124      197.41124      197.41124     -153.46616    
   1801000   698.66276     -7172830        197.41124      197.41124      197.41124     -249.39343    
   1802000   700.18955     -7172817.7      197.41124      197.41124      197.41124     -331.45863    
   1803000   701.07802     -7172740        197.41124      197.41124      197.41124     -163.26149    
   1804000   698.65867     -7172866.2      197.41124      197.41124      197.41124     -348.98755    
   1805000   700.09261     -7172796.3      197.41124      197.41124      197.41124     -202.25736    
   1806000   699.51814     -7172758.7      197.41124      197.41124      197.41124     -178.42827    
   1807000   700.08387     -7172895.8      197.41124      197.41124      197.41124     -248.61426    
   1808000   699.53756     -7172819.6      197.41124      197.41124      197.41124     -171.81836    
   1809000   698.66055     -7172946.6      197.41124      197.41124      197.41124     -151.05702    
   1810000   699.02842     -7172925        197.41124      197.41124      197.41124     -171.69648    
   1811000   700.0455      -7172698.8      197.41124      197.41124      197.41124     -178.91143    
   1812000   700.71958     -7172790.2      197.41124      197.41124      197.41124     -187.79294    
   1813000   700.79673     -7172718.1      197.41124      197.41124      197.41124     -118.31361    
   1814000   699.75284     -7172841.7      197.41124      197.41124      197.41124     -220.80166    
   1815000   700.21005     -7172740.2      197.41124      197.41124      197.41124     -110.18675    
   1816000   700.75383     -7172730.1      197.41124      197.41124      197.41124     -193.69538    
   1817000   700.06101     -7172799.1      197.41124      197.41124      197.41124     -256.22208    
   1818000   699.86552     -7172761.1      197.41124      197.41124      197.41124     -275.77982    
   1819000   700.70657     -7172701.9      197.41124      197.41124      197.41124     -157.48997    
   1820000   700.41875     -7172756.8      197.41124      197.41124      197.41124     -151.68356    
   1821000   699.57927     -7172839.7      197.41124      197.41124      197.41124     -235.3788     
   1822000   700.33006     -7172739        197.41124      197.41124      197.41124     -180.79612    
   1823000   699.50487     -7172780.3      197.41124      197.41124      197.41124     -162.72907    
   1824000   698.96752     -7172853.4      197.41124      197.41124      197.41124     -210.40473    
   1825000   699.27973     -7172872.2      197.41124      197.41124      197.41124     -362.85211    
   1826000   699.84876     -7172790.9      197.41124      197.41124      197.41124     -234.4006     
   1827000   700.51354     -7172695.2      197.41124      197.41124      197.41124     -79.710961    
   1828000   700.63052     -7172725.9      197.41124      197.41124      197.41124     -310.19139    
   1829000   699.77719     -7172817.5      197.41124      197.41124      197.41124     -222.7941     
   1830000   700.18144     -7172832.8      197.41124      197.41124      197.41124     -267.17224    
   1831000   699.38506     -7172809.7      197.41124      197.41124      197.41124     -192.73561    
   1832000   700.04821     -7172796.6      197.41124      197.41124      197.41124     -236.20262    
   1833000   699.49778     -7172756        197.41124      197.41124      197.41124     -229.07119    
   1834000   700.72829     -7172730.9      197.41124      197.41124      197.41124     -180.24102    
   1835000   701.43206     -7172717.5      197.41124      197.41124      197.41124     -163.43253    
   1836000   699.80614     -7172829.4      197.41124      197.41124      197.41124     -195.05098    
   1837000   700.43347     -7172728.2      197.41124      197.41124      197.41124     -282.80542    
   1838000   698.26699     -7172981.6      197.41124      197.41124      197.41124     -271.24399    
   1839000   700.04974     -7172846.7      197.41124      197.41124      197.41124     -179.47122    
   1840000   698.8918      -7172858.3      197.41124      197.41124      197.41124     -216.97133    
   1841000   701.43693     -7172738.2      197.41124      197.41124      197.41124     -170.01657    
   1842000   700.61498     -7172859.9      197.41124      197.41124      197.41124     -285.4958     
   1843000   698.33094     -7172928        197.41124      197.41124      197.41124     -158.73414    
   1844000   700.02039     -7172734        197.41124      197.41124      197.41124     -310.94406    
   1845000   700.01036     -7172754.5      197.41124      197.41124      197.41124     -117.36419    
   1846000   700.11556     -7172727.3      197.41124      197.41124      197.41124     -101.82971    
   1847000   700.34587     -7172790.3      197.41124      197.41124      197.41124     -307.8129     
   1848000   701.32391     -7172665.8      197.41124      197.41124      197.41124     -161.50684    
   1849000   700.07926     -7172803.6      197.41124      197.41124      197.41124     -252.66531    
   1850000   699.96204     -7172817        197.41124      197.41124      197.41124     -261.69753    
   1851000   699.88587     -7172825.7      197.41124      197.41124      197.41124     -214.04256    
   1852000   699.62485     -7172781.2      197.41124      197.41124      197.41124     -253.16171    
   1853000   700.27819     -7172780.6      197.41124      197.41124      197.41124     -217.86602    
   1854000   700.82515     -7172706        197.41124      197.41124      197.41124     -237.64755    
   1855000   700.25518     -7172809.6      197.41124      197.41124      197.41124     -171.30052    
   1856000   699.34984     -7172800.9      197.41124      197.41124      197.41124     -162.35737    
   1857000   699.84859     -7172801.2      197.41124      197.41124      197.41124     -263.24028    
   1858000   699.29225     -7172879.2      197.41124      197.41124      197.41124     -111.82592    
   1859000   699.88872     -7172745.7      197.41124      197.41124      197.41124     -170.29713    
   1860000   700.66247     -7172727.5      197.41124      197.41124      197.41124     -291.90542    
   1861000   699.59842     -7172833.9      197.41124      197.41124      197.41124     -180.86663    
   1862000   699.2534      -7172890        197.41124      197.41124      197.41124     -206.00268    
   1863000   700.5361      -7172624.4      197.41124      197.41124      197.41124     -178.04439    
   1864000   699.39075     -7172898.5      197.41124      197.41124      197.41124     -149.90552    
   1865000   700.999       -7172692.2      197.41124      197.41124      197.41124     -238.2561     
   1866000   699.89978     -7172716.1      197.41124      197.41124      197.41124     -198.67417    
   1867000   700.74101     -7172738.9      197.41124      197.41124      197.41124     -47.886197    
   1868000   699.20294     -7172821.5      197.41124      197.41124      197.41124     -213.23027    
   1869000   699.95728     -7172755.5      197.41124      197.41124      197.41124     -296.79766    
   1870000   700.57952     -7172744.4      197.41124      197.41124      197.41124     -351.83508    
   1871000   700.42395     -7172637.9      197.41124      197.41124      197.41124     -97.776278    
   1872000   701.0348      -7172764.8      197.41124      197.41124      197.41124     -20.564111    
   1873000   698.81463     -7172706.1      197.41124      197.41124      197.41124     -247.03937    
   1874000   701.05813     -7172672        197.41124      197.41124      197.41124     -90.722306    
   1875000   699.04447     -7172839.3      197.41124      197.41124      197.41124     -116.5369     
   1876000   700.18833     -7172824.5      197.41124      197.41124      197.41124     -86.819476    
   1877000   700.36406     -7172783.2      197.41124      197.41124      197.41124     -106.91384    
   1878000   700.64956     -7172729.9      197.41124      197.41124      197.41124     -146.90675    
   1879000   700.22488     -7172840.2      197.41124      197.41124      197.41124     -204.07943    
   1880000   699.83972     -7172807        197.41124      197.41124      197.41124     -135.90944    
   1881000   699.7337      -7172790.2      197.41124      197.41124      197.41124     -260.9402     
   1882000   700.26893     -7172806.8      197.41124      197.41124      197.41124     -178.64445    
   1883000   700.63794     -7172737.9      197.41124      197.41124      197.41124     -196.71982    
   1884000   699.67316     -7172834.3      197.41124      197.41124      197.41124     -180.73699    
   1885000   700.48416     -7172789.1      197.41124      197.41124      197.41124     -185.06152    
   1886000   698.94343     -7172945.1      197.41124      197.41124      197.41124     -177.49785    
   1887000   699.91331     -7172775.8      197.41124      197.41124      197.41124     -139.4872     
   1888000   699.71812     -7172804.7      197.41124      197.41124      197.41124     -130.33938    
   1889000   700.42229     -7172783.8      197.41124      197.41124      197.41124     -72.430297    
   1890000   699.30944     -7172778.8      197.41124      197.41124      197.41124      7.9941341    
   1891000   699.43175     -7172869.5      197.41124      197.41124      197.41124     -185.49231    
   1892000   699.37817     -7172847        197.41124      197.41124      197.41124     -227.77065    
   1893000   700.27255     -7172757.4      197.41124      197.41124      197.41124     -192.6204     
   1894000   699.95031     -7172760.6      197.41124      197.41124      197.41124     -188.23595    
   1895000   699.73499     -7172836.7      197.41124      197.41124      197.41124     -211.53609    
   1896000   699.73355     -7172842.6      197.41124      197.41124      197.41124     -172.77607    
   1897000   700.00608     -7172721.7      197.41124      197.41124      197.41124     -137.98094    
   1898000   700.67316     -7172715.4      197.41124      197.41124      197.41124     -167.90492    
   1899000   701.08035     -7172785.8      197.41124      197.41124      197.41124     -236.96106    
   1900000   701.06593     -7172648.2      197.41124      197.41124      197.41124     -87.624848    
   1901000   699.93339     -7172844.5      197.41124      197.41124      197.41124     -277.99176    
   1902000   700.68        -7172716.3      197.41124      197.41124      197.41124     -348.12948    
   1903000   698.63035     -7172865        197.41124      197.41124      197.41124     -170.20951    
   1904000   699.23525     -7172768.7      197.41124      197.41124      197.41124     -156.13811    
   1905000   699.25611     -7172794.4      197.41124      197.41124      197.41124     -117.68484    
   1906000   699.70087     -7172834.8      197.41124      197.41124      197.41124     -279.85214    
   1907000   699.77205     -7172807.4      197.41124      197.41124      197.41124     -173.08366    
   1908000   701.04906     -7172747.5      197.41124      197.41124      197.41124     -171.87992    
   1909000   701.3284      -7172748.5      197.41124      197.41124      197.41124     -79.627739    
   1910000   699.71528     -7172820.6      197.41124      197.41124      197.41124     -189.90948    
   1911000   700.55211     -7172760.6      197.41124      197.41124      197.41124     -185.95596    
   1912000   699.80574     -7172739.2      197.41124      197.41124      197.41124     -61.920785    
   1913000   700.02494     -7172759.2      197.41124      197.41124      197.41124     -218.34394    
   1914000   701.12145     -7172680.2      197.41124      197.41124      197.41124     -366.49281    
   1915000   699.0855      -7172876.2      197.41124      197.41124      197.41124     -161.31306    
   1916000   699.04258     -7172884.1      197.41124      197.41124      197.41124     -203.98189    
   1917000   700.71231     -7172752.1      197.41124      197.41124      197.41124     -280.93811    
   1918000   700.10841     -7172761.5      197.41124      197.41124      197.41124     -112.32164    
   1919000   700.33893     -7172784.5      197.41124      197.41124      197.41124     -213.90197    
   1920000   699.90344     -7172828        197.41124      197.41124      197.41124     -213.39514    
   1921000   700.19756     -7172844.9      197.41124      197.41124      197.41124     -202.04083    
   1922000   699.77988     -7172844.7      197.41124      197.41124      197.41124     -119.50602    
   1923000   699.08763     -7172797.3      197.41124      197.41124      197.41124     -191.59357    
   1924000   699.86246     -7172895.2      197.41124      197.41124      197.41124     -290.95986    
   1925000   699.6896      -7172802.4      197.41124      197.41124      197.41124     -230.01628    
   1926000   699.95111     -7172840.1      197.41124      197.41124      197.41124     -210.16907    
   1927000   700.67063     -7172803.7      197.41124      197.41124      197.41124     -163.95313    
   1928000   699.49461     -7172858.4      197.41124      197.41124      197.41124     -194.89519    
   1929000   700.29449     -7172795.5      197.41124      197.41124      197.41124     -241.04399    
   1930000   701.15198     -7172663.7      197.41124      197.41124      197.41124     -103.34405    
   1931000   700.57306     -7172697.9      197.41124      197.41124      197.41124     -150.69627    
   1932000   699.81708     -7172766.9      197.41124      197.41124      197.41124     -124.46019    
   1933000   700.05757     -7172828.4      197.41124      197.41124      197.41124     -238.4006     
   1934000   699.47092     -7172899        197.41124      197.41124      197.41124     -175.69302    
   1935000   698.60417     -7172967.1      197.41124      197.41124      197.41124     -193.38178    
   1936000   699.88243     -7172837.5      197.41124      197.41124      197.41124     -259.16296    
   1937000   700.69412     -7172717.4      197.41124      197.41124      197.41124     -220.17999    
   1938000   700.44535     -7172875        197.41124      197.41124      197.41124     -162.07831    
   1939000   700.41691     -7172808.1      197.41124      197.41124      197.41124     -172.60388    
   1940000   699.8241      -7172800.3      197.41124      197.41124      197.41124     -250.98162    
   1941000   700.33772     -7172726.9      197.41124      197.41124      197.41124     -185.55082    
   1942000   700.00933     -7172758.3      197.41124      197.41124      197.41124     -184.60561    
   1943000   700.09397     -7172682.3      197.41124      197.41124      197.41124     -203.91779    
   1944000   700.99759     -7172636        197.41124      197.41124      197.41124     -118.24651    
   1945000   699.46462     -7172850.9      197.41124      197.41124      197.41124     -33.639548    
   1946000   700.00944     -7172875.1      197.41124      197.41124      197.41124     -239.15873    
   1947000   700.6289      -7172755.9      197.41124      197.41124      197.41124     -71.938467    
   1948000   700.41303     -7172829.8      197.41124      197.41124      197.41124     -180.46392    
   1949000   700.62743     -7172773.3      197.41124      197.41124      197.41124     -129.63519    
   1950000   699.69011     -7172793.4      197.41124      197.41124      197.41124     -156.43919    
   1951000   699.11736     -7172812.1      197.41124      197.41124      197.41124     -185.15553    
   1952000   700.20334     -7172817.9      197.41124      197.41124      197.41124     -272.52415    
   1953000   699.26954     -7172852.2      197.41124      197.41124      197.41124     -177.90432    
   1954000   699.96743     -7172733.2      197.41124      197.41124      197.41124     -143.4719     
   1955000   700.73402     -7172673        197.41124      197.41124      197.41124     -132.31513    
   1956000   700.14802     -7172660.3      197.41124      197.41124      197.41124     -179.8605     
   1957000   699.01516     -7172832.3      197.41124      197.41124      197.41124     -195.99816    
   1958000   701.05717     -7172742.5      197.41124      197.41124      197.41124     -55.81592     
   1959000   700.12835     -7172749        197.41124      197.41124      197.41124     -230.9277     
   1960000   700.72603     -7172775.4      197.41124      197.41124      197.41124     -224.82966    
   1961000   700.21054     -7172859.4      197.41124      197.41124      197.41124     -197.41276    
   1962000   700.66501     -7172648.9      197.41124      197.41124      197.41124     -239.61971    
   1963000   699.45165     -7172847.8      197.41124      197.41124      197.41124     -128.3208     
   1964000   701.13629     -7172652        197.41124      197.41124      197.41124     -66.082289    
   1965000   700.4808      -7172831.8      197.41124      197.41124      197.41124     -224.28246    
   1966000   699.82512     -7172839.9      197.41124      197.41124      197.41124     -272.52883    
   1967000   700.81291     -7172754.8      197.41124      197.41124      197.41124     -85.017664    
   1968000   700.72126     -7172721.3      197.41124      197.41124      197.41124     -173.61698    
   1969000   699.55625     -7172859.8      197.41124      197.41124      197.41124     -160.69278    
   1970000   700.89827     -7172769.3      197.41124      197.41124      197.41124     -331.7345     
   1971000   700.62271     -7172751.7      197.41124      197.41124      197.41124     -255.82706    
   1972000   699.90651     -7172721.4      197.41124      197.41124      197.41124     -227.48914    
   1973000   701.51506     -7172726.7      197.41124      197.41124      197.41124     -247.45119    
   1974000   699.93937     -7172848.4      197.41124      197.41124      197.41124     -164.39561    
   1975000   699.9091      -7172835.7      197.41124      197.41124      197.41124     -167.39725    
   1976000   700.03769     -7172814.7      197.41124      197.41124      197.41124     -226.18283    
   1977000   699.30226     -7172887.7      197.41124      197.41124      197.41124     -114.48923    
   1978000   700.86362     -7172748.8      197.41124      197.41124      197.41124     -210.78698    
   1979000   698.57802     -7172842.8      197.41124      197.41124      197.41124     -252.17826    
   1980000   699.60673     -7172867.8      197.41124      197.41124      197.41124     -162.51889    
   1981000   699.33331     -7172787.6      197.41124      197.41124      197.41124     -95.858851    
   1982000   699.48743     -7172860        197.41124      197.41124      197.41124     -290.13584    
   1983000   699.93371     -7172838.3      197.41124      197.41124      197.41124     -227.06468    
   1984000   700.84726     -7172774.2      197.41124      197.41124      197.41124     -216.62979    
   1985000   700.1912      -7172809.6      197.41124      197.41124      197.41124     -253.15749    
   1986000   700.3382      -7172707.5      197.41124      197.41124      197.41124     -210.74569    
   1987000   700.14965     -7172820.8      197.41124      197.41124      197.41124     -278.83669    
   1988000   699.57647     -7172831        197.41124      197.41124      197.41124     -191.66234    
   1989000   700.10273     -7172737.1      197.41124      197.41124      197.41124     -329.11736    
   1990000   700.89825     -7172777.8      197.41124      197.41124      197.41124     -176.43633    
   1991000   699.61957     -7172725.2      197.41124      197.41124      197.41124     -161.66731    
   1992000   699.86432     -7172866.1      197.41124      197.41124      197.41124     -200.73509    
   1993000   700.12642     -7172759        197.41124      197.41124      197.41124     -194.04511    
   1994000   700.05645     -7172708.2      197.41124      197.41124      197.41124     -29.113265    
   1995000   699.46953     -7172861.5      197.41124      197.41124      197.41124     -321.7328     
   1996000   700.73199     -7172786.1      197.41124      197.41124      197.41124     -207.56863    
   1997000   699.75627     -7172812.3      197.41124      197.41124      197.41124     -277.77855    
   1998000   699.07454     -7172850.7      197.41124      197.41124      197.41124     -40.266639    
   1999000   700.21084     -7172845.9      197.41124      197.41124      197.41124     -277.75889    
   2000000   700.54887     -7172747.6      197.41124      197.41124      197.41124     -241.55993    
   2001000   700.089       -7172801.7      197.41124      197.41124      197.41124     -131.42187    
   2002000   699.76281     -7172862.4      197.41124      197.41124      197.41124     -203.94506    
   2003000   700.5624      -7172886.9      197.41124      197.41124      197.41124     -270.64103    
   2004000   699.28816     -7172851.3      197.41124      197.41124      197.41124     -316.98608    
   2005000   700.57597     -7172782        197.41124      197.41124      197.41124     -96.457263    
   2006000   700.29196     -7172731.2      197.41124      197.41124      197.41124     -146.70609    
   2007000   699.98921     -7172801        197.41124      197.41124      197.41124     -313.08182    
   2008000   700.50384     -7172784.8      197.41124      197.41124      197.41124     -198.6672     
   2009000   700.88797     -7172727.8      197.41124      197.41124      197.41124     -235.62234    
   2010000   699.81805     -7172876.7      197.41124      197.41124      197.41124     -265.41379    
   2011000   698.9945      -7172865.7      197.41124      197.41124      197.41124     -159.16283    
   2012000   699.45452     -7172732.6      197.41124      197.41124      197.41124     -180.27141    
   2013000   701.35411     -7172705.5      197.41124      197.41124      197.41124     -236.79696    
   2014000   700.6076      -7172651.6      197.41124      197.41124      197.41124     -184.98259    
   2015000   700.09178     -7172843.6      197.41124      197.41124      197.41124     -219.91761    
   2016000   699.48256     -7172900.3      197.41124      197.41124      197.41124     -215.30603    
   2017000   700.46675     -7172767.9      197.41124      197.41124      197.41124     -58.019461    
   2018000   700.36472     -7172844.1      197.41124      197.41124      197.41124     -196.0387     
   2019000   698.77376     -7172938.4      197.41124      197.41124      197.41124     -307.79756    
   2020000   699.21641     -7172851.2      197.41124      197.41124      197.41124     -137.14269    
   2021000   699.08433     -7172849        197.41124      197.41124      197.41124     -155.28913    
   2022000   698.88136     -7172928.9      197.41124      197.41124      197.41124     -190.62433    
   2023000   700.47652     -7172792.3      197.41124      197.41124      197.41124     -296.68089    
   2024000   700.15883     -7172745        197.41124      197.41124      197.41124     -227.35474    
   2025000   699.66494     -7172950.1      197.41124      197.41124      197.41124     -129.06311    
   2026000   699.75646     -7172831.7      197.41124      197.41124      197.41124     -130.2353     
   2027000   701.12128     -7172754        197.41124      197.41124      197.41124     -189.02628    
   2028000   700.35472     -7172773.9      197.41124      197.41124      197.41124     -199.82987    
   2029000   700.434       -7172743.8      197.41124      197.41124      197.41124     -100.44987    
   2030000   700.518       -7172819.5      197.41124      197.41124      197.41124     -251.79228    
   2031000   700.01684     -7172798.8      197.41124      197.41124      197.41124     -146.61863    
   2032000   699.55222     -7172845.7      197.41124      197.41124      197.41124     -244.69997    
   2033000   700.21554     -7172810.5      197.41124      197.41124      197.41124     -189.46454    
   2034000   699.2605      -7172892.9      197.41124      197.41124      197.41124     -173.72604    
   2035000   700.18816     -7172768.7      197.41124      197.41124      197.41124     -119.62921    
   2036000   699.64083     -7172878.7      197.41124      197.41124      197.41124     -276.97606    
   2037000   701.11501     -7172689.8      197.41124      197.41124      197.41124     -170.68235    
   2038000   699.25048     -7172910.6      197.41124      197.41124      197.41124     -190.98662    
   2039000   700.28783     -7172603.4      197.41124      197.41124      197.41124     -81.646814    
   2040000   698.41496     -7172886.9      197.41124      197.41124      197.41124     -261.33152    
   2041000   700.16147     -7172822.7      197.41124      197.41124      197.41124     -181.24472    
   2042000   700.57085     -7172829.9      197.41124      197.41124      197.41124     -260.60901    
   2043000   700.65341     -7172829.1      197.41124      197.41124      197.41124     -182.92647    
   2044000   700.6729      -7172765.8      197.41124      197.41124      197.41124     -275.82288    
   2045000   699.96471     -7172735.2      197.41124      197.41124      197.41124     -168.77531    
   2046000   699.98449     -7172786.3      197.41124      197.41124      197.41124     -174.09518    
   2047000   699.60309     -7172800.3      197.41124      197.41124      197.41124     -263.84199    
   2048000   700.57941     -7172805.5      197.41124      197.41124      197.41124     -188.02978    
   2049000   700.62465     -7172743.4      197.41124      197.41124      197.41124     -213.24856    
   2050000   699.78516     -7172651.5      197.41124      197.41124      197.41124     -205.44013    
   2051000   700.08995     -7172734.1      197.41124      197.41124      197.41124     -241.87762    
   2052000   699.81273     -7172782.9      197.41124      197.41124      197.41124     -228.59175    
   2053000   699.06189     -7172846.4      197.41124      197.41124      197.41124     -322.77931    
   2054000   699.70633     -7172851.6      197.41124      197.41124      197.41124     -198.20966    
   2055000   699.79746     -7172822        197.41124      197.41124      197.41124     -274.93121    
   2056000   700.02942     -7172806.8      197.41124      197.41124      197.41124     -192.37412    
   2057000   699.37859     -7172777.3      197.41124      197.41124      197.41124     -207.76561    
   2058000   700.76122     -7172634.8      197.41124      197.41124      197.41124     -174.13522    
   2059000   700.95437     -7172699.9      197.41124      197.41124      197.41124     -150.69819    
   2060000   700.46922     -7172853.7      197.41124      197.41124      197.41124     -235.63587    
   2061000   699.35302     -7172747.1      197.41124      197.41124      197.41124     -80.844406    
   2062000   699.18358     -7172861        197.41124      197.41124      197.41124     -288.78349    
   2063000   700.01734     -7172818.3      197.41124      197.41124      197.41124     -153.98904    
   2064000   700.14121     -7172792.2      197.41124      197.41124      197.41124     -269.39046    
   2065000   698.42491     -7172887.9      197.41124      197.41124      197.41124     -305.39464    
   2066000   699.92228     -7172730.9      197.41124      197.41124      197.41124     -152.05383    
   2067000   699.16537     -7172857.3      197.41124      197.41124      197.41124      2.2640856    
   2068000   699.59101     -7172780.5      197.41124      197.41124      197.41124     -258.57694    
   2069000   700.77305     -7172690.9      197.41124      197.41124      197.41124     -31.449274    
   2070000   699.80099     -7172894.9      197.41124      197.41124      197.41124     -94.895679    
   2071000   699.61456     -7172832.9      197.41124      197.41124      197.41124     -161.85527    
   2072000   699.41904     -7172915.6      197.41124      197.41124      197.41124     -240.39833    
   2073000   700.32046     -7172716.7      197.41124      197.41124      197.41124     -249.09956    
   2074000   699.73131     -7172910.3      197.41124      197.41124      197.41124     -178.6609     
   2075000   700.27549     -7172762.5      197.41124      197.41124      197.41124     -69.512175    
   2076000   700.87681     -7172653.5      197.41124      197.41124      197.41124     -126.90441    
   2077000   700.0477      -7172735.1      197.41124      197.41124      197.41124     -170.96447    
   2078000   701.1335      -7172756.8      197.41124      197.41124      197.41124     -301.73555    
   2079000   699.93878     -7172722.9      197.41124      197.41124      197.41124     -131.43876    
   2080000   700.42856     -7172806.4      197.41124      197.41124      197.41124     -298.59801    
   2081000   699.2508      -7172886.4      197.41124      197.41124      197.41124     -299.0607     
   2082000   700.91742     -7172725.1      197.41124      197.41124      197.41124     -212.42873    
   2083000   700.28619     -7172818.5      197.41124      197.41124      197.41124     -233.11991    
   2084000   699.77804     -7172763.6      197.41124      197.41124      197.41124     -325.21503    
   2085000   699.41598     -7172804.5      197.41124      197.41124      197.41124     -23.074212    
   2086000   699.87074     -7172711.4      197.41124      197.41124      197.41124     -51.544274    
   2087000   700.85117     -7172697.5      197.41124      197.41124      197.41124     -117.75927    
   2088000   700.6282      -7172763.3      197.41124      197.41124      197.41124     -275.14221    
   2089000   700.03161     -7172834.4      197.41124      197.41124      197.41124     -206.34998    
   2090000   700.07315     -7172758        197.41124      197.41124      197.41124     -39.757863    
   2091000   701.0591      -7172708.9      197.41124      197.41124      197.41124     -86.462528    
   2092000   700.34382     -7172792.7      197.41124      197.41124      197.41124     -254.77996    
   2093000   700.08932     -7172787.8      197.41124      197.41124      197.41124     -178.28467    
   2094000   700.24491     -7172774.8      197.41124      197.41124      197.41124     -233.4822     
   2095000   699.74968     -7172826.6      197.41124      197.41124      197.41124     -180.61282    
   2096000   700.05391     -7172812.7      197.41124      197.41124      197.41124     -181.15844    
   2097000   700.23235     -7172712.5      197.41124      197.41124      197.41124     -252.08551    
   2098000   697.89589     -7172935.8      197.41124      197.41124      197.41124     -145.88173    
   2099000   700.50576     -7172702.4      197.41124      197.41124      197.41124     -220.45466    
   2100000   701.08115     -7172720.1      197.41124      197.41124      197.41124     -183.09875    
   2101000   700.26465     -7172824.9      197.41124      197.41124      197.41124     -183.09103    
   2102000   700.08257     -7172743.6      197.41124      197.41124      197.41124     -258.40111    
   2103000   700.69676     -7172836.5      197.41124      197.41124      197.41124     -132.10804    
   2104000   699.67837     -7172842.6      197.41124      197.41124      197.41124     -78.465584    
   2105000   699.25912     -7172896        197.41124      197.41124      197.41124     -115.18313    
   2106000   699.96983     -7172713.3      197.41124      197.41124      197.41124     -153.15824    
   2107000   699.60183     -7172733        197.41124      197.41124      197.41124     -217.58681    
   2108000   698.9059      -7172929.9      197.41124      197.41124      197.41124     -239.67067    
   2109000   698.26004     -7172870        197.41124      197.41124      197.41124     -228.97171    
   2110000   700.98474     -7172706.9      197.41124      197.41124      197.41124     -274.2679     
   2111000   699.90918     -7172768        197.41124      197.41124      197.41124     -236.09422    
   2112000   700.18904     -7172834.1      197.41124      197.41124      197.41124     -132.55875    
   2113000   699.95866     -7172884.3      197.41124      197.41124      197.41124     -223.8818     
   2114000   699.8418      -7172891.9      197.41124      197.41124      197.41124     -196.98496    
   2115000   700.88036     -7172705.7      197.41124      197.41124      197.41124     -166.26076    
   2116000   700.12039     -7172718.5      197.41124      197.41124      197.41124     -109.31578    
   2117000   700.00375     -7172775.4      197.41124      197.41124      197.41124     -212.28317    
   2118000   700.14322     -7172764.1      197.41124      197.41124      197.41124     -215.38352    
   2119000   698.61571     -7172888.3      197.41124      197.41124      197.41124     -232.71406    
   2120000   699.90048     -7172760.1      197.41124      197.41124      197.41124     -126.47862    
   2121000   700.77354     -7172749.9      197.41124      197.41124      197.41124     -189.5117     
   2122000   699.92112     -7172901.1      197.41124      197.41124      197.41124     -237.77612    
   2123000   699.68296     -7172838.1      197.41124      197.41124      197.41124     -127.82999    
   2124000   698.83918     -7172916.3      197.41124      197.41124      197.41124     -138.77204    
   2125000   699.79346     -7172848.7      197.41124      197.41124      197.41124     -272.06752    
   2126000   699.85816     -7172848.2      197.41124      197.41124      197.41124     -140.54188    
   2127000   699.93644     -7172815.8      197.41124      197.41124      197.41124     -185.64895    
   2128000   698.3266      -7172874.9      197.41124      197.41124      197.41124     -98.003208    
   2129000   698.83884     -7172811.9      197.41124      197.41124      197.41124     -125.03897    
   2130000   700.67599     -7172708.2      197.41124      197.41124      197.41124     -132.28702    
   2131000   699.98615     -7172786.7      197.41124      197.41124      197.41124     -214.77621    
   2132000   700.06965     -7172790.7      197.41124      197.41124      197.41124     -95.637648    
   2133000   699.43845     -7172734.6      197.41124      197.41124      197.41124     -101.4434     
   2134000   698.49967     -7172937.2      197.41124      197.41124      197.41124     -308.7315     
   2135000   700.20952     -7172780.2      197.41124      197.41124      197.41124     -304.3899     
   2136000   700.0071      -7172830.1      197.41124      197.41124      197.41124     -167.85916    
   2137000   700.16912     -7172738.3      197.41124      197.41124      197.41124     -187.7105     
   2138000   699.67696     -7172865.4      197.41124      197.41124      197.41124     -103.89926    
   2139000   699.45156     -7172872.7      197.41124      197.41124      197.41124     -250.4004     
   2140000   700.62309     -7172698.4      197.41124      197.41124      197.41124     -289.59869    
   2141000   699.83504     -7172811.3      197.41124      197.41124      197.41124     -253.87615    
   2142000   700.40655     -7172684.3      197.41124      197.41124      197.41124     -85.931757    
   2143000   698.97359     -7172833.4      197.41124      197.41124      197.41124     -311.66344    
   2144000   700.19762     -7172726.8      197.41124      197.41124      197.41124     -280.01822    
   2145000   700.23519     -7172727.9      197.41124      197.41124      197.41124     -149.64064    
   2146000   700.53458     -7172805.7      197.41124      197.41124      197.41124     -262.95686    
   2147000   701.23139     -7172648.6      197.41124      197.41124      197.41124     -9.3942507    
   2148000   699.87794     -7172856.1      197.41124      197.41124      197.41124     -307.90761    
   2149000   700.33413     -7172860.6      197.41124      197.41124      197.41124     -239.24172    
   2150000   700.75698     -7172759.1      197.41124      197.41124      197.41124     -186.5771     
   2151000   699.553       -7172791.2      197.41124      197.41124      197.41124     -271.8274     
   2152000   698.29929     -7172956.3      197.41124      197.41124      197.41124     -242.93283    
   2153000   699.24518     -7172896.8      197.41124      197.41124      197.41124     -306.0671     
   2154000   699.80687     -7172800.7      197.41124      197.41124      197.41124     -154.8278     
   2155000   699.56674     -7172858.4      197.41124      197.41124      197.41124     -306.61287    
   2156000   700.593       -7172721.9      197.41124      197.41124      197.41124     -189.47263    
   2157000   699.57771     -7172804.3      197.41124      197.41124      197.41124     -144.89998    
   2158000   698.90514     -7172847.8      197.41124      197.41124      197.41124     -169.1461     
   2159000   699.72443     -7172878        197.41124      197.41124      197.41124     -235.24914    
   2160000   700.64603     -7172826.2      197.41124      197.41124      197.41124     -186.46457    
   2161000   700.37417     -7172733.1      197.41124      197.41124      197.41124     -241.74181    
   2162000   700.17153     -7172774.4      197.41124      197.41124      197.41124     -136.248      
   2163000   698.98221     -7172830.1      197.41124      197.41124      197.41124     -245.22507    
   2164000   699.89062     -7172823.9      197.41124      197.41124      197.41124     -195.00552    
   2165000   699.5133      -7172856.2      197.41124      197.41124      197.41124     -300.29403    
   2166000   699.83814     -7172862.7      197.41124      197.41124      197.41124     -230.57484    
   2167000   699.82764     -7172814.8      197.41124      197.41124      197.41124     -214.79326    
   2168000   699.95466     -7172848.9      197.41124      197.41124      197.41124     -315.493      
   2169000   700.28744     -7172848        197.41124      197.41124      197.41124     -180.58204    
   2170000   700.14007     -7172786.6      197.41124      197.41124      197.41124     -218.585      
   2171000   699.89078     -7172808        197.41124      197.41124      197.41124     -176.98717    
   2172000   700.7793      -7172660.8      197.41124      197.41124      197.41124     -187.53937    
   2173000   698.51745     -7172861        197.41124      197.41124      197.41124     -171.86019    
   2174000   700.56569     -7172749.7      197.41124      197.41124      197.41124     -161.20205    
   2175000   699.67931     -7172837.2      197.41124      197.41124      197.41124     -161.24099    
   2176000   699.71655     -7172792.8      197.41124      197.41124      197.41124     -119.95878    
   2177000   699.80699     -7172782.1      197.41124      197.41124      197.41124     -208.41252    
   2178000   699.77452     -7172782.6      197.41124      197.41124      197.41124     -220.38106    
   2179000   700.43315     -7172723.4      197.41124      197.41124      197.41124     -234.43988    
   2180000   700.34055     -7172826.7      197.41124      197.41124      197.41124     -292.27437    
   2181000   700.23112     -7172839.2      197.41124      197.41124      197.41124     -205.40452    
   2182000   699.78355     -7172893.1      197.41124      197.41124      197.41124     -153.60588    
   2183000   698.55637     -7172859.5      197.41124      197.41124      197.41124     -241.12112    
   2184000   699.9878      -7172854.2      197.41124      197.41124      197.41124     -133.38234    
   2185000   699.62549     -7172820.1      197.41124      197.41124      197.41124     -293.79906    
   2186000   700.24522     -7172843        197.41124      197.41124      197.41124     -245.68362    
   2187000   700.4631      -7172730.8      197.41124      197.41124      197.41124     -204.38341    
   2188000   700.68369     -7172733.2      197.41124      197.41124      197.41124     -283.42453    
   2189000   700.78153     -7172824.6      197.41124      197.41124      197.41124     -272.7993     
   2190000   699.45508     -7172794.1      197.41124      197.41124      197.41124     -141.47255    
   2191000   698.72949     -7172853.1      197.41124      197.41124      197.41124     -100.319      
   2192000   700.04675     -7172825.5      197.41124      197.41124      197.41124     -361.24833    
   2193000   700.17108     -7172812.6      197.41124      197.41124      197.41124     -189.38308    
   2194000   699.49538     -7172708.2      197.41124      197.41124      197.41124     -330.47576    
   2195000   700.80332     -7172701.6      197.41124      197.41124      197.41124     -189.75663    
   2196000   700.26118     -7172774.4      197.41124      197.41124      197.41124     -136.78971    
   2197000   698.618       -7172807.8      197.41124      197.41124      197.41124     -238.49455    
   2198000   700.58632     -7172756.5      197.41124      197.41124      197.41124     -214.55999    
   2199000   699.78279     -7172831.6      197.41124      197.41124      197.41124     -167.75224    
   2200000   699.75541     -7172822        197.41124      197.41124      197.41124     -281.21069    
   2201000   699.64451     -7172835.2      197.41124      197.41124      197.41124     -109.41055    
   2202000   700.20879     -7172811.8      197.41124      197.41124      197.41124     -187.35122    
   2203000   699.84377     -7172799.2      197.41124      197.41124      197.41124     -293.16825    
   2204000   700.93191     -7172801.5      197.41124      197.41124      197.41124     -145.04778    
   2205000   699.72112     -7172842.5      197.41124      197.41124      197.41124     -165.79678    
   2206000   698.76865     -7172823.9      197.41124      197.41124      197.41124     -184.13557    
   2207000   700.18701     -7172816.7      197.41124      197.41124      197.41124     -154.92383    
   2208000   700.69653     -7172648.2      197.41124      197.41124      197.41124     -132.68374    
   2209000   699.04151     -7172905.1      197.41124      197.41124      197.41124     -303.59652    
   2210000   700.50995     -7172733.5      197.41124      197.41124      197.41124     -248.85308    
   2211000   700.69602     -7172725.1      197.41124      197.41124      197.41124     -192.47742    
   2212000   699.38125     -7172767.2      197.41124      197.41124      197.41124     -202.3987     
   2213000   699.68416     -7172880.9      197.41124      197.41124      197.41124     -140.80162    
   2214000   700.43582     -7172645.5      197.41124      197.41124      197.41124     -116.91628    
   2215000   700.28717     -7172846.5      197.41124      197.41124      197.41124     -188.75121    
   2216000   700.48909     -7172713.3      197.41124      197.41124      197.41124     -138.92489    
   2217000   700.24443     -7172743.4      197.41124      197.41124      197.41124     -48.485337    
   2218000   699.15066     -7172879.6      197.41124      197.41124      197.41124     -259.22719    
   2219000   699.07775     -7172864.2      197.41124      197.41124      197.41124     -106.73315    
   2220000   700.10289     -7172716.7      197.41124      197.41124      197.41124     -83.505164    
   2221000   699.99567     -7172784.1      197.41124      197.41124      197.41124     -133.50983    
   2222000   699.25613     -7172923.4      197.41124      197.41124      197.41124     -257.30164    
   2223000   699.85862     -7172791        197.41124      197.41124      197.41124     -87.310187    
   2224000   699.56979     -7172935.4      197.41124      197.41124      197.41124     -198.12624    
   2225000   699.23148     -7172959.3      197.41124      197.41124      197.41124     -251.71602    
   2226000   700.55017     -7172719.9      197.41124      197.41124      197.41124     -239.8732     
   2227000   699.82156     -7172880.2      197.41124      197.41124      197.41124     -282.01735    
   2228000   700.17215     -7172780.5      197.41124      197.41124      197.41124     -145.78325    
   2229000   699.74178     -7172851.7      197.41124      197.41124      197.41124     -206.72179    
   2230000   699.4056      -7172785.9      197.41124      197.41124      197.41124     -186.21709    
   2231000   700.45797     -7172651.3      197.41124      197.41124      197.41124     -54.737227    
   2232000   699.11304     -7172841.3      197.41124      197.41124      197.41124     -337.38171    
   2233000   699.2176      -7172849.9      197.41124      197.41124      197.41124     -298.81529    
   2234000   699.83774     -7172809.2      197.41124      197.41124      197.41124     -253.39006    
   2235000   699.87572     -7172753.3      197.41124      197.41124      197.41124     -232.50917    
   2236000   699.3346      -7172867        197.41124      197.41124      197.41124     -322.98662    
   2237000   698.39224     -7172909.6      197.41124      197.41124      197.41124     -64.148562    
   2238000   699.78791     -7172835.4      197.41124      197.41124      197.41124     -82.671307    
   2239000   700.84002     -7172705.4      197.41124      197.41124      197.41124     -210.08009    
   2240000   699.5709      -7172870.2      197.41124      197.41124      197.41124     -210.20661    
   2241000   700.47337     -7172864.2      197.41124      197.41124      197.41124     -251.55388    
   2242000   699.64262     -7172816        197.41124      197.41124      197.41124     -181.30881    
   2243000   698.98396     -7172908.4      197.41124      197.41124      197.41124     -291.79284    
   2244000   698.46964     -7172895.7      197.41124      197.41124      197.41124     -311.00498    
   2245000   700.50305     -7172766        197.41124      197.41124      197.41124     -205.2975     
   2246000   699.75716     -7172827.6      197.41124      197.41124      197.41124     -135.86287    
   2247000   699.30538     -7172852.3      197.41124      197.41124      197.41124     -104.08164    
   2248000   700.79704     -7172745        197.41124      197.41124      197.41124     -151.98469    
   2249000   700.62604     -7172735.2      197.41124      197.41124      197.41124     -54.487085    
   2250000   700.3444      -7172843.2      197.41124      197.41124      197.41124     -211.65279    
   2251000   700.89961     -7172716.8      197.41124      197.41124      197.41124     -87.33282     
   2252000   699.7277      -7172814.1      197.41124      197.41124      197.41124     -225.39714    
   2253000   698.57323     -7172893.3      197.41124      197.41124      197.41124     -248.59342    
   2254000   699.71279     -7172855.5      197.41124      197.41124      197.41124     -181.6082     
   2255000   701.02535     -7172765.9      197.41124      197.41124      197.41124     -294.18203    
   2256000   699.36008     -7172903        197.41124      197.41124      197.41124     -282.08753    
   2257000   701.02262     -7172682.3      197.41124      197.41124      197.41124     -225.60419    
   2258000   699.67602     -7172830        197.41124      197.41124      197.41124     -253.85063    
   2259000   700.35842     -7172803.8      197.41124      197.41124      197.41124     -180.7863     
   2260000   700.13493     -7172902.3      197.41124      197.41124      197.41124     -322.61864    
   2261000   700.21151     -7172849.9      197.41124      197.41124      197.41124     -332.78762    
   2262000   700.54218     -7172775.5      197.41124      197.41124      197.41124     -140.69391    
   2263000   699.74665     -7172820.3      197.41124      197.41124      197.41124     -75.693895    
   2264000   698.34468     -7172908.3      197.41124      197.41124      197.41124     -100.52278    
   2265000   700.76139     -7172766        197.41124      197.41124      197.41124     -344.5481     
   2266000   700.37076     -7172808.6      197.41124      197.41124      197.41124     -233.51714    
   2267000   699.54817     -7172947.5      197.41124      197.41124      197.41124     -437.2913     
   2268000   699.56789     -7172749.4      197.41124      197.41124      197.41124     -242.95709    
   2269000   699.35583     -7172880.7      197.41124      197.41124      197.41124     -236.23946    
   2270000   699.66904     -7172820.8      197.41124      197.41124      197.41124     -262.36219    
   2271000   699.74449     -7172716.3      197.41124      197.41124      197.41124     -226.22379    
   2272000   700.43593     -7172771.6      197.41124      197.41124      197.41124     -216.93187    
   2273000   698.70675     -7172938.7      197.41124      197.41124      197.41124     -345.25924    
   2274000   700.57508     -7172701.1      197.41124      197.41124      197.41124     -229.27981    
   2275000   700.53286     -7172840.1      197.41124      197.41124      197.41124     -146.97362    
   2276000   698.97308     -7172870.2      197.41124      197.41124      197.41124     -168.11014    
   2277000   700.2009      -7172744.3      197.41124      197.41124      197.41124     -109.4404     
   2278000   700.22858     -7172733.3      197.41124      197.41124      197.41124     -168.09387    
   2279000   701.25617     -7172677.2      197.41124      197.41124      197.41124     -79.53823     
   2280000   699.93052     -7172860.3      197.41124      197.41124      197.41124     -226.16822    
   2281000   699.28608     -7172838.2      197.41124      197.41124      197.41124     -240.37373    
   2282000   699.66897     -7172891        197.41124      197.41124      197.41124     -187.98998    
   2283000   701.03268     -7172752.1      197.41124      197.41124      197.41124     -214.58287    
   2284000   700.90502     -7172688.8      197.41124      197.41124      197.41124     -265.4227     
   2285000   699.93081     -7172916.5      197.41124      197.41124      197.41124     -211.70473    
   2286000   700.45419     -7172752.5      197.41124      197.41124      197.41124     -285.44889    
   2287000   699.12726     -7172875.5      197.41124      197.41124      197.41124     -175.84374    
   2288000   700.02302     -7172715.9      197.41124      197.41124      197.41124     -203.61216    
   2289000   700.17824     -7172854.9      197.41124      197.41124      197.41124     -106.33828    
   2290000   700.10405     -7172759.2      197.41124      197.41124      197.41124     -307.55829    
   2291000   699.36782     -7172820        197.41124      197.41124      197.41124     -117.6822     
   2292000   700.47798     -7172708.7      197.41124      197.41124      197.41124     -235.09266    
   2293000   700.81633     -7172692.4      197.41124      197.41124      197.41124     -187.33651    
   2294000   701.41424     -7172793.9      197.41124      197.41124      197.41124     -148.18717    
   2295000   699.98504     -7172790.1      197.41124      197.41124      197.41124     -170.00503    
   2296000   700.97836     -7172780        197.41124      197.41124      197.41124     -105.10048    
   2297000   700.15247     -7172724.9      197.41124      197.41124      197.41124     -97.449786    
   2298000   700.34324     -7172847.9      197.41124      197.41124      197.41124     -284.17726    
   2299000   700.15963     -7172649.9      197.41124      197.41124      197.41124     -144.84752    
   2300000   700.69893     -7172858.7      197.41124      197.41124      197.41124     -157.38267    
   2301000   700.98037     -7172666.6      197.41124      197.41124      197.41124     -203.51558    
   2302000   699.60261     -7172772.8      197.41124      197.41124      197.41124     -143.39535    
   2303000   699.62445     -7172792.5      197.41124      197.41124      197.41124     -166.67491    
   2304000   700.00839     -7172881.8      197.41124      197.41124      197.41124     -377.42748    
   2305000   700.51253     -7172738.7      197.41124      197.41124      197.41124     -279.22538    
   2306000   699.56345     -7172885.5      197.41124      197.41124      197.41124     -236.78759    
   2307000   699.17272     -7172891.4      197.41124      197.41124      197.41124     -275.36438    
   2308000   699.72515     -7172897        197.41124      197.41124      197.41124     -247.25295    
   2309000   699.78522     -7172811        197.41124      197.41124      197.41124     -118.58666    
   2310000   700.77503     -7172743.4      197.41124      197.41124      197.41124     -156.14605    
   2311000   699.56692     -7172841.4      197.41124      197.41124      197.41124     -126.16312    
   2312000   698.69513     -7172889.2      197.41124      197.41124      197.41124     -126.41601    
   2313000   700.65682     -7172758.4      197.41124      197.41124      197.41124     -332.26523    
   2314000   699.50407     -7172844.8      197.41124      197.41124      197.41124     -129.82394    
   2315000   699.75452     -7172759.2      197.41124      197.41124      197.41124     -149.68146    
   2316000   700.97725     -7172801.9      197.41124      197.41124      197.41124     -244.71869    
   2317000   698.54016     -7172889.3      197.41124      197.41124      197.41124     -254.34953    
   2318000   699.20087     -7172823        197.41124      197.41124      197.41124     -122.21708    
   2319000   700.09434     -7172838        197.41124      197.41124      197.41124     -87.60851     
   2320000   699.70129     -7172869.2      197.41124      197.41124      197.41124     -78.354579    
   2321000   698.61368     -7172906.9      197.41124      197.41124      197.41124     -160.93335    
   2322000   699.5505      -7172991.2      197.41124      197.41124      197.41124     -335.10679    
   2323000   699.79321     -7172809.3      197.41124      197.41124      197.41124     -149.90734    
   2324000   699.93221     -7172874.1      197.41124      197.41124      197.41124     -287.47541    
   2325000   700.43077     -7172877.3      197.41124      197.41124      197.41124     -244.35095    
   2326000   700.42277     -7172792        197.41124      197.41124      197.41124     -139.88599    
   2327000   698.97668     -7172884.1      197.41124      197.41124      197.41124     -192.34214    
   2328000   699.96237     -7172800.1      197.41124      197.41124      197.41124     -197.68847    
   2329000   700.42727     -7172760.7      197.41124      197.41124      197.41124     -72.260173    
   2330000   701.16514     -7172745        197.41124      197.41124      197.41124     -98.002005    
   2331000   701.1027      -7172745.6      197.41124      197.41124      197.41124     -214.89587    
   2332000   700.01252     -7172807.5      197.41124      197.41124      197.41124     -206.59573    
   2333000   700.84742     -7172686.1      197.41124      197.41124      197.41124     -139.39191    
   2334000   699.73642     -7172877.9      197.41124      197.41124      197.41124     -318.18107    
   2335000   699.4992      -7172813.4      197.41124      197.41124      197.41124     -281.6205     
   2336000   699.7483      -7172782.7      197.41124      197.41124      197.41124     -243.10069    
   2337000   700.61667     -7172720.8      197.41124      197.41124      197.41124     -208.05393    
   2338000   699.59563     -7172764.4      197.41124      197.41124      197.41124     -138.15081    
   2339000   699.23155     -7172719.7      197.41124      197.41124      197.41124     -202.69377    
   2340000   700.28221     -7172684.1      197.41124      197.41124      197.41124     -184.9211     
   2341000   699.66182     -7172901.5      197.41124      197.41124      197.41124     -217.70533    
   2342000   699.75475     -7172798.6      197.41124      197.41124      197.41124     -171.52143    
   2343000   700.6386      -7172702.1      197.41124      197.41124      197.41124     -279.72406    
   2344000   699.801       -7172754.5      197.41124      197.41124      197.41124     -212.06764    
   2345000   699.07135     -7172844.3      197.41124      197.41124      197.41124     -329.44032    
   2346000   700.45288     -7172755.8      197.41124      197.41124      197.41124     -199.70848    
   2347000   699.93387     -7172883.5      197.41124      197.41124      197.41124     -112.74416    
   2348000   700.31574     -7172700        197.41124      197.41124      197.41124     -235.26339    
   2349000   701.10915     -7172752.5      197.41124      197.41124      197.41124     -177.42542    
   2350000   699.58924     -7172943.5      197.41124      197.41124      197.41124     -261.74743    
   2351000   700.03214     -7172805.3      197.41124      197.41124      197.41124     -292.21929    
   2352000   699.65859     -7172930.1      197.41124      197.41124      197.41124     -151.49508    
   2353000   699.66724     -7172788.1      197.41124      197.41124      197.41124     -183.67091    
   2354000   699.65285     -7172767.7      197.41124      197.41124      197.41124     -109.18085    
   2355000   698.94124     -7172823.4      197.41124      197.41124      197.41124     -220.14604    
   2356000   699.20529     -7172904.5      197.41124      197.41124      197.41124     -217.56643    
   2357000   701.12449     -7172748.7      197.41124      197.41124      197.41124     -274.22696    
   2358000   699.7592      -7172704.2      197.41124      197.41124      197.41124     -273.77226    
   2359000   701.39961     -7172630.9      197.41124      197.41124      197.41124     -57.729495    
   2360000   699.04054     -7172807.5      197.41124      197.41124      197.41124     -151.60067    
   2361000   699.5631      -7172774.9      197.41124      197.41124      197.41124     -217.88818    
   2362000   699.38856     -7172813        197.41124      197.41124      197.41124     -248.56939    
   2363000   700.66429     -7172729.6      197.41124      197.41124      197.41124     -5.4713305    
   2364000   700.9648      -7172729.8      197.41124      197.41124      197.41124     -169.36465    
   2365000   699.72653     -7172853        197.41124      197.41124      197.41124     -236.18947    
   2366000   700.20503     -7172808.1      197.41124      197.41124      197.41124     -355.55047    
   2367000   698.80085     -7172825.2      197.41124      197.41124      197.41124     -226.9045     
   2368000   700.58341     -7172804.2      197.41124      197.41124      197.41124     -142.42763    
   2369000   700.79099     -7172668.3      197.41124      197.41124      197.41124     -81.416521    
   2370000   701.56867     -7172687.1      197.41124      197.41124      197.41124     -223.53518    
   2371000   699.57563     -7172903.9      197.41124      197.41124      197.41124     -293.57991    
   2372000   699.74053     -7172844.1      197.41124      197.41124      197.41124     -252.13846    
   2373000   699.11252     -7172899        197.41124      197.41124      197.41124     -195.51707    
   2374000   699.60037     -7172866.8      197.41124      197.41124      197.41124     -184.52853    
   2375000   700.27194     -7172847.7      197.41124      197.41124      197.41124     -321.05185    
   2376000   700.58363     -7172771.3      197.41124      197.41124      197.41124     -183.52742    
   2377000   700.3534      -7172714.4      197.41124      197.41124      197.41124     -175.92504    
   2378000   699.87714     -7172839.7      197.41124      197.41124      197.41124     -184.06265    
   2379000   700.45367     -7172833.4      197.41124      197.41124      197.41124     -274.03848    
   2380000   700.09084     -7172678.3      197.41124      197.41124      197.41124     -128.84313    
   2381000   700.87711     -7172803        197.41124      197.41124      197.41124     -136.67129    
   2382000   698.79263     -7172711.5      197.41124      197.41124      197.41124     -184.06108    
   2383000   699.28185     -7172918.9      197.41124      197.41124      197.41124     -211.48086    
   2384000   698.93883     -7172963.6      197.41124      197.41124      197.41124     -329.91428    
   2385000   699.81008     -7172822.1      197.41124      197.41124      197.41124     -169.82206    
   2386000   700.17404     -7172795.7      197.41124      197.41124      197.41124     -125.14565    
   2387000   699.85804     -7172766.7      197.41124      197.41124      197.41124     -195.23351    
   2388000   700.61761     -7172727.9      197.41124      197.41124      197.41124     -223.71521    
   2389000   700.26174     -7172761.1      197.41124      197.41124      197.41124     -186.24296    
   2390000   699.23033     -7172846.7      197.41124      197.41124      197.41124     -276.20624    
   2391000   700.31711     -7172897.7      197.41124      197.41124      197.41124     -250.82041    
   2392000   699.0983      -7172904.3      197.41124      197.41124      197.41124     -224.974      
   2393000   700.52528     -7172783.9      197.41124      197.41124      197.41124     -169.23264    
   2394000   700.13975     -7172857.6      197.41124      197.41124      197.41124     -206.57177    
   2395000   699.23712     -7172930        197.41124      197.41124      197.41124     -339.58086    
   2396000   699.9772      -7172863.5      197.41124      197.41124      197.41124     -193.75723    
   2397000   700.70709     -7172784.9      197.41124      197.41124      197.41124     -256.38426    
   2398000   700.20001     -7172776.7      197.41124      197.41124      197.41124     -181.35716    
   2399000   699.9411      -7172892.8      197.41124      197.41124      197.41124     -157.85945    
   2400000   699.79751     -7172835.8      197.41124      197.41124      197.41124     -216.45801    
   2401000   700.79688     -7172759.1      197.41124      197.41124      197.41124     -144.53243    
   2402000   699.7167      -7172932.5      197.41124      197.41124      197.41124     -256.70634    
   2403000   699.03168     -7172855        197.41124      197.41124      197.41124     -185.10221    
   2404000   700.71275     -7172775        197.41124      197.41124      197.41124     -209.9119     
   2405000   699.59034     -7172736        197.41124      197.41124      197.41124     -242.60537    
   2406000   698.60179     -7172976.3      197.41124      197.41124      197.41124     -339.72357    
   2407000   700.71555     -7172734.1      197.41124      197.41124      197.41124     -179.57983    
   2408000   699.99528     -7172777.4      197.41124      197.41124      197.41124     -180.05409    
   2409000   700.34229     -7172884.4      197.41124      197.41124      197.41124     -314.73678    
   2410000   699.77091     -7172842.9      197.41124      197.41124      197.41124     -273.65887    
   2411000   700.57046     -7172663.2      197.41124      197.41124      197.41124     -106.77362    
   2412000   700.29478     -7172724.1      197.41124      197.41124      197.41124     -231.22289    
   2413000   700.72579     -7172755.3      197.41124      197.41124      197.41124     -143.17731    
   2414000   699.01873     -7172867.9      197.41124      197.41124      197.41124     -196.49208    
   2415000   699.00623     -7172933        197.41124      197.41124      197.41124     -276.84756    
   2416000   700.29613     -7172821.1      197.41124      197.41124      197.41124     -244.13442    
   2417000   699.271       -7172916.3      197.41124      197.41124      197.41124     -232.79936    
   2418000   699.64683     -7172833.6      197.41124      197.41124      197.41124     -323.24723    
   2419000   700.93241     -7172830.8      197.41124      197.41124      197.41124     -393.67132    
   2420000   700.43566     -7172783.2      197.41124      197.41124      197.41124     -296.0165     
   2421000   700.27707     -7172865        197.41124      197.41124      197.41124     -282.66633    
   2422000   700.05882     -7172765.9      197.41124      197.41124      197.41124     -228.04133    
   2423000   700.03066     -7172809        197.41124      197.41124      197.41124     -188.69132    
   2424000   699.93937     -7172808.8      197.41124      197.41124      197.41124     -141.77458    
   2425000   698.50846     -7172878.8      197.41124      197.41124      197.41124     -212.3428     
   2426000   700.68079     -7172780.5      197.41124      197.41124      197.41124     -255.50616    
   2427000   699.99171     -7172787.8      197.41124      197.41124      197.41124     -259.22342    
   2428000   700.92378     -7172830.2      197.41124      197.41124      197.41124     -241.8545     
   2429000   700.20858     -7172844        197.41124      197.41124      197.41124     -238.90282    
   2430000   700.45986     -7172728.6      197.41124      197.41124      197.41124     -256.45346    
   2431000   699.14485     -7172765.9      197.41124      197.41124      197.41124     -243.43416    
   2432000   700.0268      -7172816.4      197.41124      197.41124      197.41124     -166.60999    
   2433000   700.35931     -7172761        197.41124      197.41124      197.41124     -234.34312    
   2434000   700.34163     -7172680.8      197.41124      197.41124      197.41124     -212.72785    
   2435000   699.84417     -7172735.2      197.41124      197.41124      197.41124     -186.20262    
   2436000   699.12378     -7172849.4      197.41124      197.41124      197.41124     -218.00043    
   2437000   700.57356     -7172754        197.41124      197.41124      197.41124     -140.79946    
   2438000   699.90676     -7172855.9      197.41124      197.41124      197.41124     -224.52806    
   2439000   698.83754     -7172882.6      197.41124      197.41124      197.41124     -97.230387    
   2440000   700.11796     -7172703.3      197.41124      197.41124      197.41124     -233.67298    
   2441000   699.78666     -7172727.7      197.41124      197.41124      197.41124     -215.74054    
   2442000   699.86711     -7172842.1      197.41124      197.41124      197.41124     -373.08359    
   2443000   699.87611     -7172842.7      197.41124      197.41124      197.41124     -246.56182    
   2444000   699.51988     -7172912.4      197.41124      197.41124      197.41124     -217.93975    
   2445000   700.76584     -7172770.9      197.41124      197.41124      197.41124     -172.02433    
   2446000   699.70034     -7172874.9      197.41124      197.41124      197.41124     -245.6884     
   2447000   700.04114     -7172785.2      197.41124      197.41124      197.41124     -128.28605    
   2448000   701.21224     -7172751.7      197.41124      197.41124      197.41124     -134.10082    
   2449000   700.24151     -7172815.2      197.41124      197.41124      197.41124     -257.2103     
   2450000   700.689       -7172635.1      197.41124      197.41124      197.41124     -210.05248    
   2451000   699.93617     -7172782.3      197.41124      197.41124      197.41124     -193.76919    
   2452000   700.45783     -7172788.8      197.41124      197.41124      197.41124     -328.69778    
   2453000   700.20872     -7172799.7      197.41124      197.41124      197.41124     -256.95672    
   2454000   699.97569     -7172890        197.41124      197.41124      197.41124     -391.40937    
   2455000   700.28141     -7172750.7      197.41124      197.41124      197.41124     -261.38831    
   2456000   700.85141     -7172772.2      197.41124      197.41124      197.41124     -252.24506    
   2457000   699.981       -7172789.1      197.41124      197.41124      197.41124     -164.38812    
   2458000   700.22864     -7172759.6      197.41124      197.41124      197.41124     -257.94591    
   2459000   699.18217     -7172814.2      197.41124      197.41124      197.41124     -176.86915    
   2460000   700.33933     -7172832.7      197.41124      197.41124      197.41124     -160.94586    
   2461000   700.2128      -7172826.3      197.41124      197.41124      197.41124     -165.01883    
   2462000   699.94214     -7172709.4      197.41124      197.41124      197.41124     -156.1822     
   2463000   700.31962     -7172767.4      197.41124      197.41124      197.41124     -232.10561    
   2464000   699.8306      -7172813.6      197.41124      197.41124      197.41124     -142.85362    
   2465000   700.50591     -7172844.8      197.41124      197.41124      197.41124     -224.23384    
   2466000   699.77268     -7172797.9      197.41124      197.41124      197.41124     -253.76885    
   2467000   699.59943     -7172798.5      197.41124      197.41124      197.41124     -194.64349    
   2468000   701.4122      -7172667.2      197.41124      197.41124      197.41124     -188.41755    
   2469000   700.09501     -7172836.6      197.41124      197.41124      197.41124     -330.77159    
   2470000   701.67346     -7172725.3      197.41124      197.41124      197.41124     -185.44695    
   2471000   699.89149     -7172780.6      197.41124      197.41124      197.41124     -126.72916    
   2472000   699.61262     -7172804.2      197.41124      197.41124      197.41124     -191.59686    
   2473000   699.45801     -7172837        197.41124      197.41124      197.41124     -313.36285    
   2474000   699.63234     -7172794.6      197.41124      197.41124      197.41124     -232.71579    
   2475000   700.60181     -7172669.6      197.41124      197.41124      197.41124     -138.2726     
   2476000   699.31918     -7172813.5      197.41124      197.41124      197.41124     -173.89659    
   2477000   700.63247     -7172789.4      197.41124      197.41124      197.41124     -348.02126    
   2478000   699.25252     -7172712.3      197.41124      197.41124      197.41124     -101.63412    
   2479000   699.61576     -7172904.4      197.41124      197.41124      197.41124     -212.74539    
   2480000   701.7816      -7172689.6      197.41124      197.41124      197.41124     -212.61061    
   2481000   699.88562     -7172950        197.41124      197.41124      197.41124     -461.56177    
   2482000   700.95861     -7172738.8      197.41124      197.41124      197.41124     -289.59698    
   2483000   699.92782     -7172845.5      197.41124      197.41124      197.41124     -264.0962     
   2484000   699.15001     -7172891.9      197.41124      197.41124      197.41124     -256.01009    
   2485000   699.97078     -7172825.2      197.41124      197.41124      197.41124     -158.43231    
   2486000   700.37678     -7172801.9      197.41124      197.41124      197.41124     -274.29292    
   2487000   700.39968     -7172754        197.41124      197.41124      197.41124     -273.62306    
   2488000   700.51719     -7172780.2      197.41124      197.41124      197.41124     -135.32479    
   2489000   700.63525     -7172849.3      197.41124      197.41124      197.41124     -344.10816    
   2490000   699.32401     -7172821.6      197.41124      197.41124      197.41124     -322.65426    
   2491000   699.86026     -7172707.3      197.41124      197.41124      197.41124     -246.549      
   2492000   699.20815     -7172810.7      197.41124      197.41124      197.41124     -195.19367    
   2493000   699.97179     -7172720.3      197.41124      197.41124      197.41124     -256.71467    
   2494000   700.5451      -7172737.8      197.41124      197.41124      197.41124     -217.36896    
   2495000   699.83529     -7172796.2      197.41124      197.41124      197.41124     -160.50793    
   2496000   700.8029      -7172804.9      197.41124      197.41124      197.41124     -365.30926    
   2497000   700.74303     -7172802.1      197.41124      197.41124      197.41124     -224.40099    
   2498000   699.19827     -7172829.6      197.41124      197.41124      197.41124     -195.38282    
   2499000   700.03664     -7172750.2      197.41124      197.41124      197.41124     -229.35307    
   2500000   700.04824     -7172796.9      197.41124      197.41124      197.41124     -420.7875     
   2501000   700.1648      -7172707.7      197.41124      197.41124      197.41124     -160.70116    
   2502000   698.42028     -7172972.4      197.41124      197.41124      197.41124     -269.96893    
   2503000   699.94889     -7172847.8      197.41124      197.41124      197.41124     -286.59976    
   2504000   699.88284     -7172823.6      197.41124      197.41124      197.41124     -194.58923    
   2505000   700.18323     -7172894.6      197.41124      197.41124      197.41124     -328.61832    
   2506000   699.00453     -7172867.7      197.41124      197.41124      197.41124     -195.82099    
   2507000   700.36457     -7172700.2      197.41124      197.41124      197.41124     -194.04534    
   2508000   699.85737     -7172805.6      197.41124      197.41124      197.41124     -130.62565    
   2509000   699.39507     -7172857.4      197.41124      197.41124      197.41124     -199.86081    
   2510000   700.54155     -7172800        197.41124      197.41124      197.41124     -187.79312    
Loop time of 132860 on 32768 procs for 2500000 steps with 632566 atoms

Performance: 3.252 ns/day, 7.381 hours/ns, 18.817 timesteps/s, 11.903 Matom-step/s
85.1% CPU use with 256 MPI tasks x 128 OpenMP threads

MPI task timing breakdown:
Section |  min time  |  avg time  |  max time  |%varavg| %total
---------------------------------------------------------------
Pair    | 61553      | 72412      | 89409      |2143.9 | 54.50
Bond    | 0.24928    | 0.42519    | 0.66651    |  11.3 |  0.00
Kspace  | 27983      | 45530      | 57510      |2853.8 | 34.27
Neigh   | 9360.4     | 10588      | 11391      | 461.9 |  7.97
Comm    | 3019.8     | 3346.9     | 3794.4     | 275.0 |  2.52
Output  | 0.42626    | 0.45897    | 0.46494    |   0.5 |  0.00
Modify  | 436.18     | 731.97     | 1183.2     | 600.0 |  0.55
Other   |            | 250.9      |            |       |  0.19

Nlocal:        2470.96 ave        2536 max        2371 min
Histogram: 1 4 3 15 48 47 62 44 24 8
Nghost:          10751 ave       10914 max       10523 min
Histogram: 7 4 9 24 37 50 53 40 21 11
Neighs:         615845 ave      648818 max      572158 min
Histogram: 2 5 13 26 39 54 54 31 24 8

Total # of neighbors = 1.5765643e+08
Ave neighs/atom = 249.23317
Ave special neighs/atom = 0
Neighbor list builds = 518552
Dangerous builds = 0
Total wall time: 37:04:35
