LAMMPS (8 Feb 2023)
WARNING: Using I/O redirection is unreliable with parallel runs. Better to use the -in switch to read input files. (src/src/lammps.cpp:531)
  using 128 OpenMP thread(s) per MPI task
Reading data file ...
  orthogonal box = (-1.2260729 -1.2260729 -1.2260729) to (196.22607 196.22607 196.22607)
  4 by 4 by 8 MPI processor grid
  reading atoms ...
  556217 atoms
  reading velocities ...
  556217 velocities
Finding 1-2 1-3 1-4 neighbors ...
  special bond factors lj:    0        0        0       
  special bond factors coul:  0        0        0       
     0 = max # of 1-2 neighbors
     0 = max # of 1-3 neighbors
     0 = max # of 1-4 neighbors
     1 = max # of special neighbors
  special bonds CPU = 0.083 seconds
  read_data CPU = 3.991 seconds
147953 atoms in group Li
284018 atoms in group O
PPPM initialization ...
  using 12-bit tables for long-range coulomb (src/src/kspace.cpp:342)
  G vector (1/distance) = 0.27668113
  grid = 135 135 135
  stencil order = 5
  estimated absolute RMS force accuracy = 0.0017580049
  estimated relative force accuracy = 0.00012208668
  using double precision MKL FFT
  3d grid and FFT values/proc = 36800 36450
Generated 0 of 10 mixed pair_coeff terms from geometric mixing rule
Neighbor list info ...
  update: every = 1 steps, delay = 0 steps, check = yes
  max neighbors/atom: 5000, page size: 100000
  master list distance cutoff = 11.5
  ghost atom cutoff = 11.5
  binsize = 5.75, bins = 35 35 35
  3 neighbor lists, perpetual/occasional/extra = 3 0 0
  (1) pair buck/coul/long, perpetual
      attributes: half, newton on
      pair build: half/bin/newton
      stencil: half/bin/3d
      bin: standard
  (2) pair lennard/mdf, perpetual, skip from (3)
      attributes: half, newton on, cut 4
      pair build: skip
      stencil: none
      bin: none
  (3) neighbor class addition, perpetual, trim from (1)
      attributes: half, newton on, cut 4
      pair build: trim
      stencil: none
      bin: none
Setting up cg style minimization ...
  Unit style    : metal
  Current step  : 0
Per MPI rank memory allocation (min/avg/max) = 227.1 | 269.3 | 300.7 Mbytes
   Step          Temp          E_pair         E_mol          TotEng         Press     
         0   699.18378     -6349093.6      0             -6298824.7     -384.20123    
       736   699.18378     -6400855.2      0             -6350586.3     -16569.717    
Loop time of 112.028 on 16384 procs for 736 steps with 556217 atoms

84.5% CPU use with 128 MPI tasks x 128 OpenMP threads

Minimization stats:
  Stopping criterion = linesearch alpha is zero
  Energy initial, next-to-last, final = 
     -6349093.63326821  -6400855.17236621  -6400855.17236621
  Force two-norm initial, final = 1091.4986 0.46215539
  Force max component initial, final = 6.8290556 0.1792948
  Final line search alpha, max atom move = 4.9961202e-08 8.9577839e-09
  Iterations, force evaluations = 736 1291

MPI task timing breakdown:
Section |  min time  |  avg time  |  max time  |%varavg| %total
---------------------------------------------------------------
Pair    | 59.983     | 74.747     | 89.17      | 123.2 | 66.72
Bond    | 0.0001871  | 0.00030416 | 0.0005091  |   0.0 |  0.00
Kspace  | 17.18      | 32.05      | 47.24      | 194.8 | 28.61
Neigh   | 1.6666     | 2.1236     | 2.5795     |  23.1 |  1.90
Comm    | 2.0539     | 2.3386     | 2.594      |   9.2 |  2.09
Output  | 0          | 0          | 0          |   0.0 |  0.00
Modify  | 0          | 0          | 0          |   0.0 |  0.00
Other   |            | 0.7687     |            |       |  0.69

Nlocal:        4345.45 ave        4978 max        3701 min
Histogram: 56 8 0 0 0 0 0 0 6 58
Nghost:        13490.6 ave       14658 max       12364 min
Histogram: 62 2 0 0 0 0 0 0 14 50
Neighs:    1.11083e+06 ave 1.35323e+06 max      871256 min
Histogram: 15 35 14 0 0 0 2 21 24 17

Total # of neighbors = 1.4218569e+08
Ave neighs/atom = 255.62989
Ave special neighs/atom = 0
Neighbor list builds = 60
Dangerous builds = 0
PPPM initialization ...
  using 12-bit tables for long-range coulomb (src/src/kspace.cpp:342)
  G vector (1/distance) = 0.27668113
  grid = 135 135 135
  stencil order = 5
  estimated absolute RMS force accuracy = 0.0017580049
  estimated relative force accuracy = 0.00012208668
  using double precision MKL FFT
  3d grid and FFT values/proc = 36800 36450
Generated 0 of 10 mixed pair_coeff terms from geometric mixing rule
Setting up Verlet run ...
  Unit style    : metal
  Current step  : 0
  Time step     : 0.002
Per MPI rank memory allocation (min/avg/max) = 225.9 | 269.2 | 298.7 Mbytes
   Step          Temp          TotEng           Lx             Ly             Lz           Press     
         0   699.18378     -6350586.3      197.45215      197.45215      197.45215     -16569.717    
      1000   698.64367     -6298860.8      197.67054      197.67054      197.67054      147.46649    
      2000   700.51003     -6298906.4      197.61317      197.61317      197.61317     -83.952683    
      3000   700.22795     -6299080        197.4115       197.4115       197.4115      -57.880108    
      4000   698.77829     -6299025.2      197.36126      197.36126      197.36126      106.84977    
      5000   699.01434     -6298833.7      197.31075      197.31075      197.31075      108.43198    
      6000   699.49479     -6298864.8      197.32192      197.32192      197.32192     -60.669835    
      7000   700.53134     -6298734.2      197.34256      197.34256      197.34256     -17.942014    
      8000   700.22266     -6298879.1      197.38163      197.38163      197.38163     -153.97488    
      9000   700.17906     -6298878.6      197.4246       197.4246       197.4246      -62.776499    
     10000   700.10531     -6298817.5      197.44115      197.44115      197.44115     -70.547353    
Loop time of 856.233 on 16384 procs for 10000 steps with 556217 atoms

Performance: 2.018 ns/day, 11.892 hours/ns, 11.679 timesteps/s, 6.496 Matom-step/s
83.2% CPU use with 128 MPI tasks x 128 OpenMP threads

MPI task timing breakdown:
Section |  min time  |  avg time  |  max time  |%varavg| %total
---------------------------------------------------------------
Pair    | 376.32     | 465.92     | 552.47     | 298.9 | 54.42
Bond    | 0.0013798  | 0.0024688  | 0.0043479  |   0.9 |  0.00
Kspace  | 138.3      | 237.68     | 339.83     | 483.5 | 27.76
Neigh   | 48.697     | 61.891     | 74.658     | 122.8 |  7.23
Comm    | 18.318     | 21.105     | 23.511     |  30.3 |  2.46
Output  | 0.0013737  | 0.0014599  | 0.0016643  |   0.1 |  0.00
Modify  | 34.286     | 39.961     | 68.886     | 106.7 |  4.67
Other   |            | 29.67      |            |       |  3.46

Nlocal:        4345.45 ave        4956 max        3731 min
Histogram: 58 6 0 0 0 0 0 0 6 58
Nghost:        13479.3 ave       14573 max       12391 min
Histogram: 62 2 0 0 0 0 0 0 6 58
Neighs:    1.10447e+06 ave 1.33285e+06 max      876834 min
Histogram: 17 34 13 0 0 0 0 20 23 21

Total # of neighbors = 1.4137264e+08
Ave neighs/atom = 254.16813
Ave special neighs/atom = 0
Neighbor list builds = 1708
Dangerous builds = 0
PPPM initialization ...
  using 12-bit tables for long-range coulomb (src/src/kspace.cpp:342)
  G vector (1/distance) = 0.27668525
  grid = 135 135 135
  stencil order = 5
  estimated absolute RMS force accuracy = 0.00175771
  estimated relative force accuracy = 0.0001220662
  using double precision MKL FFT
  3d grid and FFT values/proc = 36800 36450
Generated 0 of 10 mixed pair_coeff terms from geometric mixing rule
Setting up Verlet run ...
  Unit style    : metal
  Current step  : 0
  Time step     : 0.002
Per MPI rank memory allocation (min/avg/max) = 227.4 | 289.8 | 300.4 Mbytes
   Step          Temp          TotEng           Lx             Ly             Lz           Press     
         0   700.10531     -6298817.5      197.44115      197.44115      197.44115     -70.537024    
      1000   700.70024     -6298756.1      197.44115      197.44115      197.44115      87.259407    
      2000   699.58674     -6298872.9      197.44115      197.44115      197.44115     -58.021021    
      3000   700.10106     -6298891.4      197.44115      197.44115      197.44115      29.071688    
      4000   700.80508     -6298789.9      197.44115      197.44115      197.44115     -29.919377    
      5000   699.40794     -6298856.3      197.44115      197.44115      197.44115     -188.79904    
      6000   699.67823     -6298809.7      197.44115      197.44115      197.44115      112.46677    
      7000   698.92983     -6298934.3      197.44115      197.44115      197.44115      16.431496    
      8000   699.67232     -6298876.7      197.44115      197.44115      197.44115     -165.32102    
      9000   700.52433     -6298890.2      197.44115      197.44115      197.44115     -132.20351    
     10000   700.31729     -6298858.9      197.44115      197.44115      197.44115     -205.38079    
Loop time of 785.976 on 16384 procs for 10000 steps with 556217 atoms

Performance: 2.199 ns/day, 10.916 hours/ns, 12.723 timesteps/s, 7.077 Matom-step/s
84.2% CPU use with 128 MPI tasks x 128 OpenMP threads

MPI task timing breakdown:
Section |  min time  |  avg time  |  max time  |%varavg| %total
---------------------------------------------------------------
Pair    | 378.45     | 467.45     | 556.75     | 297.2 | 59.47
Bond    | 0.0015496  | 0.00244    | 0.0041584  |   1.0 |  0.00
Kspace  | 126.15     | 230.11     | 330.25     | 483.2 | 29.28
Neigh   | 49.21      | 62.341     | 75.019     | 121.7 |  7.93
Comm    | 18.423     | 20.638     | 23.548     |  22.7 |  2.63
Output  | 0.0014358  | 0.0015204  | 0.0017504  |   0.1 |  0.00
Modify  | 2.0774     | 3.7722     | 5.5681     |  53.3 |  0.48
Other   |            | 1.66       |            |       |  0.21

Nlocal:        4345.45 ave        4946 max        3726 min
Histogram: 55 9 0 0 0 0 0 0 4 60
Nghost:        13482.6 ave       14572 max       12377 min
Histogram: 60 4 0 0 0 0 0 0 6 58
Neighs:    1.10428e+06 ave 1.33967e+06 max      875216 min
Histogram: 18 31 15 0 0 0 2 19 26 17

Total # of neighbors = 1.4134843e+08
Ave neighs/atom = 254.12461
Ave special neighs/atom = 0
Neighbor list builds = 1699
Dangerous builds = 0
PPPM initialization ...
  using 12-bit tables for long-range coulomb (src/src/kspace.cpp:342)
  G vector (1/distance) = 0.27668525
  grid = 135 135 135
  stencil order = 5
  estimated absolute RMS force accuracy = 0.00175771
  estimated relative force accuracy = 0.0001220662
  using double precision MKL FFT
  3d grid and FFT values/proc = 36800 36450
Generated 0 of 10 mixed pair_coeff terms from geometric mixing rule
Setting up Verlet run ...
  Unit style    : metal
  Current step  : 10000
  Time step     : 0.002
Per MPI rank memory allocation (min/avg/max) = 227.8 | 290.5 | 301.2 Mbytes
   Step          Temp          TotEng           Lx             Ly             Lz           Press     
     10000   700.31729     -6298858.9      197.44115      197.44115      197.44115     -205.38079    
     11000   699.36488     -6298949.9      197.44115      197.44115      197.44115     -207.68075    
     12000   699.30707     -6298902.3      197.44115      197.44115      197.44115     -316.26132    
     13000   697.8997      -6298991.1      197.44115      197.44115      197.44115     -142.80465    
     14000   698.74218     -6298967.2      197.44115      197.44115      197.44115     -228.16797    
     15000   699.62247     -6298809.7      197.44115      197.44115      197.44115     -196.79642    
     16000   700.6163      -6298897.9      197.44115      197.44115      197.44115     -215.09929    
     17000   699.63451     -6298878.5      197.44115      197.44115      197.44115     -149.53258    
     18000   700.42292     -6298802.7      197.44115      197.44115      197.44115     -214.98758    
     19000   699.05328     -6298944.8      197.44115      197.44115      197.44115     -247.35363    
     20000   699.26061     -6298894.6      197.44115      197.44115      197.44115     -154.95098    
     21000   699.02689     -6298838.1      197.44115      197.44115      197.44115     -205.30314    
     22000   699.24435     -6298932.5      197.44115      197.44115      197.44115     -120.78744    
     23000   700.30356     -6298846        197.44115      197.44115      197.44115     -204.97854    
     24000   700.13025     -6298784.2      197.44115      197.44115      197.44115     -151.01454    
     25000   699.44761     -6298961.1      197.44115      197.44115      197.44115     -256.94652    
     26000   699.29328     -6298869        197.44115      197.44115      197.44115     -104.80999    
     27000   700.30964     -6298835.4      197.44115      197.44115      197.44115     -177.19277    
     28000   699.54836     -6298827.1      197.44115      197.44115      197.44115     -5.2549119    
     29000   700.57996     -6298829.3      197.44115      197.44115      197.44115     -88.791564    
     30000   699.26072     -6298955.9      197.44115      197.44115      197.44115     -257.05932    
     31000   700.27526     -6298795.2      197.44115      197.44115      197.44115     -150.34926    
     32000   697.65226     -6299022.7      197.44115      197.44115      197.44115     -77.015232    
     33000   699.63854     -6298863.2      197.44115      197.44115      197.44115     -60.747765    
     34000   698.97995     -6299056.1      197.44115      197.44115      197.44115     -286.29203    
     35000   699.03988     -6298890.4      197.44115      197.44115      197.44115     -144.7099     
     36000   699.46103     -6298799.2      197.44115      197.44115      197.44115     -121.9379     
     37000   700.6341      -6298811.2      197.44115      197.44115      197.44115     -123.53167    
     38000   698.76934     -6298928.2      197.44115      197.44115      197.44115     -253.74114    
     39000   699.58215     -6298909.5      197.44115      197.44115      197.44115     -120.41489    
     40000   699.61357     -6298885.7      197.44115      197.44115      197.44115     -247.84167    
     41000   700.32198     -6298776.7      197.44115      197.44115      197.44115     -128.67572    
     42000   700.16079     -6298763.1      197.44115      197.44115      197.44115     -138.66834    
     43000   699.53768     -6298919.9      197.44115      197.44115      197.44115     -182.39592    
     44000   699.95422     -6298777.1      197.44115      197.44115      197.44115     -96.353467    
     45000   699.89869     -6298841        197.44115      197.44115      197.44115     -231.65841    
     46000   699.27824     -6298881.4      197.44115      197.44115      197.44115     -194.26052    
     47000   699.72621     -6298878.9      197.44115      197.44115      197.44115     -294.05986    
     48000   700.24084     -6298694.7      197.44115      197.44115      197.44115     -91.574826    
     49000   700.1794      -6298804.6      197.44115      197.44115      197.44115     -121.45789    
     50000   700.20091     -6298790.5      197.44115      197.44115      197.44115     -186.65756    
     51000   699.25786     -6298966        197.44115      197.44115      197.44115     -56.78463     
     52000   700.73044     -6298776.9      197.44115      197.44115      197.44115     -249.00166    
     53000   700.3967      -6298777.5      197.44115      197.44115      197.44115     -75.54991     
     54000   700.28344     -6298804.2      197.44115      197.44115      197.44115     -269.7765     
     55000   699.71766     -6298740.8      197.44115      197.44115      197.44115     -141.52026    
     56000   698.84146     -6298929.4      197.44115      197.44115      197.44115     -235.80661    
     57000   700.62475     -6298886.9      197.44115      197.44115      197.44115     -275.45436    
     58000   700.26172     -6298700.2      197.44115      197.44115      197.44115     -195.37887    
     59000   699.2631      -6298991.1      197.44115      197.44115      197.44115     -77.63652     
     60000   699.13288     -6298980.1      197.44115      197.44115      197.44115     -260.48258    
     61000   700.79431     -6298903.4      197.44115      197.44115      197.44115     -184.52499    
     62000   699.55736     -6298882.1      197.44115      197.44115      197.44115     -115.62128    
     63000   701.30389     -6298851.8      197.44115      197.44115      197.44115     -360.25259    
     64000   700.45165     -6298824        197.44115      197.44115      197.44115     -136.39434    
     65000   701.91382     -6298717.5      197.44115      197.44115      197.44115     -133.29488    
     66000   699.70271     -6298770.6      197.44115      197.44115      197.44115     -81.141822    
     67000   701.50753     -6298753.8      197.44115      197.44115      197.44115     -142.10507    
     68000   699.82375     -6298831.1      197.44115      197.44115      197.44115     -195.24913    
     69000   701.02536     -6298824.6      197.44115      197.44115      197.44115     -185.03528    
     70000   699.50873     -6298830.9      197.44115      197.44115      197.44115     -156.84821    
     71000   700.09733     -6298845.3      197.44115      197.44115      197.44115     -121.45915    
     72000   699.43324     -6298828.8      197.44115      197.44115      197.44115     -182.70026    
     73000   700.84462     -6298782.2      197.44115      197.44115      197.44115     -167.43931    
     74000   701.27922     -6298641.6      197.44115      197.44115      197.44115     -130.11417    
     75000   701.20973     -6298767.9      197.44115      197.44115      197.44115     -179.80807    
     76000   701.12362     -6298727.7      197.44115      197.44115      197.44115     -148.53396    
     77000   699.88519     -6298875.5      197.44115      197.44115      197.44115     -218.091      
     78000   699.50808     -6298889.2      197.44115      197.44115      197.44115     -262.93314    
     79000   701.47205     -6298673.8      197.44115      197.44115      197.44115     -166.00945    
     80000   699.07332     -6298958.5      197.44115      197.44115      197.44115     -281.62931    
     81000   700.73019     -6298831        197.44115      197.44115      197.44115     -156.1716     
     82000   700.36353     -6298759.7      197.44115      197.44115      197.44115     -91.419977    
     83000   700.01572     -6298818.1      197.44115      197.44115      197.44115     -18.321221    
     84000   700.61306     -6298693.1      197.44115      197.44115      197.44115     -142.9505     
     85000   700.66118     -6298874.4      197.44115      197.44115      197.44115     -246.62062    
     86000   700.42982     -6298795.9      197.44115      197.44115      197.44115     -47.851864    
     87000   700.92097     -6298695        197.44115      197.44115      197.44115      2.7482935    
     88000   700.57989     -6298738.1      197.44115      197.44115      197.44115     -70.430243    
     89000   699.0758      -6298968.8      197.44115      197.44115      197.44115     -118.17497    
     90000   700.44481     -6298873.6      197.44115      197.44115      197.44115     -82.968948    
     91000   700.61902     -6298787.4      197.44115      197.44115      197.44115     -223.17822    
     92000   699.31231     -6298895.5      197.44115      197.44115      197.44115     -273.97804    
     93000   700.70539     -6298835.2      197.44115      197.44115      197.44115     -269.36692    
     94000   700.02734     -6298874.4      197.44115      197.44115      197.44115     -123.80415    
     95000   700.5895      -6298724.5      197.44115      197.44115      197.44115     -217.15398    
     96000   699.9181      -6298899        197.44115      197.44115      197.44115     -219.26371    
     97000   698.79469     -6298815.3      197.44115      197.44115      197.44115     -77.999358    
     98000   698.30423     -6299040.7      197.44115      197.44115      197.44115     -107.12838    
     99000   698.95861     -6298852.8      197.44115      197.44115      197.44115     -166.13776    
    100000   700.41331     -6298826.1      197.44115      197.44115      197.44115     -74.184074    
    101000   698.41146     -6299058.5      197.44115      197.44115      197.44115     -309.54189    
    102000   699.84582     -6298862.8      197.44115      197.44115      197.44115     -145.1582     
    103000   700.24006     -6298960.5      197.44115      197.44115      197.44115     -324.57285    
    104000   700.78133     -6298800        197.44115      197.44115      197.44115     -255.77269    
    105000   700.44545     -6298784.1      197.44115      197.44115      197.44115     -193.00347    
    106000   700.14529     -6298770.6      197.44115      197.44115      197.44115     -237.19872    
    107000   698.07168     -6299040.7      197.44115      197.44115      197.44115     -242.79036    
    108000   699.66876     -6298912.2      197.44115      197.44115      197.44115      17.893783    
    109000   699.4835      -6298885.4      197.44115      197.44115      197.44115     -158.40079    
    110000   700.41871     -6298837.6      197.44115      197.44115      197.44115     -131.48116    
    111000   699.05214     -6298808.4      197.44115      197.44115      197.44115     -55.048651    
    112000   699.48622     -6298947.5      197.44115      197.44115      197.44115     -223.06761    
    113000   699.89667     -6298850.9      197.44115      197.44115      197.44115     -130.09488    
    114000   698.66415     -6298983.7      197.44115      197.44115      197.44115     -206.00303    
    115000   698.28169     -6298982.8      197.44115      197.44115      197.44115     -214.71216    
    116000   700.1277      -6298857.7      197.44115      197.44115      197.44115     -180.98109    
    117000   699.71805     -6298887.6      197.44115      197.44115      197.44115     -148.83519    
    118000   700.44937     -6298787.6      197.44115      197.44115      197.44115     -63.616622    
    119000   699.07581     -6298899.6      197.44115      197.44115      197.44115     -72.189221    
    120000   699.63802     -6298939.6      197.44115      197.44115      197.44115     -315.36002    
    121000   699.59779     -6298889.2      197.44115      197.44115      197.44115      58.471327    
    122000   699.6106      -6298820.6      197.44115      197.44115      197.44115     -229.428      
    123000   698.8291      -6298915.3      197.44115      197.44115      197.44115     -209.46068    
    124000   699.01223     -6298977.6      197.44115      197.44115      197.44115     -363.85288    
    125000   699.60817     -6298862.1      197.44115      197.44115      197.44115     -153.18022    
    126000   701.96855     -6298637.3      197.44115      197.44115      197.44115     -84.286393    
    127000   699.94831     -6298919.7      197.44115      197.44115      197.44115     -250.51371    
    128000   700.00629     -6298882.5      197.44115      197.44115      197.44115     -142.39076    
    129000   698.9341      -6298952.9      197.44115      197.44115      197.44115     -263.08687    
    130000   700.63269     -6298736.2      197.44115      197.44115      197.44115     -116.63238    
    131000   699.34982     -6298908.7      197.44115      197.44115      197.44115     -196.98941    
    132000   701.43362     -6298778.2      197.44115      197.44115      197.44115     -41.660658    
    133000   700.68468     -6298868.8      197.44115      197.44115      197.44115     -281.16476    
    134000   700.16362     -6298821.3      197.44115      197.44115      197.44115     -124.2294     
    135000   698.9565      -6298901.1      197.44115      197.44115      197.44115     -179.52101    
    136000   700.00254     -6298800.7      197.44115      197.44115      197.44115     -117.04102    
    137000   700.21441     -6298862.7      197.44115      197.44115      197.44115     -113.48063    
    138000   700.25097     -6298862.3      197.44115      197.44115      197.44115     -205.12912    
    139000   698.52113     -6298954.1      197.44115      197.44115      197.44115     -242.88943    
    140000   699.34027     -6299008.4      197.44115      197.44115      197.44115     -203.84767    
    141000   699.33065     -6298945.9      197.44115      197.44115      197.44115     -95.583535    
    142000   701.92291     -6298734        197.44115      197.44115      197.44115     -90.359533    
    143000   699.44735     -6298988.2      197.44115      197.44115      197.44115     -418.94183    
    144000   701.42342     -6298814.8      197.44115      197.44115      197.44115     -313.12694    
    145000   700.16976     -6298828.6      197.44115      197.44115      197.44115     -230.03521    
    146000   699.18815     -6298923        197.44115      197.44115      197.44115     -293.36507    
    147000   700.75763     -6298868.6      197.44115      197.44115      197.44115     -262.5159     
    148000   700.06402     -6298854.8      197.44115      197.44115      197.44115     -223.90445    
    149000   701.14225     -6298734.3      197.44115      197.44115      197.44115     -89.778444    
    150000   699.63793     -6298843.7      197.44115      197.44115      197.44115     -14.596414    
    151000   700.06431     -6298918.5      197.44115      197.44115      197.44115     -262.51485    
    152000   700.98633     -6298820.4      197.44115      197.44115      197.44115     -106.48716    
    153000   699.78264     -6298717.9      197.44115      197.44115      197.44115     -29.455282    
    154000   700.38685     -6298810.4      197.44115      197.44115      197.44115     -129.19885    
    155000   701.00317     -6298685.6      197.44115      197.44115      197.44115     -141.37137    
    156000   699.37134     -6298870.8      197.44115      197.44115      197.44115     -177.68498    
    157000   698.56226     -6298964.2      197.44115      197.44115      197.44115     -180.61548    
    158000   700.80404     -6298851.9      197.44115      197.44115      197.44115     -260.39188    
    159000   699.30957     -6298794.8      197.44115      197.44115      197.44115     -166.38799    
    160000   700.24554     -6298856.1      197.44115      197.44115      197.44115     -211.80196    
    161000   699.87012     -6299005.4      197.44115      197.44115      197.44115     -207.73363    
    162000   699.47938     -6298840.5      197.44115      197.44115      197.44115     -214.64042    
    163000   700.72367     -6298735.2      197.44115      197.44115      197.44115     -133.45768    
    164000   698.53136     -6298931.9      197.44115      197.44115      197.44115     -243.74808    
    165000   699.57087     -6298848.8      197.44115      197.44115      197.44115     -219.39892    
    166000   698.29164     -6298969.6      197.44115      197.44115      197.44115     -214.65464    
    167000   700.42766     -6298821.8      197.44115      197.44115      197.44115     -206.47999    
    168000   700.1508      -6298747.5      197.44115      197.44115      197.44115     -140.92763    
    169000   701.43302     -6298705.6      197.44115      197.44115      197.44115     -56.822463    
    170000   699.14635     -6298876.8      197.44115      197.44115      197.44115     -229.85991    
    171000   700.00274     -6298861.1      197.44115      197.44115      197.44115     -280.188      
    172000   700.23008     -6298756.7      197.44115      197.44115      197.44115     -113.69585    
    173000   699.57312     -6298879.9      197.44115      197.44115      197.44115     -160.73215    
    174000   700.5116      -6298804.5      197.44115      197.44115      197.44115     -285.31836    
    175000   700.46607     -6298762.4      197.44115      197.44115      197.44115     -146.98168    
    176000   700.03569     -6298882.2      197.44115      197.44115      197.44115     -181.96024    
    177000   698.10915     -6299032.8      197.44115      197.44115      197.44115     -239.50096    
    178000   699.93959     -6298719.5      197.44115      197.44115      197.44115     -136.37581    
    179000   698.93508     -6298824.2      197.44115      197.44115      197.44115     -121.25584    
    180000   699.79557     -6298843.3      197.44115      197.44115      197.44115     -128.82373    
    181000   699.64299     -6298843.5      197.44115      197.44115      197.44115     -135.83785    
    182000   700.86508     -6298788.7      197.44115      197.44115      197.44115     -282.92449    
    183000   699.69849     -6298871.8      197.44115      197.44115      197.44115     -244.375      
    184000   700.08113     -6298846.2      197.44115      197.44115      197.44115     -252.9537     
    185000   699.15191     -6298927.1      197.44115      197.44115      197.44115     -214.5466     
    186000   699.73604     -6298892        197.44115      197.44115      197.44115     -244.06675    
    187000   698.96125     -6298912        197.44115      197.44115      197.44115     -272.52259    
    188000   698.2103      -6299099.2      197.44115      197.44115      197.44115     -274.62363    
    189000   698.82208     -6298965        197.44115      197.44115      197.44115     -157.28234    
    190000   700.70828     -6298799.8      197.44115      197.44115      197.44115     -98.489952    
    191000   699.69786     -6298878.2      197.44115      197.44115      197.44115     -278.51068    
    192000   700.14367     -6298905.5      197.44115      197.44115      197.44115     -139.19628    
    193000   699.0795      -6298883.3      197.44115      197.44115      197.44115     -217.37554    
    194000   700.09532     -6298893.4      197.44115      197.44115      197.44115     -222.81483    
    195000   700.78623     -6298838        197.44115      197.44115      197.44115     -145.88454    
    196000   701.27576     -6298826.4      197.44115      197.44115      197.44115     -189.34177    
    197000   699.6254      -6298830.2      197.44115      197.44115      197.44115     -132.27363    
    198000   700.51363     -6298763.5      197.44115      197.44115      197.44115     -144.99297    
    199000   700.97991     -6298811.6      197.44115      197.44115      197.44115     -238.22808    
    200000   701.12472     -6298880.3      197.44115      197.44115      197.44115     -208.80766    
    201000   698.61468     -6298930.8      197.44115      197.44115      197.44115     -65.395318    
    202000   700.67057     -6298803.8      197.44115      197.44115      197.44115     -181.84722    
    203000   701.17747     -6298752.4      197.44115      197.44115      197.44115      74.189359    
    204000   699.86445     -6298919.2      197.44115      197.44115      197.44115     -21.142486    
    205000   700.09987     -6298829.8      197.44115      197.44115      197.44115     -220.9885     
    206000   699.40073     -6298859.8      197.44115      197.44115      197.44115     -273.97244    
    207000   701.76834     -6298841        197.44115      197.44115      197.44115     -319.32597    
    208000   699.93215     -6298953.6      197.44115      197.44115      197.44115     -330.63756    
    209000   701.45657     -6298890.3      197.44115      197.44115      197.44115     -131.65355    
    210000   700.37449     -6298842.5      197.44115      197.44115      197.44115     -431.03108    
    211000   700.13973     -6298845.3      197.44115      197.44115      197.44115     -237.54048    
    212000   701.0837      -6298824        197.44115      197.44115      197.44115     -370.50764    
    213000   700.7084      -6298831.9      197.44115      197.44115      197.44115     -245.66517    
    214000   700.53386     -6298780.2      197.44115      197.44115      197.44115     -138.09967    
    215000   699.66512     -6298824.4      197.44115      197.44115      197.44115     -209.77495    
    216000   700.34429     -6299004.5      197.44115      197.44115      197.44115     -187.89164    
    217000   700.26566     -6298872.7      197.44115      197.44115      197.44115     -257.76846    
    218000   699.58276     -6298877.9      197.44115      197.44115      197.44115     -223.01854    
    219000   700.48428     -6298806.6      197.44115      197.44115      197.44115     -305.17612    
    220000   699.95625     -6298823.3      197.44115      197.44115      197.44115     -167.31444    
    221000   698.6964      -6298943.3      197.44115      197.44115      197.44115     -190.04349    
    222000   698.56612     -6299016.4      197.44115      197.44115      197.44115     -183.82099    
    223000   699.8499      -6298899.9      197.44115      197.44115      197.44115     -223.75458    
    224000   700.0281      -6298883.3      197.44115      197.44115      197.44115     -438.28698    
    225000   700.14782     -6298896.1      197.44115      197.44115      197.44115     -237.80477    
    226000   700.57501     -6298866.4      197.44115      197.44115      197.44115     -245.7574     
    227000   698.16596     -6298983.8      197.44115      197.44115      197.44115     -114.88881    
    228000   698.78012     -6298860        197.44115      197.44115      197.44115     -207.52726    
    229000   699.84634     -6298989.6      197.44115      197.44115      197.44115     -281.13157    
    230000   699.42161     -6298921        197.44115      197.44115      197.44115     -69.793621    
    231000   699.5171      -6298864.1      197.44115      197.44115      197.44115     -167.32622    
    232000   699.75022     -6298822.2      197.44115      197.44115      197.44115     -171.26332    
    233000   699.05707     -6298965        197.44115      197.44115      197.44115     -399.35126    
    234000   698.06107     -6299031.4      197.44115      197.44115      197.44115     -212.97631    
    235000   700.11639     -6298798.1      197.44115      197.44115      197.44115     -159.35509    
    236000   700.58019     -6298751.3      197.44115      197.44115      197.44115     -276.66488    
    237000   699.39967     -6298886        197.44115      197.44115      197.44115     -122.402      
    238000   698.7113      -6298978.5      197.44115      197.44115      197.44115     -199.33178    
    239000   700.1057      -6298831.4      197.44115      197.44115      197.44115     -323.6897     
    240000   698.74263     -6298989.8      197.44115      197.44115      197.44115     -274.83464    
    241000   700.15591     -6298955.3      197.44115      197.44115      197.44115     -330.33337    
    242000   699.33526     -6298957        197.44115      197.44115      197.44115     -302.92689    
    243000   699.36179     -6298892        197.44115      197.44115      197.44115      1.8296037    
    244000   699.33045     -6298933        197.44115      197.44115      197.44115     -147.95052    
    245000   699.99009     -6298889.2      197.44115      197.44115      197.44115     -311.69358    
    246000   700.94318     -6298813.5      197.44115      197.44115      197.44115     -76.683848    
    247000   699.25616     -6299004.4      197.44115      197.44115      197.44115     -191.91412    
    248000   699.99118     -6298909.4      197.44115      197.44115      197.44115     -168.48202    
    249000   699.49869     -6298907.8      197.44115      197.44115      197.44115     -250.34148    
    250000   698.95503     -6298929.2      197.44115      197.44115      197.44115     -189.07823    
    251000   700.76848     -6298770.5      197.44115      197.44115      197.44115     -107.57089    
    252000   699.87915     -6298780.7      197.44115      197.44115      197.44115     -354.10988    
    253000   700.22554     -6298776.3      197.44115      197.44115      197.44115     -169.22773    
    254000   699.70849     -6298928.7      197.44115      197.44115      197.44115     -297.30443    
    255000   700.99731     -6298795.9      197.44115      197.44115      197.44115     -138.43286    
    256000   699.14445     -6298826.4      197.44115      197.44115      197.44115     -246.69662    
    257000   699.66602     -6298843.2      197.44115      197.44115      197.44115     -151.43157    
    258000   699.60784     -6298825        197.44115      197.44115      197.44115     -155.32635    
    259000   699.60378     -6298903.7      197.44115      197.44115      197.44115     -334.75083    
    260000   700.41315     -6298892.7      197.44115      197.44115      197.44115     -286.52396    
    261000   698.6574      -6299015.2      197.44115      197.44115      197.44115     -105.05747    
    262000   700.12959     -6298808.7      197.44115      197.44115      197.44115     -285.27276    
    263000   700.16829     -6298927        197.44115      197.44115      197.44115     -316.56908    
    264000   699.85694     -6298972.3      197.44115      197.44115      197.44115     -121.29509    
    265000   701.71207     -6298747.4      197.44115      197.44115      197.44115     -40.26479     
    266000   699.01324     -6298905.8      197.44115      197.44115      197.44115     -418.14921    
    267000   699.52085     -6298917.9      197.44115      197.44115      197.44115     -201.02636    
    268000   699.82387     -6298926.6      197.44115      197.44115      197.44115     -169.48632    
    269000   699.51739     -6298985.3      197.44115      197.44115      197.44115     -161.5611     
    270000   701.44712     -6298874.5      197.44115      197.44115      197.44115     -266.74513    
    271000   700.09631     -6298844.1      197.44115      197.44115      197.44115     -10.989724    
    272000   700.6013      -6298827.3      197.44115      197.44115      197.44115     -159.40744    
    273000   699.00359     -6298947.1      197.44115      197.44115      197.44115     -192.41174    
    274000   700.35454     -6298736.6      197.44115      197.44115      197.44115     -101.47877    
    275000   699.59997     -6298979.5      197.44115      197.44115      197.44115      9.6486683    
    276000   700.85277     -6298806.2      197.44115      197.44115      197.44115     -0.2615184    
    277000   699.67002     -6298966.9      197.44115      197.44115      197.44115      16.057466    
    278000   700.41627     -6298896.6      197.44115      197.44115      197.44115     -81.654513    
    279000   698.99936     -6298899.2      197.44115      197.44115      197.44115     -105.77163    
    280000   699.62901     -6298936.7      197.44115      197.44115      197.44115     -239.63962    
    281000   699.13875     -6298960.9      197.44115      197.44115      197.44115     -277.58736    
    282000   698.96496     -6299031.4      197.44115      197.44115      197.44115     -240.7435     
    283000   699.75047     -6298953.7      197.44115      197.44115      197.44115     -306.08561    
    284000   699.69617     -6298925.2      197.44115      197.44115      197.44115     -220.74276    
    285000   698.78863     -6298967.5      197.44115      197.44115      197.44115     -92.7109      
    286000   699.52819     -6298915.9      197.44115      197.44115      197.44115     -80.888534    
    287000   700.03373     -6298855.1      197.44115      197.44115      197.44115     -215.77531    
    288000   700.43166     -6298834.8      197.44115      197.44115      197.44115     -90.932332    
    289000   699.08331     -6299010.1      197.44115      197.44115      197.44115     -301.05593    
    290000   699.49598     -6298857.7      197.44115      197.44115      197.44115     -196.92924    
    291000   700.14194     -6298830.2      197.44115      197.44115      197.44115     -146.67244    
    292000   699.60921     -6298866.8      197.44115      197.44115      197.44115     -184.67558    
    293000   700.3316      -6298861.7      197.44115      197.44115      197.44115     -252.55681    
    294000   698.69576     -6299008.1      197.44115      197.44115      197.44115     -141.35701    
    295000   700.49453     -6298766.9      197.44115      197.44115      197.44115     -225.9126     
    296000   699.54818     -6298994.5      197.44115      197.44115      197.44115     -157.28154    
    297000   700.03031     -6298822.5      197.44115      197.44115      197.44115     -222.46984    
    298000   699.06856     -6299064        197.44115      197.44115      197.44115     -208.51789    
    299000   700.73618     -6298908.4      197.44115      197.44115      197.44115     -165.90051    
    300000   700.12272     -6298881.6      197.44115      197.44115      197.44115     -62.271455    
    301000   699.47863     -6298919.7      197.44115      197.44115      197.44115     -48.486578    
    302000   700.00744     -6298847.4      197.44115      197.44115      197.44115     -156.64867    
    303000   699.96334     -6299023.5      197.44115      197.44115      197.44115     -139.61797    
    304000   700.00198     -6298901.1      197.44115      197.44115      197.44115     -233.25108    
    305000   699.79949     -6298929.5      197.44115      197.44115      197.44115     -126.8797     
    306000   700.17651     -6298798.3      197.44115      197.44115      197.44115     -247.5055     
    307000   699.58473     -6298842.1      197.44115      197.44115      197.44115     -69.392695    
    308000   699.74085     -6298874.1      197.44115      197.44115      197.44115     -78.693563    
    309000   700.99263     -6298916.5      197.44115      197.44115      197.44115     -95.445181    
    310000   700.17944     -6298780.1      197.44115      197.44115      197.44115     -164.96894    
    311000   699.59751     -6298859.3      197.44115      197.44115      197.44115     -244.57459    
    312000   700.73812     -6298871.7      197.44115      197.44115      197.44115     -225.8075     
    313000   700.14728     -6298860        197.44115      197.44115      197.44115     -319.04544    
    314000   700.99756     -6298777.6      197.44115      197.44115      197.44115     -212.92504    
    315000   699.92948     -6298835.2      197.44115      197.44115      197.44115     -187.01958    
    316000   700.21581     -6298810.9      197.44115      197.44115      197.44115     -161.4388     
    317000   701.04319     -6298956.2      197.44115      197.44115      197.44115     -243.20246    
    318000   699.97913     -6298889.1      197.44115      197.44115      197.44115     -226.22943    
    319000   700.04138     -6298902.4      197.44115      197.44115      197.44115     -271.78133    
    320000   700.46657     -6298786.1      197.44115      197.44115      197.44115     -179.74144    
    321000   700.36707     -6298742.4      197.44115      197.44115      197.44115     -133.36619    
    322000   700.34951     -6298875.3      197.44115      197.44115      197.44115     -79.197177    
    323000   699.99419     -6298946        197.44115      197.44115      197.44115     -190.8677     
    324000   699.69016     -6298975.4      197.44115      197.44115      197.44115     -127.62485    
    325000   701.45416     -6298783.3      197.44115      197.44115      197.44115     -84.483986    
    326000   701.65109     -6298794.7      197.44115      197.44115      197.44115     -247.74991    
    327000   700.95478     -6298786.2      197.44115      197.44115      197.44115     -123.60599    
    328000   700.38796     -6298814.4      197.44115      197.44115      197.44115     -46.297415    
    329000   699.52859     -6298998.6      197.44115      197.44115      197.44115     -97.375541    
    330000   699.42363     -6298979        197.44115      197.44115      197.44115     -169.93533    
    331000   699.9687      -6298846        197.44115      197.44115      197.44115     -198.05501    
    332000   700.26608     -6298976.4      197.44115      197.44115      197.44115     -167.10343    
    333000   700.74734     -6298830.6      197.44115      197.44115      197.44115     -154.34821    
    334000   700.54478     -6298882.5      197.44115      197.44115      197.44115     -51.4955      
    335000   700.49795     -6298808.8      197.44115      197.44115      197.44115     -69.604161    
    336000   700.21951     -6298948.9      197.44115      197.44115      197.44115     -289.4361     
    337000   700.41247     -6298911.6      197.44115      197.44115      197.44115     -200.90171    
    338000   700.23489     -6298965.5      197.44115      197.44115      197.44115     -59.853647    
    339000   700.23092     -6298987.3      197.44115      197.44115      197.44115     -211.354      
    340000   698.59814     -6299013.3      197.44115      197.44115      197.44115     -292.44142    
    341000   700.07642     -6298915        197.44115      197.44115      197.44115     -213.62554    
    342000   698.88528     -6299056.3      197.44115      197.44115      197.44115     -282.71353    
    343000   700.69041     -6298862.4      197.44115      197.44115      197.44115     -157.71841    
    344000   700.31751     -6298837.7      197.44115      197.44115      197.44115     -265.5717     
    345000   700.67172     -6298931.5      197.44115      197.44115      197.44115     -208.92712    
    346000   700.14214     -6298893.1      197.44115      197.44115      197.44115     -111.17293    
    347000   700.06757     -6298911.4      197.44115      197.44115      197.44115     -287.77726    
    348000   700.89423     -6298819.1      197.44115      197.44115      197.44115     -302.99963    
    349000   700.05009     -6298903.3      197.44115      197.44115      197.44115     -254.24652    
    350000   698.75934     -6299101.4      197.44115      197.44115      197.44115     -241.39124    
    351000   699.72085     -6298913.3      197.44115      197.44115      197.44115     -303.83105    
    352000   701.34221     -6298846.1      197.44115      197.44115      197.44115     -251.39358    
    353000   699.85975     -6298919.5      197.44115      197.44115      197.44115     -187.97579    
    354000   700.12281     -6298828.7      197.44115      197.44115      197.44115     -154.96592    
    355000   700.08071     -6298897.4      197.44115      197.44115      197.44115     -177.19678    
    356000   700.02716     -6298780.4      197.44115      197.44115      197.44115     -132.78054    
    357000   700.44845     -6298837.1      197.44115      197.44115      197.44115     -105.9671     
    358000   698.35819     -6298918.2      197.44115      197.44115      197.44115     -171.79159    
    359000   699.90675     -6298910.5      197.44115      197.44115      197.44115     -233.22594    
    360000   700.73801     -6298889.6      197.44115      197.44115      197.44115     -203.19357    
    361000   701.20463     -6298815.8      197.44115      197.44115      197.44115     -201.95858    
    362000   699.23909     -6298872.2      197.44115      197.44115      197.44115     -222.32449    
    363000   699.43986     -6298999.6      197.44115      197.44115      197.44115     -253.05082    
    364000   700.55583     -6298917.4      197.44115      197.44115      197.44115     -257.45798    
    365000   700.19393     -6298880.8      197.44115      197.44115      197.44115     -266.6146     
    366000   700.00063     -6298927.8      197.44115      197.44115      197.44115     -168.61845    
    367000   700.67309     -6298987.4      197.44115      197.44115      197.44115     -252.21517    
    368000   699.11272     -6298954.2      197.44115      197.44115      197.44115     -178.07077    
    369000   699.29746     -6298886.4      197.44115      197.44115      197.44115     -358.34901    
    370000   701.13856     -6298815.7      197.44115      197.44115      197.44115     -190.65061    
    371000   699.80197     -6298880.3      197.44115      197.44115      197.44115     -411.29487    
    372000   701.04337     -6298834.1      197.44115      197.44115      197.44115     -398.6916     
    373000   699.55385     -6298988.2      197.44115      197.44115      197.44115     -88.941091    
    374000   701.52336     -6298843.9      197.44115      197.44115      197.44115     -266.39861    
    375000   699.80339     -6298857.5      197.44115      197.44115      197.44115     -129.78089    
    376000   700.18644     -6298967.2      197.44115      197.44115      197.44115     -263.57385    
    377000   701.01249     -6298823.8      197.44115      197.44115      197.44115     -243.85057    
    378000   698.61062     -6299048        197.44115      197.44115      197.44115     -333.62864    
    379000   701.55591     -6298893.2      197.44115      197.44115      197.44115     -120.63847    
    380000   699.16464     -6299013.5      197.44115      197.44115      197.44115     -223.94893    
    381000   700.4819      -6298855.7      197.44115      197.44115      197.44115     -235.9545     
    382000   697.97647     -6299084.8      197.44115      197.44115      197.44115     -243.84318    
    383000   700.53089     -6298956.5      197.44115      197.44115      197.44115     -353.72122    
    384000   700.53386     -6298809.4      197.44115      197.44115      197.44115     -266.46391    
    385000   700.2707      -6298840.8      197.44115      197.44115      197.44115     -114.60001    
    386000   699.6417      -6298923.9      197.44115      197.44115      197.44115     -195.92262    
    387000   700.25944     -6298920.2      197.44115      197.44115      197.44115     -239.73669    
    388000   699.56831     -6298911.9      197.44115      197.44115      197.44115     -165.60633    
    389000   701.54067     -6298825.4      197.44115      197.44115      197.44115     -281.86655    
    390000   699.56696     -6298917.6      197.44115      197.44115      197.44115     -211.93592    
    391000   698.86455     -6298978        197.44115      197.44115      197.44115     -172.24205    
    392000   700.40142     -6298967.7      197.44115      197.44115      197.44115     -263.75742    
    393000   699.26576     -6299030.3      197.44115      197.44115      197.44115     -208.66823    
    394000   700.43775     -6298912        197.44115      197.44115      197.44115     -101.41009    
    395000   699.54815     -6298966.4      197.44115      197.44115      197.44115     -196.75443    
    396000   699.58772     -6298945.7      197.44115      197.44115      197.44115     -260.13193    
    397000   700.64813     -6298931        197.44115      197.44115      197.44115     -140.94444    
    398000   700.15462     -6298876.9      197.44115      197.44115      197.44115     -183.12837    
    399000   700.96969     -6298926        197.44115      197.44115      197.44115     -345.3036     
    400000   699.4446      -6298989.3      197.44115      197.44115      197.44115      1.8736754    
    401000   697.73455     -6299047        197.44115      197.44115      197.44115     -146.44523    
    402000   699.76808     -6298834.5      197.44115      197.44115      197.44115     -168.64006    
    403000   699.70897     -6298937.1      197.44115      197.44115      197.44115     -214.09879    
    404000   699.53731     -6298959.5      197.44115      197.44115      197.44115     -54.695334    
    405000   700.38399     -6298879.5      197.44115      197.44115      197.44115     -192.84946    
    406000   700.41502     -6298920.5      197.44115      197.44115      197.44115     -279.78451    
    407000   699.52017     -6299030.5      197.44115      197.44115      197.44115     -287.15814    
    408000   699.7402      -6298953.9      197.44115      197.44115      197.44115     -95.704483    
    409000   700.73605     -6298938.7      197.44115      197.44115      197.44115     -215.94713    
    410000   700.22502     -6298812.1      197.44115      197.44115      197.44115      82.258212    
    411000   700.0475      -6298884.8      197.44115      197.44115      197.44115     -286.98638    
    412000   699.34537     -6298936.3      197.44115      197.44115      197.44115     -301.16227    
    413000   699.28251     -6298938.4      197.44115      197.44115      197.44115     -235.15926    
    414000   701.00429     -6298786.6      197.44115      197.44115      197.44115     -337.92965    
    415000   699.88887     -6298940        197.44115      197.44115      197.44115     -191.88297    
    416000   699.08469     -6299077.3      197.44115      197.44115      197.44115     -336.00395    
    417000   700.73245     -6298841        197.44115      197.44115      197.44115     -215.07066    
    418000   699.40818     -6298896.9      197.44115      197.44115      197.44115     -165.25656    
    419000   700.56282     -6298850.8      197.44115      197.44115      197.44115     -150.00652    
    420000   699.23469     -6298873.8      197.44115      197.44115      197.44115     -189.85395    
    421000   700.9606      -6298769.1      197.44115      197.44115      197.44115     -245.91974    
    422000   700.58233     -6298821.6      197.44115      197.44115      197.44115     -357.19595    
    423000   698.74811     -6299063.6      197.44115      197.44115      197.44115     -228.1501     
    424000   700.06646     -6298921.5      197.44115      197.44115      197.44115     -209.96414    
    425000   700.49199     -6298809.5      197.44115      197.44115      197.44115     -128.48066    
    426000   700.10829     -6298897.7      197.44115      197.44115      197.44115     -222.94822    
    427000   700.50043     -6298892        197.44115      197.44115      197.44115     -229.48162    
    428000   699.58611     -6298968        197.44115      197.44115      197.44115     -153.47407    
    429000   700.20767     -6298900.9      197.44115      197.44115      197.44115     -259.96465    
    430000   698.98657     -6299065.1      197.44115      197.44115      197.44115     -108.25134    
    431000   699.92943     -6298963.5      197.44115      197.44115      197.44115     -4.3902491    
    432000   701.09647     -6298882.3      197.44115      197.44115      197.44115     -66.768237    
    433000   699.62034     -6298969.9      197.44115      197.44115      197.44115     -226.54247    
    434000   699.618       -6299015        197.44115      197.44115      197.44115     -142.94215    
    435000   700.1849      -6298964.4      197.44115      197.44115      197.44115     -240.37095    
    436000   700.81897     -6298820.2      197.44115      197.44115      197.44115     -48.825909    
    437000   701.16002     -6298800.6      197.44115      197.44115      197.44115     -159.6913     
    438000   698.36275     -6298958.9      197.44115      197.44115      197.44115     -285.17027    
    439000   700.53035     -6298960.6      197.44115      197.44115      197.44115     -170.10876    
    440000   701.52126     -6298848.1      197.44115      197.44115      197.44115     -197.01695    
    441000   701.15953     -6298863.4      197.44115      197.44115      197.44115     -272.17406    
    442000   700.57772     -6298867.1      197.44115      197.44115      197.44115     -139.82824    
    443000   699.53521     -6298981        197.44115      197.44115      197.44115     -250.59732    
    444000   700.26903     -6298925.4      197.44115      197.44115      197.44115     -244.36907    
    445000   700.51999     -6298881.9      197.44115      197.44115      197.44115     -200.58694    
    446000   700.49566     -6298989        197.44115      197.44115      197.44115     -234.56564    
    447000   700.13114     -6298921        197.44115      197.44115      197.44115     -299.76884    
    448000   699.71892     -6298915.2      197.44115      197.44115      197.44115     -169.41369    
    449000   700.10991     -6298909.1      197.44115      197.44115      197.44115     -177.26609    
    450000   700.31949     -6298850        197.44115      197.44115      197.44115     -169.31451    
    451000   700.45011     -6298874.8      197.44115      197.44115      197.44115     -329.14345    
    452000   699.37414     -6298944.6      197.44115      197.44115      197.44115     -92.267879    
    453000   700.35563     -6298885.9      197.44115      197.44115      197.44115     -254.6734     
    454000   702.01476     -6298760.9      197.44115      197.44115      197.44115     -273.36999    
    455000   699.90489     -6298937        197.44115      197.44115      197.44115     -219.00827    
    456000   699.86108     -6298864.7      197.44115      197.44115      197.44115     -170.64733    
    457000   699.61078     -6298816.1      197.44115      197.44115      197.44115     -239.15589    
    458000   700.49227     -6298891.6      197.44115      197.44115      197.44115     -106.67535    
    459000   699.14683     -6298820.1      197.44115      197.44115      197.44115     -106.70206    
    460000   699.52695     -6299008.1      197.44115      197.44115      197.44115     -221.66777    
    461000   700.03374     -6298891.7      197.44115      197.44115      197.44115     -209.37376    
    462000   700.30647     -6298883.6      197.44115      197.44115      197.44115     -257.1106     
    463000   700.32652     -6298926.5      197.44115      197.44115      197.44115     -326.3977     
    464000   700.37181     -6298908.4      197.44115      197.44115      197.44115     -71.302575    
    465000   699.28108     -6298939.5      197.44115      197.44115      197.44115     -110.1189     
    466000   701.04763     -6298829.5      197.44115      197.44115      197.44115     -273.36251    
    467000   698.51829     -6299034.8      197.44115      197.44115      197.44115     -201.80905    
    468000   700.58343     -6298887.9      197.44115      197.44115      197.44115     -211.66064    
    469000   699.96859     -6298902.6      197.44115      197.44115      197.44115     -291.23497    
    470000   699.46898     -6298948.2      197.44115      197.44115      197.44115     -315.74135    
    471000   699.52999     -6298967.6      197.44115      197.44115      197.44115     -207.94038    
    472000   700.76962     -6298872.9      197.44115      197.44115      197.44115     -173.94538    
    473000   699.69512     -6299056        197.44115      197.44115      197.44115     -229.80608    
    474000   700.14095     -6298972.4      197.44115      197.44115      197.44115     -210.82121    
    475000   700.96708     -6298944.7      197.44115      197.44115      197.44115     -279.43424    
    476000   700.38942     -6298872.6      197.44115      197.44115      197.44115     -155.3897     
    477000   699.45692     -6299015.6      197.44115      197.44115      197.44115     -411.44684    
    478000   697.37353     -6299010.1      197.44115      197.44115      197.44115     -229.6696     
    479000   700.6679      -6298841.3      197.44115      197.44115      197.44115     -272.97062    
    480000   700.66237     -6298865.1      197.44115      197.44115      197.44115     -308.97031    
    481000   700.11839     -6298893        197.44115      197.44115      197.44115     -211.75235    
    482000   699.29329     -6298892        197.44115      197.44115      197.44115     -217.40191    
    483000   701.2635      -6298799.2      197.44115      197.44115      197.44115     -231.56264    
    484000   701.09772     -6298926.2      197.44115      197.44115      197.44115     -248.23778    
    485000   701.04342     -6298843.9      197.44115      197.44115      197.44115     -143.42762    
    486000   700.29876     -6298823.4      197.44115      197.44115      197.44115     -200.24153    
    487000   700.43829     -6298872.5      197.44115      197.44115      197.44115     -260.13181    
    488000   699.27207     -6298921        197.44115      197.44115      197.44115     -291.73604    
    489000   699.84157     -6298923.1      197.44115      197.44115      197.44115     -210.53004    
    490000   699.62433     -6298984.2      197.44115      197.44115      197.44115     -249.21153    
    491000   699.85226     -6298929.4      197.44115      197.44115      197.44115     -182.14025    
    492000   701.23075     -6298897.1      197.44115      197.44115      197.44115     -227.14719    
    493000   700.40326     -6298853.4      197.44115      197.44115      197.44115     -298.43166    
    494000   701.18711     -6298784.4      197.44115      197.44115      197.44115     -289.95103    
    495000   700.76108     -6298880.9      197.44115      197.44115      197.44115     -239.64606    
    496000   699.40584     -6298987.7      197.44115      197.44115      197.44115     -264.9055     
    497000   700.97697     -6299062.5      197.44115      197.44115      197.44115     -349.53359    
    498000   700.96209     -6298810.7      197.44115      197.44115      197.44115     -270.37265    
    499000   701.97152     -6298699.9      197.44115      197.44115      197.44115     -132.25804    
    500000   700.26827     -6298936.9      197.44115      197.44115      197.44115     -211.33148    
    501000   698.8228      -6299007.1      197.44115      197.44115      197.44115     -221.3013     
    502000   699.64068     -6299011.6      197.44115      197.44115      197.44115     -244.12188    
    503000   699.52351     -6299028        197.44115      197.44115      197.44115     -256.36868    
    504000   700.60992     -6298865.9      197.44115      197.44115      197.44115     -200.26438    
    505000   699.85333     -6298873.7      197.44115      197.44115      197.44115     -222.75181    
    506000   698.89952     -6298934.8      197.44115      197.44115      197.44115     -138.71855    
    507000   699.35137     -6298918.9      197.44115      197.44115      197.44115     -229.8046     
    508000   701.78428     -6298827.9      197.44115      197.44115      197.44115     -238.48874    
    509000   700.24795     -6298981.5      197.44115      197.44115      197.44115     -178.80143    
    510000   700.68529     -6298817.1      197.44115      197.44115      197.44115     -185.32407    
    511000   699.6753      -6299018        197.44115      197.44115      197.44115     -356.34931    
    512000   700.07489     -6298837.9      197.44115      197.44115      197.44115     -198.68795    
    513000   700.22227     -6299052.2      197.44115      197.44115      197.44115     -243.76266    
    514000   698.71228     -6299048.8      197.44115      197.44115      197.44115     -132.52667    
    515000   698.47589     -6299042.1      197.44115      197.44115      197.44115     -326.23239    
    516000   699.84307     -6298915.9      197.44115      197.44115      197.44115     -283.90782    
    517000   699.50422     -6299117        197.44115      197.44115      197.44115     -384.57519    
    518000   700.34387     -6298923.4      197.44115      197.44115      197.44115     -299.93073    
    519000   699.74316     -6299097.3      197.44115      197.44115      197.44115     -192.21654    
    520000   701.12583     -6298874.1      197.44115      197.44115      197.44115     -264.44871    
    521000   699.98976     -6298922.7      197.44115      197.44115      197.44115     -89.380778    
    522000   699.56796     -6298944.2      197.44115      197.44115      197.44115     -290.84747    
    523000   700.49073     -6298913.7      197.44115      197.44115      197.44115     -189.5729     
    524000   700.60354     -6298871.9      197.44115      197.44115      197.44115     -54.810702    
    525000   699.50579     -6298975.6      197.44115      197.44115      197.44115     -175.69593    
    526000   701.3831      -6298770.7      197.44115      197.44115      197.44115     -125.6581     
    527000   699.37207     -6299085.9      197.44115      197.44115      197.44115     -169.15449    
    528000   700.80166     -6298816.1      197.44115      197.44115      197.44115     -151.85521    
    529000   700.81756     -6298820.5      197.44115      197.44115      197.44115     -157.31531    
    530000   699.30131     -6299049.5      197.44115      197.44115      197.44115     -332.74628    
    531000   700.45327     -6298864.2      197.44115      197.44115      197.44115     -168.08096    
    532000   699.88484     -6298822.9      197.44115      197.44115      197.44115     -279.74468    
    533000   699.54242     -6298908        197.44115      197.44115      197.44115     -155.36234    
    534000   701.44429     -6298720.4      197.44115      197.44115      197.44115     -113.34984    
    535000   700.99173     -6298934.7      197.44115      197.44115      197.44115     -162.76628    
    536000   699.6296      -6299049.6      197.44115      197.44115      197.44115     -306.79426    
    537000   701.26692     -6298832.6      197.44115      197.44115      197.44115     -126.62125    
    538000   700.2216      -6298823.5      197.44115      197.44115      197.44115     -193.92114    
    539000   699.86137     -6298969.7      197.44115      197.44115      197.44115     -311.58117    
    540000   699.80913     -6298965.1      197.44115      197.44115      197.44115     -150.83836    
    541000   699.74632     -6298901.8      197.44115      197.44115      197.44115     -230.26003    
    542000   699.66073     -6298941.2      197.44115      197.44115      197.44115     -249.24479    
    543000   699.26511     -6298945.1      197.44115      197.44115      197.44115     -129.13855    
    544000   700.56286     -6298966.5      197.44115      197.44115      197.44115     -301.94387    
    545000   700.24999     -6298942.7      197.44115      197.44115      197.44115     -124.17519    
    546000   700.88966     -6298876.9      197.44115      197.44115      197.44115     -331.71447    
    547000   699.7579      -6298949.6      197.44115      197.44115      197.44115     -231.34439    
    548000   699.7809      -6298905.9      197.44115      197.44115      197.44115     -61.103794    
    549000   699.56703     -6299039.1      197.44115      197.44115      197.44115     -204.734      
    550000   700.00519     -6298991.9      197.44115      197.44115      197.44115     -228.21056    
    551000   698.07373     -6299110.2      197.44115      197.44115      197.44115     -282.78368    
    552000   699.78766     -6299045.8      197.44115      197.44115      197.44115     -133.93928    
    553000   699.96445     -6298883.3      197.44115      197.44115      197.44115     -205.4653     
    554000   699.03832     -6299054.6      197.44115      197.44115      197.44115     -118.9112     
    555000   699.94089     -6298886.7      197.44115      197.44115      197.44115     -241.09751    
    556000   700.8415      -6298879.3      197.44115      197.44115      197.44115     -30.24544     
    557000   699.4715      -6298852.2      197.44115      197.44115      197.44115     -167.60557    
    558000   700.28989     -6298835.3      197.44115      197.44115      197.44115     -292.64597    
    559000   700.92931     -6298935.4      197.44115      197.44115      197.44115     -64.239611    
    560000   700.6489      -6298924.7      197.44115      197.44115      197.44115     -241.06272    
    561000   700.36454     -6298915.6      197.44115      197.44115      197.44115     -243.409      
    562000   701.23025     -6298918.1      197.44115      197.44115      197.44115     -275.7506     
    563000   700.26374     -6298913.2      197.44115      197.44115      197.44115     -133.92251    
    564000   697.98157     -6299109        197.44115      197.44115      197.44115     -170.24404    
    565000   700.84662     -6298977.7      197.44115      197.44115      197.44115     -218.39675    
    566000   700.16272     -6298872.8      197.44115      197.44115      197.44115     -178.26033    
    567000   701.7014      -6298750        197.44115      197.44115      197.44115     -78.348336    
    568000   700.90983     -6298837.9      197.44115      197.44115      197.44115     -215.63255    
    569000   701.24492     -6298834.4      197.44115      197.44115      197.44115     -308.53146    
    570000   699.58268     -6298987.7      197.44115      197.44115      197.44115     -287.09722    
    571000   702.00914     -6298789.1      197.44115      197.44115      197.44115     -143.11728    
    572000   700.2398      -6298962.9      197.44115      197.44115      197.44115     -183.47837    
    573000   700.4878      -6298851        197.44115      197.44115      197.44115     -182.10586    
    574000   697.50622     -6299127.6      197.44115      197.44115      197.44115     -210.59879    
    575000   700.08169     -6298896.3      197.44115      197.44115      197.44115     -176.40103    
    576000   701.0677      -6298965.4      197.44115      197.44115      197.44115     -239.44379    
    577000   701.67308     -6298820.3      197.44115      197.44115      197.44115     -116.3236     
    578000   701.42834     -6298798.9      197.44115      197.44115      197.44115      5.686118     
    579000   698.45828     -6299075.2      197.44115      197.44115      197.44115     -294.25097    
    580000   699.13764     -6298973.2      197.44115      197.44115      197.44115     -178.52125    
    581000   700.12431     -6298867.7      197.44115      197.44115      197.44115     -90.228127    
    582000   699.72997     -6298962.9      197.44115      197.44115      197.44115     -171.41892    
    583000   699.9687      -6298822.6      197.44115      197.44115      197.44115     -171.89966    
    584000   699.5326      -6299018        197.44115      197.44115      197.44115     -135.32599    
    585000   699.99304     -6298987.8      197.44115      197.44115      197.44115     -261.26205    
    586000   699.77508     -6298991.9      197.44115      197.44115      197.44115     -208.92172    
    587000   700.30576     -6298927.8      197.44115      197.44115      197.44115     -170.39545    
    588000   701.97499     -6298781.2      197.44115      197.44115      197.44115     -158.71669    
    589000   700.91471     -6298847.4      197.44115      197.44115      197.44115     -245.3553     
    590000   699.00218     -6299050.4      197.44115      197.44115      197.44115     -252.38649    
    591000   700.78517     -6298869.5      197.44115      197.44115      197.44115     -68.494844    
    592000   698.28428     -6298998.7      197.44115      197.44115      197.44115     -145.09549    
    593000   700.26629     -6298846.7      197.44115      197.44115      197.44115     -167.66054    
    594000   699.75252     -6298975.3      197.44115      197.44115      197.44115     -172.21632    
    595000   699.91213     -6299054.6      197.44115      197.44115      197.44115     -168.0545     
    596000   700.71536     -6298830.7      197.44115      197.44115      197.44115     -85.365735    
    597000   698.913       -6298957.5      197.44115      197.44115      197.44115     -189.55986    
    598000   700.77294     -6298810        197.44115      197.44115      197.44115     -151.86727    
    599000   698.85789     -6299055.1      197.44115      197.44115      197.44115     -283.34426    
    600000   700.24478     -6298862        197.44115      197.44115      197.44115     -29.378168    
    601000   700.16128     -6298868.4      197.44115      197.44115      197.44115     -13.714204    
    602000   700.10175     -6298853.3      197.44115      197.44115      197.44115     -178.42857    
    603000   700.0766      -6299066.9      197.44115      197.44115      197.44115     -383.72707    
    604000   700.05978     -6298956.2      197.44115      197.44115      197.44115     -208.99087    
    605000   700.85498     -6298893.5      197.44115      197.44115      197.44115     -135.85968    
    606000   700.4946      -6298971.1      197.44115      197.44115      197.44115     -243.69061    
    607000   699.32891     -6298943.6      197.44115      197.44115      197.44115     -235.87342    
    608000   700.7028      -6298820.7      197.44115      197.44115      197.44115     -163.02798    
    609000   700.20721     -6298939.7      197.44115      197.44115      197.44115     -197.36568    
    610000   700.48844     -6298974.5      197.44115      197.44115      197.44115     -204.92666    
    611000   699.31645     -6299005.1      197.44115      197.44115      197.44115     -225.24293    
    612000   701.92994     -6298756.5      197.44115      197.44115      197.44115     -109.85838    
    613000   700.00227     -6298909.3      197.44115      197.44115      197.44115     -331.54111    
    614000   699.06722     -6298905.1      197.44115      197.44115      197.44115     -222.49789    
    615000   700.07815     -6298873.2      197.44115      197.44115      197.44115     -167.48902    
    616000   699.87848     -6298965.6      197.44115      197.44115      197.44115     -202.14278    
    617000   699.97227     -6298945.3      197.44115      197.44115      197.44115     -217.25418    
    618000   699.49071     -6299065.6      197.44115      197.44115      197.44115     -232.41472    
    619000   698.9957      -6299047.1      197.44115      197.44115      197.44115     -356.84841    
    620000   699.06538     -6299023.6      197.44115      197.44115      197.44115     -134.21219    
    621000   701.111       -6298816.6      197.44115      197.44115      197.44115     -248.22238    
    622000   699.54977     -6299080.3      197.44115      197.44115      197.44115     -200.1711     
    623000   699.32084     -6298996.2      197.44115      197.44115      197.44115     -253.25472    
    624000   700.02504     -6298937.4      197.44115      197.44115      197.44115     -314.79586    
    625000   700.20787     -6298940        197.44115      197.44115      197.44115     -289.22118    
    626000   699.54088     -6298910.4      197.44115      197.44115      197.44115     -218.64705    
    627000   700.35175     -6299044.6      197.44115      197.44115      197.44115     -248.56935    
    628000   699.31108     -6298987.1      197.44115      197.44115      197.44115     -256.2245     
    629000   700.66805     -6298827.6      197.44115      197.44115      197.44115     -171.3943     
    630000   699.27569     -6298991.5      197.44115      197.44115      197.44115     -248.01587    
    631000   700.12235     -6298942.1      197.44115      197.44115      197.44115     -341.34196    
    632000   700.98901     -6298831.8      197.44115      197.44115      197.44115     -249.70732    
    633000   699.66268     -6298924.7      197.44115      197.44115      197.44115     -216.76596    
    634000   699.06037     -6299017.8      197.44115      197.44115      197.44115     -389.66232    
    635000   700.25574     -6298930.8      197.44115      197.44115      197.44115     -129.76208    
    636000   698.85615     -6299094.3      197.44115      197.44115      197.44115     -85.215109    
    637000   700.52215     -6298927.4      197.44115      197.44115      197.44115     -182.49601    
    638000   701.17756     -6298916.5      197.44115      197.44115      197.44115     -205.95758    
    639000   699.74271     -6298970.3      197.44115      197.44115      197.44115     -282.82837    
    640000   698.36303     -6299122.9      197.44115      197.44115      197.44115     -344.7601     
    641000   699.78141     -6299044.1      197.44115      197.44115      197.44115     -233.24014    
    642000   699.34045     -6298984.2      197.44115      197.44115      197.44115     -227.49056    
    643000   700.11044     -6298830.4      197.44115      197.44115      197.44115     -203.73497    
    644000   700.88814     -6298953.1      197.44115      197.44115      197.44115     -163.83092    
    645000   699.72784     -6298973.5      197.44115      197.44115      197.44115     -173.88596    
    646000   699.17315     -6299012.5      197.44115      197.44115      197.44115     -285.68419    
    647000   699.834       -6298902.6      197.44115      197.44115      197.44115     -116.64573    
    648000   698.62703     -6299043.7      197.44115      197.44115      197.44115     -240.09678    
    649000   700.00995     -6299016.9      197.44115      197.44115      197.44115     -165.43813    
    650000   700.04221     -6298966        197.44115      197.44115      197.44115     -230.1531     
    651000   700.55543     -6298865.5      197.44115      197.44115      197.44115     -231.1585     
    652000   698.99086     -6299051        197.44115      197.44115      197.44115     -289.56466    
    653000   699.62099     -6298986.7      197.44115      197.44115      197.44115     -226.91444    
    654000   700.01293     -6298907.5      197.44115      197.44115      197.44115     -169.96687    
    655000   699.2102      -6299091.3      197.44115      197.44115      197.44115     -280.60651    
    656000   700.38666     -6298876.9      197.44115      197.44115      197.44115     -192.4479     
    657000   699.05625     -6299058.6      197.44115      197.44115      197.44115     -263.64586    
    658000   701.06966     -6298915.4      197.44115      197.44115      197.44115     -301.99549    
    659000   700.25244     -6298957.7      197.44115      197.44115      197.44115     -274.28712    
    660000   699.33383     -6299036.6      197.44115      197.44115      197.44115     -130.4104     
    661000   699.17878     -6299074.7      197.44115      197.44115      197.44115     -305.8946     
    662000   700.51375     -6298934.1      197.44115      197.44115      197.44115     -132.09616    
    663000   700.32405     -6299042.3      197.44115      197.44115      197.44115     -395.45823    
    664000   700.58826     -6298836.1      197.44115      197.44115      197.44115     -117.43838    
    665000   699.79706     -6298980.4      197.44115      197.44115      197.44115     -202.90971    
    666000   700.25786     -6298975.1      197.44115      197.44115      197.44115     -172.88187    
    667000   700.35547     -6298933.9      197.44115      197.44115      197.44115     -160.38007    
    668000   700.63279     -6299002.9      197.44115      197.44115      197.44115     -289.62234    
    669000   699.59895     -6298958.4      197.44115      197.44115      197.44115     -128.61399    
    670000   701.1225      -6298839.3      197.44115      197.44115      197.44115     -171.62209    
    671000   701.03029     -6298928.4      197.44115      197.44115      197.44115     -123.85738    
    672000   700.09589     -6298930.3      197.44115      197.44115      197.44115     -182.14254    
    673000   700.71406     -6298911.3      197.44115      197.44115      197.44115     -189.10964    
    674000   699.65127     -6298878.4      197.44115      197.44115      197.44115     -101.38142    
    675000   699.52741     -6298974.4      197.44115      197.44115      197.44115     -188.75699    
    676000   700.77091     -6298919.9      197.44115      197.44115      197.44115     -213.45044    
    677000   698.65783     -6299076.7      197.44115      197.44115      197.44115     -294.60868    
    678000   700.24042     -6298950.8      197.44115      197.44115      197.44115     -113.00458    
    679000   699.36846     -6299073.1      197.44115      197.44115      197.44115     -185.56765    
    680000   700.31827     -6298975.8      197.44115      197.44115      197.44115     -287.6741     
    681000   701.05321     -6298883.9      197.44115      197.44115      197.44115     -209.28987    
    682000   699.93881     -6298973.7      197.44115      197.44115      197.44115     -248.00708    
    683000   699.37983     -6298970.1      197.44115      197.44115      197.44115     -174.81247    
    684000   698.91499     -6299012.7      197.44115      197.44115      197.44115     -323.09959    
    685000   699.93772     -6298931.8      197.44115      197.44115      197.44115     -196.98614    
    686000   699.75181     -6298971.5      197.44115      197.44115      197.44115     -169.4534     
    687000   699.27229     -6298993.5      197.44115      197.44115      197.44115      37.751206    
    688000   700.37787     -6298801.7      197.44115      197.44115      197.44115     -101.96127    
    689000   699.78238     -6299018.4      197.44115      197.44115      197.44115     -149.14455    
    690000   699.3053      -6299027        197.44115      197.44115      197.44115     -220.55815    
    691000   699.95905     -6298918.6      197.44115      197.44115      197.44115     -197.78913    
    692000   699.7065      -6299044.1      197.44115      197.44115      197.44115     -322.56831    
    693000   699.34454     -6298958.1      197.44115      197.44115      197.44115     -48.922365    
    694000   700.76433     -6298856        197.44115      197.44115      197.44115     -29.849112    
    695000   699.83835     -6298997.5      197.44115      197.44115      197.44115     -112.83569    
    696000   698.91401     -6299054.8      197.44115      197.44115      197.44115     -101.18474    
    697000   699.59979     -6298905.9      197.44115      197.44115      197.44115     -86.873199    
    698000   700.02023     -6298910.8      197.44115      197.44115      197.44115     -147.75369    
    699000   698.72191     -6299113.5      197.44115      197.44115      197.44115     -170.40802    
    700000   699.08347     -6299085.7      197.44115      197.44115      197.44115     -224.39936    
    701000   699.48347     -6298898.2      197.44115      197.44115      197.44115     -337.45665    
    702000   700.13425     -6298948.1      197.44115      197.44115      197.44115     -234.24473    
    703000   701.19846     -6298850.7      197.44115      197.44115      197.44115     -278.16165    
    704000   701.25502     -6298863.3      197.44115      197.44115      197.44115     -168.98858    
    705000   700.13196     -6298911.6      197.44115      197.44115      197.44115     -221.88627    
    706000   699.36448     -6298935.9      197.44115      197.44115      197.44115     -209.45681    
    707000   700.02495     -6298983        197.44115      197.44115      197.44115     -235.36399    
    708000   700.03729     -6298956.2      197.44115      197.44115      197.44115     -91.366912    
    709000   700.64771     -6298957.8      197.44115      197.44115      197.44115     -284.20098    
    710000   701.31771     -6298950.4      197.44115      197.44115      197.44115     -233.07674    
    711000   699.96308     -6298988.1      197.44115      197.44115      197.44115     -177.85332    
    712000   701.22495     -6298893.5      197.44115      197.44115      197.44115     -224.03285    
    713000   700.76539     -6298941.3      197.44115      197.44115      197.44115     -214.29774    
    714000   697.90488     -6299182.9      197.44115      197.44115      197.44115     -300.97088    
    715000   700.23814     -6298985.6      197.44115      197.44115      197.44115     -147.58712    
    716000   698.90429     -6299012.6      197.44115      197.44115      197.44115     -380.35023    
    717000   701.50856     -6298835.8      197.44115      197.44115      197.44115     -264.80323    
    718000   699.6482      -6298936.2      197.44115      197.44115      197.44115     -306.1633     
    719000   699.05764     -6298970.1      197.44115      197.44115      197.44115     -277.29927    
    720000   701.49663     -6298871.5      197.44115      197.44115      197.44115     -99.886682    
    721000   698.77462     -6299089.2      197.44115      197.44115      197.44115     -328.98544    
    722000   698.67279     -6299103.9      197.44115      197.44115      197.44115     -168.21998    
    723000   700.20982     -6298907.3      197.44115      197.44115      197.44115     -221.23942    
    724000   701.22967     -6298992.4      197.44115      197.44115      197.44115     -248.60338    
    725000   699.67097     -6298947.4      197.44115      197.44115      197.44115     -93.999267    
    726000   699.88244     -6298959.8      197.44115      197.44115      197.44115     -304.1214     
    727000   700.54595     -6298926        197.44115      197.44115      197.44115     -121.25888    
    728000   699.28579     -6298974.5      197.44115      197.44115      197.44115     -223.30429    
    729000   700.05302     -6298974.1      197.44115      197.44115      197.44115     -142.35036    
    730000   700.17555     -6298977.9      197.44115      197.44115      197.44115     -244.38283    
    731000   700.39052     -6298913.1      197.44115      197.44115      197.44115     -65.332399    
    732000   700.31991     -6298871.3      197.44115      197.44115      197.44115     -104.60004    
    733000   701.52139     -6298819.9      197.44115      197.44115      197.44115     -255.32357    
    734000   699.66555     -6299012.1      197.44115      197.44115      197.44115     -235.82219    
    735000   700.07205     -6299002.1      197.44115      197.44115      197.44115     -347.66174    
    736000   699.88767     -6298991.2      197.44115      197.44115      197.44115     -186.11535    
    737000   700.50995     -6298931.3      197.44115      197.44115      197.44115     -190.79579    
    738000   698.7385      -6298988.4      197.44115      197.44115      197.44115     -168.15032    
    739000   699.50224     -6299036.6      197.44115      197.44115      197.44115     -172.55049    
    740000   699.07447     -6298980.8      197.44115      197.44115      197.44115     -118.17416    
    741000   699.66789     -6298972.4      197.44115      197.44115      197.44115     -333.06038    
    742000   699.31922     -6299076.9      197.44115      197.44115      197.44115     -200.10086    
    743000   700.45001     -6298897.6      197.44115      197.44115      197.44115     -98.10945     
    744000   699.18721     -6299115.8      197.44115      197.44115      197.44115     -249.61824    
    745000   699.14494     -6299069.4      197.44115      197.44115      197.44115     -249.3135     
    746000   700.21027     -6298971.2      197.44115      197.44115      197.44115     -119.06776    
    747000   700.69011     -6298917.9      197.44115      197.44115      197.44115     -375.33067    
    748000   699.35159     -6299090        197.44115      197.44115      197.44115     -260.92693    
    749000   700.2366      -6298951.7      197.44115      197.44115      197.44115     -172.38835    
    750000   699.8543      -6299100.2      197.44115      197.44115      197.44115     -179.23386    
    751000   700.30086     -6298918.4      197.44115      197.44115      197.44115     -222.3468     
    752000   698.91696     -6299031.9      197.44115      197.44115      197.44115     -313.29832    
    753000   701.16528     -6298827.5      197.44115      197.44115      197.44115     -182.8888     
    754000   700.46799     -6298941.6      197.44115      197.44115      197.44115     -283.18729    
    755000   700.58234     -6298956.8      197.44115      197.44115      197.44115     -291.00286    
    756000   700.92957     -6299022.8      197.44115      197.44115      197.44115     -289.65586    
    757000   699.18561     -6299040.5      197.44115      197.44115      197.44115     -204.58719    
    758000   699.64565     -6298965.2      197.44115      197.44115      197.44115     -219.49527    
    759000   699.42414     -6299050.7      197.44115      197.44115      197.44115     -199.54072    
    760000   699.5455      -6299053.8      197.44115      197.44115      197.44115     -273.87946    
    761000   700.90609     -6298823.8      197.44115      197.44115      197.44115     -86.889536    
    762000   699.9274      -6298950.5      197.44115      197.44115      197.44115     -231.8818     
    763000   699.74678     -6298998.8      197.44115      197.44115      197.44115     -228.50223    
    764000   699.25756     -6298977.1      197.44115      197.44115      197.44115     -164.55828    
    765000   698.58161     -6299032.3      197.44115      197.44115      197.44115     -219.20516    
    766000   699.33775     -6299042.1      197.44115      197.44115      197.44115     -123.58805    
    767000   700.51747     -6298924.5      197.44115      197.44115      197.44115     -360.87216    
    768000   700.52551     -6298814.7      197.44115      197.44115      197.44115      4.2251053    
    769000   699.71957     -6298943        197.44115      197.44115      197.44115     -267.68697    
    770000   699.76087     -6298967.5      197.44115      197.44115      197.44115     -251.48406    
    771000   699.703       -6299004.2      197.44115      197.44115      197.44115     -104.95991    
    772000   700.09081     -6298981.6      197.44115      197.44115      197.44115     -232.50081    
    773000   701.49935     -6298861.8      197.44115      197.44115      197.44115     -286.18872    
    774000   699.72283     -6298971.5      197.44115      197.44115      197.44115     -101.88977    
    775000   699.5541      -6298957        197.44115      197.44115      197.44115     -195.69509    
    776000   700.16467     -6298942.8      197.44115      197.44115      197.44115     -181.957      
    777000   699.23449     -6299108.6      197.44115      197.44115      197.44115     -137.7858     
    778000   699.62993     -6299079.6      197.44115      197.44115      197.44115     -333.30638    
    779000   699.56558     -6298977.5      197.44115      197.44115      197.44115     -222.60484    
    780000   698.21606     -6299098.6      197.44115      197.44115      197.44115     -359.61408    
    781000   698.47942     -6299039.5      197.44115      197.44115      197.44115     -302.16906    
    782000   700.07394     -6298977.5      197.44115      197.44115      197.44115     -257.69669    
    783000   700.13895     -6298992.7      197.44115      197.44115      197.44115     -138.6154     
    784000   699.69944     -6299020        197.44115      197.44115      197.44115     -160.04692    
    785000   700.69049     -6298994.1      197.44115      197.44115      197.44115     -383.65158    
    786000   699.55669     -6298948.5      197.44115      197.44115      197.44115     -215.4954     
    787000   699.12115     -6298946.8      197.44115      197.44115      197.44115     -225.57052    
    788000   699.45468     -6299047.3      197.44115      197.44115      197.44115     -272.88384    
    789000   698.83435     -6299026.8      197.44115      197.44115      197.44115     -184.8636     
    790000   699.54054     -6298931.2      197.44115      197.44115      197.44115     -165.25967    
    791000   700.85558     -6298915.8      197.44115      197.44115      197.44115     -229.22171    
    792000   699.65669     -6298988.6      197.44115      197.44115      197.44115     -388.54943    
    793000   698.92178     -6299027.3      197.44115      197.44115      197.44115     -119.03287    
    794000   700.67598     -6298914.9      197.44115      197.44115      197.44115     -93.207041    
    795000   699.55866     -6299102.2      197.44115      197.44115      197.44115     -344.07803    
    796000   699.50275     -6299018.3      197.44115      197.44115      197.44115     -139.34071    
    797000   700.40481     -6298976.7      197.44115      197.44115      197.44115     -250.09598    
    798000   700.0268      -6298939.1      197.44115      197.44115      197.44115     -217.42739    
    799000   699.27222     -6299093        197.44115      197.44115      197.44115     -246.01395    
    800000   699.78456     -6299050.8      197.44115      197.44115      197.44115     -340.54779    
    801000   698.51725     -6299104.7      197.44115      197.44115      197.44115     -104.01405    
    802000   701.1831      -6298878.9      197.44115      197.44115      197.44115     -169.69514    
    803000   700.21368     -6298992.2      197.44115      197.44115      197.44115     -205.2711     
    804000   700.83521     -6298988.7      197.44115      197.44115      197.44115     -158.49397    
    805000   700.42484     -6298964.4      197.44115      197.44115      197.44115     -349.85863    
    806000   700.36213     -6299044        197.44115      197.44115      197.44115     -148.32809    
    807000   700.7053      -6298908        197.44115      197.44115      197.44115     -135.22708    
    808000   700.37084     -6299006.3      197.44115      197.44115      197.44115     -197.35711    
    809000   701.37999     -6298953.5      197.44115      197.44115      197.44115     -116.15758    
    810000   699.44932     -6298964.7      197.44115      197.44115      197.44115     -31.921315    
    811000   699.68017     -6298985.2      197.44115      197.44115      197.44115     -96.875468    
    812000   699.40368     -6299005.8      197.44115      197.44115      197.44115     -136.64749    
    813000   699.40052     -6299004.4      197.44115      197.44115      197.44115     -196.92417    
    814000   699.52376     -6298975        197.44115      197.44115      197.44115     -210.42746    
    815000   700.35307     -6299026.9      197.44115      197.44115      197.44115     -184.9214     
    816000   699.12659     -6299050.9      197.44115      197.44115      197.44115     -189.77413    
    817000   701.2219      -6298864        197.44115      197.44115      197.44115     -57.987741    
    818000   701.0771      -6298959.6      197.44115      197.44115      197.44115     -80.22164     
    819000   699.53017     -6299020.9      197.44115      197.44115      197.44115     -139.61261    
    820000   698.75643     -6299074.6      197.44115      197.44115      197.44115     -195.41086    
    821000   699.75435     -6299062.1      197.44115      197.44115      197.44115     -176.56257    
    822000   700.18049     -6299074.6      197.44115      197.44115      197.44115     -213.88214    
    823000   700.10147     -6298932.9      197.44115      197.44115      197.44115     -89.328853    
    824000   698.84267     -6299099.7      197.44115      197.44115      197.44115     -67.822788    
    825000   700.90356     -6298933        197.44115      197.44115      197.44115     -269.27242    
    826000   700.47484     -6298947.8      197.44115      197.44115      197.44115     -261.64855    
    827000   699.62828     -6298985.8      197.44115      197.44115      197.44115     -339.44853    
    828000   699.29747     -6298986.2      197.44115      197.44115      197.44115     -275.93928    
    829000   700.25273     -6298901.3      197.44115      197.44115      197.44115     -347.92636    
    830000   699.79153     -6299086.9      197.44115      197.44115      197.44115     -274.90732    
    831000   699.94779     -6298983.3      197.44115      197.44115      197.44115     -272.51996    
    832000   701.32161     -6298969.6      197.44115      197.44115      197.44115     -282.47085    
    833000   700.95642     -6298912.9      197.44115      197.44115      197.44115     -317.4743     
    834000   699.08411     -6298942.5      197.44115      197.44115      197.44115     -219.24245    
    835000   699.14504     -6299199.4      197.44115      197.44115      197.44115     -260.04442    
    836000   700.20341     -6298955.9      197.44115      197.44115      197.44115     -190.02221    
    837000   699.83342     -6299009.6      197.44115      197.44115      197.44115     -187.96027    
    838000   701.25098     -6298828        197.44115      197.44115      197.44115     -306.64184    
    839000   699.93701     -6298993.2      197.44115      197.44115      197.44115     -239.76501    
    840000   699.6206      -6299083.7      197.44115      197.44115      197.44115     -184.39752    
    841000   699.11094     -6299057.7      197.44115      197.44115      197.44115     -183.48674    
    842000   699.27009     -6299073.6      197.44115      197.44115      197.44115      15.144851    
    843000   699.96496     -6299094.9      197.44115      197.44115      197.44115     -231.09302    
    844000   700.31811     -6299010.4      197.44115      197.44115      197.44115     -150.05897    
    845000   699.7614      -6299072.4      197.44115      197.44115      197.44115     -180.80661    
    846000   700.72896     -6298879.3      197.44115      197.44115      197.44115     -313.19642    
    847000   700.26944     -6298987.9      197.44115      197.44115      197.44115     -227.60265    
    848000   699.43315     -6298977.2      197.44115      197.44115      197.44115     -294.40639    
    849000   700.85514     -6298887        197.44115      197.44115      197.44115     -260.41856    
    850000   699.6886      -6299111.9      197.44115      197.44115      197.44115     -344.43639    
    851000   699.99813     -6298983.4      197.44115      197.44115      197.44115     -156.56472    
    852000   699.73783     -6298970.8      197.44115      197.44115      197.44115     -207.50979    
    853000   701.10406     -6298856.7      197.44115      197.44115      197.44115     -231.61204    
    854000   700.00209     -6299058.2      197.44115      197.44115      197.44115     -319.66195    
    855000   700.98717     -6299007.5      197.44115      197.44115      197.44115     -318.44582    
    856000   700.76549     -6298946.4      197.44115      197.44115      197.44115     -263.57856    
    857000   700.17923     -6299004.4      197.44115      197.44115      197.44115     -199.1313     
    858000   700.93563     -6298907.2      197.44115      197.44115      197.44115     -212.87734    
    859000   700.84936     -6298975.7      197.44115      197.44115      197.44115     -329.16604    
    860000   701.0403      -6298886.5      197.44115      197.44115      197.44115     -189.73964    
    861000   700.88731     -6298880        197.44115      197.44115      197.44115     -282.37718    
    862000   700.60898     -6298922.8      197.44115      197.44115      197.44115     -315.91169    
    863000   698.17016     -6299096.8      197.44115      197.44115      197.44115     -189.56663    
    864000   699.86252     -6299079.1      197.44115      197.44115      197.44115     -250.51215    
    865000   699.03826     -6299144.8      197.44115      197.44115      197.44115     -235.59595    
    866000   698.31388     -6299069.4      197.44115      197.44115      197.44115     -122.50834    
    867000   699.67115     -6298927.7      197.44115      197.44115      197.44115     -238.92023    
    868000   701.56567     -6298958.4      197.44115      197.44115      197.44115     -203.52955    
    869000   699.33886     -6299117.4      197.44115      197.44115      197.44115     -262.80252    
    870000   699.9309      -6299073.4      197.44115      197.44115      197.44115     -287.27047    
    871000   699.54437     -6298954.3      197.44115      197.44115      197.44115     -155.63545    
    872000   700.15715     -6298980.3      197.44115      197.44115      197.44115     -288.52319    
    873000   699.58753     -6298957.4      197.44115      197.44115      197.44115     -267.92198    
    874000   699.06086     -6299009.4      197.44115      197.44115      197.44115     -219.92107    
    875000   699.6577      -6298964.7      197.44115      197.44115      197.44115     -338.32464    
    876000   700.06041     -6299003.5      197.44115      197.44115      197.44115     -140.18641    
    877000   699.76529     -6299010.5      197.44115      197.44115      197.44115     -270.07552    
    878000   699.58184     -6299001.5      197.44115      197.44115      197.44115     -209.85562    
    879000   700.19202     -6298886        197.44115      197.44115      197.44115     -242.43995    
    880000   701.10183     -6298870.6      197.44115      197.44115      197.44115     -442.56985    
    881000   699.07663     -6299048.5      197.44115      197.44115      197.44115     -349.8835     
    882000   698.99681     -6299068.2      197.44115      197.44115      197.44115     -322.33518    
    883000   699.39808     -6299160.9      197.44115      197.44115      197.44115     -533.80079    
    884000   700.43941     -6298950.2      197.44115      197.44115      197.44115     -287.52497    
    885000   700.13226     -6298890.7      197.44115      197.44115      197.44115     -249.18232    
    886000   700.77943     -6298916.6      197.44115      197.44115      197.44115     -360.69584    
    887000   699.23338     -6299022.3      197.44115      197.44115      197.44115     -332.52133    
    888000   698.5717      -6299065.7      197.44115      197.44115      197.44115     -161.19399    
    889000   699.39136     -6299013.9      197.44115      197.44115      197.44115     -248.88302    
    890000   700.16202     -6298910.3      197.44115      197.44115      197.44115     -163.82479    
    891000   699.75744     -6298999        197.44115      197.44115      197.44115     -490.49633    
    892000   700.10858     -6298952        197.44115      197.44115      197.44115     -393.29456    
    893000   699.45088     -6299034.6      197.44115      197.44115      197.44115     -250.26901    
    894000   699.6246      -6298991.1      197.44115      197.44115      197.44115     -293.53738    
    895000   700.03785     -6298989.9      197.44115      197.44115      197.44115     -260.40439    
    896000   699.86708     -6298950.8      197.44115      197.44115      197.44115     -301.42201    
    897000   699.86094     -6299081.7      197.44115      197.44115      197.44115     -229.54238    
    898000   700.38942     -6299028.9      197.44115      197.44115      197.44115     -319.39077    
    899000   700.23667     -6298896        197.44115      197.44115      197.44115     -279.58859    
    900000   700.54469     -6299010        197.44115      197.44115      197.44115     -237.14783    
    901000   699.73237     -6299062.7      197.44115      197.44115      197.44115     -203.25542    
    902000   699.9282      -6298987.6      197.44115      197.44115      197.44115     -209.35654    
    903000   700.53951     -6298963        197.44115      197.44115      197.44115     -111.08468    
    904000   701.74659     -6298836.9      197.44115      197.44115      197.44115     -175.41879    
    905000   700.69495     -6298978.4      197.44115      197.44115      197.44115     -28.055553    
    906000   699.59843     -6299046.2      197.44115      197.44115      197.44115     -162.4044     
    907000   700.988       -6298886.8      197.44115      197.44115      197.44115     -151.97042    
    908000   699.19142     -6299093.9      197.44115      197.44115      197.44115     -157.56383    
    909000   698.52617     -6299027        197.44115      197.44115      197.44115     -198.36319    
    910000   700.23262     -6299062.9      197.44115      197.44115      197.44115     -127.2944     
    911000   698.88985     -6299165.7      197.44115      197.44115      197.44115     -245.77622    
    912000   698.94031     -6299066        197.44115      197.44115      197.44115     -187.87202    
    913000   700.03311     -6298959.2      197.44115      197.44115      197.44115     -323.2726     
    914000   699.42316     -6299112.4      197.44115      197.44115      197.44115     -296.61748    
    915000   699.58444     -6299030.4      197.44115      197.44115      197.44115     -210.24219    
    916000   700.48518     -6298877.3      197.44115      197.44115      197.44115     -338.61064    
    917000   699.26996     -6298961.8      197.44115      197.44115      197.44115     -321.56995    
    918000   700.02721     -6298911.9      197.44115      197.44115      197.44115     -293.71907    
    919000   700.04208     -6298912.9      197.44115      197.44115      197.44115     -137.58319    
    920000   699.72173     -6299064.3      197.44115      197.44115      197.44115     -339.20716    
    921000   699.68485     -6299098        197.44115      197.44115      197.44115     -451.64599    
    922000   700.35034     -6299039.9      197.44115      197.44115      197.44115     -192.40356    
    923000   698.98247     -6299120.9      197.44115      197.44115      197.44115     -279.83044    
    924000   698.46761     -6299070.9      197.44115      197.44115      197.44115     -219.44765    
    925000   699.68784     -6299047.8      197.44115      197.44115      197.44115     -313.99504    
    926000   699.519       -6299005.3      197.44115      197.44115      197.44115     -249.66543    
    927000   700.00826     -6299074.3      197.44115      197.44115      197.44115     -273.6479     
    928000   699.13957     -6299047.6      197.44115      197.44115      197.44115     -55.978013    
    929000   699.16908     -6299025.6      197.44115      197.44115      197.44115     -175.36356    
    930000   698.74365     -6299055.9      197.44115      197.44115      197.44115     -62.517219    
    931000   699.69287     -6299058.2      197.44115      197.44115      197.44115     -225.0392     
    932000   701.40361     -6298887.4      197.44115      197.44115      197.44115     -168.33821    
    933000   698.51468     -6299133.7      197.44115      197.44115      197.44115     -288.23166    
    934000   700.09058     -6298994.5      197.44115      197.44115      197.44115     -161.01524    
    935000   700.23342     -6299042.2      197.44115      197.44115      197.44115     -310.71231    
    936000   699.39987     -6299086.2      197.44115      197.44115      197.44115     -318.89898    
    937000   700.10875     -6298899.6      197.44115      197.44115      197.44115     -204.71773    
    938000   699.6985      -6299013.5      197.44115      197.44115      197.44115     -330.36627    
    939000   698.87717     -6299042.9      197.44115      197.44115      197.44115     -175.3752     
    940000   699.93641     -6299016.8      197.44115      197.44115      197.44115     -166.19875    
    941000   700.85409     -6298884.4      197.44115      197.44115      197.44115     -132.82034    
    942000   700.71204     -6298950.9      197.44115      197.44115      197.44115     -203.8418     
    943000   699.11456     -6299082.4      197.44115      197.44115      197.44115     -197.43898    
    944000   698.2344      -6299088.1      197.44115      197.44115      197.44115     -208.80214    
    945000   700.11049     -6299059.7      197.44115      197.44115      197.44115     -399.94925    
    946000   699.11169     -6299008        197.44115      197.44115      197.44115     -181.25973    
    947000   700.43566     -6299044.9      197.44115      197.44115      197.44115     -110.56898    
    948000   699.75757     -6298952.8      197.44115      197.44115      197.44115     -141.85773    
    949000   699.67533     -6298974.4      197.44115      197.44115      197.44115     -147.17689    
    950000   699.45638     -6299070.3      197.44115      197.44115      197.44115     -263.35599    
    951000   700.0917      -6298838.4      197.44115      197.44115      197.44115     -295.21276    
    952000   699.8422      -6299005.7      197.44115      197.44115      197.44115     -325.86685    
    953000   700.21629     -6298985.4      197.44115      197.44115      197.44115     -284.66739    
    954000   699.8218      -6298959        197.44115      197.44115      197.44115     -304.22671    
    955000   701.06579     -6298886.6      197.44115      197.44115      197.44115     -195.29305    
    956000   700.506       -6298996        197.44115      197.44115      197.44115     -306.48952    
    957000   700.47194     -6298954.8      197.44115      197.44115      197.44115     -297.98318    
    958000   700.83189     -6299013.6      197.44115      197.44115      197.44115     -248.79919    
    959000   700.59399     -6298959.5      197.44115      197.44115      197.44115     -261.19928    
    960000   700.78955     -6299008.2      197.44115      197.44115      197.44115     -231.74079    
    961000   700.9721      -6298919        197.44115      197.44115      197.44115     -408.59624    
    962000   700.85101     -6298947.9      197.44115      197.44115      197.44115     -205.2002     
    963000   698.74548     -6299117.4      197.44115      197.44115      197.44115     -287.67754    
    964000   698.9027      -6299027.9      197.44115      197.44115      197.44115     -274.61079    
    965000   701.34016     -6299035.2      197.44115      197.44115      197.44115     -220.87778    
    966000   700.87671     -6298911.2      197.44115      197.44115      197.44115     -347.58422    
    967000   700.20103     -6298993.7      197.44115      197.44115      197.44115     -329.61956    
    968000   699.94184     -6299065.9      197.44115      197.44115      197.44115     -225.09283    
    969000   700.76217     -6298919.9      197.44115      197.44115      197.44115     -333.80529    
    970000   700.64517     -6299022        197.44115      197.44115      197.44115     -282.90765    
    971000   699.50224     -6299022.4      197.44115      197.44115      197.44115     -245.01515    
    972000   698.99882     -6299056.4      197.44115      197.44115      197.44115     -222.59967    
    973000   700.19541     -6298939.8      197.44115      197.44115      197.44115     -192.77637    
    974000   700.80097     -6298996.5      197.44115      197.44115      197.44115     -201.5888     
    975000   700.36932     -6298992.2      197.44115      197.44115      197.44115     -300.49816    
    976000   700.41638     -6299021.5      197.44115      197.44115      197.44115     -147.11047    
    977000   700.34801     -6298962.6      197.44115      197.44115      197.44115     -309.1257     
    978000   698.5728      -6299048.7      197.44115      197.44115      197.44115     -230.3265     
    979000   699.68408     -6299105.2      197.44115      197.44115      197.44115     -162.01691    
    980000   699.82207     -6298983.8      197.44115      197.44115      197.44115     -177.13532    
    981000   700.4188      -6299004.7      197.44115      197.44115      197.44115     -229.55529    
    982000   699.99653     -6299019.5      197.44115      197.44115      197.44115     -249.82309    
    983000   700.22621     -6298972.7      197.44115      197.44115      197.44115     -298.62372    
    984000   700.79241     -6298911.2      197.44115      197.44115      197.44115     -238.90252    
    985000   701.57624     -6298828.1      197.44115      197.44115      197.44115     -173.82475    
    986000   699.8042      -6299053.3      197.44115      197.44115      197.44115     -272.88436    
    987000   699.78873     -6299056.3      197.44115      197.44115      197.44115     -224.80097    
    988000   699.23839     -6299156.1      197.44115      197.44115      197.44115     -353.25243    
    989000   698.7512      -6299167.6      197.44115      197.44115      197.44115     -366.06639    
    990000   698.73413     -6299134.7      197.44115      197.44115      197.44115     -315.03722    
    991000   701.76334     -6298936.8      197.44115      197.44115      197.44115     -296.48331    
    992000   699.25413     -6299070.4      197.44115      197.44115      197.44115     -220.46098    
    993000   700.53028     -6298963        197.44115      197.44115      197.44115     -229.40542    
    994000   699.98961     -6299124.7      197.44115      197.44115      197.44115     -189.24448    
    995000   700.94052     -6298996.4      197.44115      197.44115      197.44115     -312.60246    
    996000   698.57457     -6299094.5      197.44115      197.44115      197.44115     -185.58965    
    997000   700.68538     -6298969.3      197.44115      197.44115      197.44115     -247.79156    
    998000   700.12492     -6298985.7      197.44115      197.44115      197.44115     -362.98957    
    999000   699.15631     -6299102.5      197.44115      197.44115      197.44115     -264.41135    
   1000000   697.55667     -6299198        197.44115      197.44115      197.44115     -187.33467    
   1001000   698.96185     -6299059.3      197.44115      197.44115      197.44115     -148.93716    
   1002000   699.44735     -6299010.6      197.44115      197.44115      197.44115     -161.09007    
   1003000   700.60638     -6299001.2      197.44115      197.44115      197.44115     -225.09827    
   1004000   698.91741     -6299051.6      197.44115      197.44115      197.44115     -346.65833    
   1005000   701.11362     -6298928.3      197.44115      197.44115      197.44115     -162.412      
   1006000   701.45123     -6298881.8      197.44115      197.44115      197.44115     -275.00238    
   1007000   699.31045     -6299064.3      197.44115      197.44115      197.44115     -237.90252    
   1008000   699.43711     -6299173.3      197.44115      197.44115      197.44115     -184.24421    
   1009000   699.6786      -6299083.3      197.44115      197.44115      197.44115     -158.6023     
   1010000   700.70549     -6298971.1      197.44115      197.44115      197.44115     -287.46574    
   1011000   699.16015     -6299097.3      197.44115      197.44115      197.44115     -410.96454    
   1012000   700.18752     -6299000.9      197.44115      197.44115      197.44115     -173.46138    
   1013000   700.39417     -6298960.8      197.44115      197.44115      197.44115     -319.92281    
   1014000   699.42533     -6299079.8      197.44115      197.44115      197.44115     -158.96048    
   1015000   699.79313     -6299078.3      197.44115      197.44115      197.44115     -322.66013    
   1016000   698.18379     -6299162.9      197.44115      197.44115      197.44115     -220.27404    
   1017000   699.94079     -6299134.4      197.44115      197.44115      197.44115     -174.49223    
   1018000   698.28862     -6299192.8      197.44115      197.44115      197.44115     -283.86188    
   1019000   698.86499     -6299051.6      197.44115      197.44115      197.44115     -308.86036    
   1020000   700.04975     -6299007.3      197.44115      197.44115      197.44115     -202.81043    
   1021000   700.4671      -6298905.6      197.44115      197.44115      197.44115     -193.96003    
   1022000   700.76458     -6298957.4      197.44115      197.44115      197.44115     -284.62742    
   1023000   699.47664     -6298990.6      197.44115      197.44115      197.44115     -203.83351    
   1024000   699.80077     -6299031.1      197.44115      197.44115      197.44115     -143.87828    
   1025000   699.57472     -6299020        197.44115      197.44115      197.44115     -284.73379    
   1026000   700.29757     -6299016        197.44115      197.44115      197.44115     -159.27352    
   1027000   701.03297     -6298998.6      197.44115      197.44115      197.44115     -215.90212    
   1028000   698.57192     -6299180        197.44115      197.44115      197.44115     -172.25167    
   1029000   699.43547     -6299029        197.44115      197.44115      197.44115     -95.875775    
   1030000   699.2441      -6298974.3      197.44115      197.44115      197.44115     -212.38747    
   1031000   699.34395     -6299096        197.44115      197.44115      197.44115     -271.75155    
   1032000   699.7403      -6299149.7      197.44115      197.44115      197.44115     -316.10539    
   1033000   700.09721     -6299131.7      197.44115      197.44115      197.44115     -200.73941    
   1034000   700.59112     -6298950.5      197.44115      197.44115      197.44115     -301.40355    
   1035000   699.70746     -6298994.7      197.44115      197.44115      197.44115     -212.74633    
   1036000   699.6977      -6299033        197.44115      197.44115      197.44115     -137.52411    
   1037000   699.62572     -6299053.9      197.44115      197.44115      197.44115     -264.7205     
   1038000   700.06496     -6299081.2      197.44115      197.44115      197.44115     -308.27896    
   1039000   700.99384     -6298910.3      197.44115      197.44115      197.44115     -366.52023    
   1040000   699.19296     -6299086.3      197.44115      197.44115      197.44115     -357.53196    
   1041000   698.61961     -6299037.6      197.44115      197.44115      197.44115     -276.97908    
   1042000   700.60421     -6298990.8      197.44115      197.44115      197.44115     -323.71593    
   1043000   698.93206     -6299181.4      197.44115      197.44115      197.44115     -200.12328    
   1044000   699.81812     -6299028.4      197.44115      197.44115      197.44115     -353.92973    
   1045000   700.12002     -6299156.9      197.44115      197.44115      197.44115     -163.17781    
   1046000   699.41738     -6299082.4      197.44115      197.44115      197.44115     -266.76979    
   1047000   700.06668     -6299095.3      197.44115      197.44115      197.44115     -293.44755    
   1048000   700.14743     -6298976.5      197.44115      197.44115      197.44115     -188.2132     
   1049000   699.19607     -6299007.9      197.44115      197.44115      197.44115     -250.01251    
   1050000   698.74238     -6299181.2      197.44115      197.44115      197.44115     -172.09031    
   1051000   700.60555     -6298923.5      197.44115      197.44115      197.44115     -177.05308    
   1052000   701.02976     -6298916.8      197.44115      197.44115      197.44115     -225.78144    
   1053000   700.42307     -6298989.5      197.44115      197.44115      197.44115     -381.84754    
   1054000   700.60336     -6298988.4      197.44115      197.44115      197.44115     -157.71883    
   1055000   699.49449     -6299067.9      197.44115      197.44115      197.44115     -358.66153    
   1056000   698.56691     -6299137.3      197.44115      197.44115      197.44115     -342.72917    
   1057000   699.68281     -6299024.7      197.44115      197.44115      197.44115     -281.66841    
   1058000   699.43501     -6299088.7      197.44115      197.44115      197.44115     -214.80042    
   1059000   701.55527     -6299063.9      197.44115      197.44115      197.44115     -264.89109    
   1060000   700.84733     -6298940.2      197.44115      197.44115      197.44115     -205.29249    
   1061000   699.55295     -6299021.4      197.44115      197.44115      197.44115     -76.5795      
   1062000   700.67084     -6299010.1      197.44115      197.44115      197.44115     -111.99223    
   1063000   700.2946      -6299040.1      197.44115      197.44115      197.44115     -177.22856    
   1064000   700.60721     -6298991        197.44115      197.44115      197.44115     -318.68267    
   1065000   699.42253     -6299025.6      197.44115      197.44115      197.44115     -144.90677    
   1066000   699.85894     -6299053.1      197.44115      197.44115      197.44115     -267.61199    
   1067000   699.76833     -6298998.8      197.44115      197.44115      197.44115     -116.94991    
   1068000   700.71796     -6299004.4      197.44115      197.44115      197.44115     -260.89209    
   1069000   699.54438     -6299086.9      197.44115      197.44115      197.44115     -303.94105    
   1070000   699.64083     -6299174.7      197.44115      197.44115      197.44115     -284.3184     
   1071000   698.84119     -6299058.2      197.44115      197.44115      197.44115     -201.11805    
   1072000   700.43052     -6299039.5      197.44115      197.44115      197.44115     -153.57591    
   1073000   701.17043     -6298940.5      197.44115      197.44115      197.44115     -123.41838    
   1074000   698.7473      -6299149.3      197.44115      197.44115      197.44115     -194.65894    
   1075000   699.42859     -6299106.4      197.44115      197.44115      197.44115     -381.87895    
   1076000   698.82844     -6299046.3      197.44115      197.44115      197.44115     -311.71529    
   1077000   700.78004     -6298958.9      197.44115      197.44115      197.44115     -262.11371    
   1078000   699.63029     -6299063.3      197.44115      197.44115      197.44115     -171.94864    
   1079000   700.15087     -6298966.9      197.44115      197.44115      197.44115     -246.16375    
   1080000   698.41709     -6299098.6      197.44115      197.44115      197.44115     -315.73907    
   1081000   699.35566     -6299041.4      197.44115      197.44115      197.44115     -286.88031    
   1082000   700.27107     -6299046.8      197.44115      197.44115      197.44115     -300.5915     
   1083000   699.23137     -6299129.2      197.44115      197.44115      197.44115     -314.20085    
   1084000   700.30837     -6299025.6      197.44115      197.44115      197.44115     -171.96018    
   1085000   699.8223      -6298907.1      197.44115      197.44115      197.44115     -259.89365    
   1086000   700.91105     -6298934.4      197.44115      197.44115      197.44115     -236.82806    
   1087000   699.61302     -6299088.7      197.44115      197.44115      197.44115     -310.88402    
   1088000   699.77623     -6299005.7      197.44115      197.44115      197.44115     -157.4844     
   1089000   699.63191     -6299037.7      197.44115      197.44115      197.44115     -226.97128    
   1090000   700.30672     -6299009        197.44115      197.44115      197.44115     -178.07521    
   1091000   699.44424     -6299011.6      197.44115      197.44115      197.44115     -213.43752    
   1092000   698.34688     -6299149.2      197.44115      197.44115      197.44115     -309.25885    
   1093000   701.25323     -6298901.5      197.44115      197.44115      197.44115     -184.462      
   1094000   700.81631     -6298941.6      197.44115      197.44115      197.44115     -171.32121    
   1095000   700.21184     -6299003        197.44115      197.44115      197.44115     -188.49842    
   1096000   700.81046     -6298975.4      197.44115      197.44115      197.44115     -197.33853    
   1097000   701.69664     -6298944.5      197.44115      197.44115      197.44115     -192.25468    
   1098000   700.69745     -6298994.7      197.44115      197.44115      197.44115     -199.54362    
   1099000   700.55771     -6299058.9      197.44115      197.44115      197.44115     -323.39393    
   1100000   701.54182     -6299031.4      197.44115      197.44115      197.44115     -260.04003    
   1101000   700.87816     -6299015.9      197.44115      197.44115      197.44115     -299.72979    
   1102000   701.05929     -6298921.7      197.44115      197.44115      197.44115     -259.35502    
   1103000   700.65452     -6299066.2      197.44115      197.44115      197.44115     -159.41845    
   1104000   700.51743     -6299057.7      197.44115      197.44115      197.44115     -340.89433    
   1105000   701.92024     -6298811.5      197.44115      197.44115      197.44115     -182.35439    
   1106000   697.84412     -6299117.4      197.44115      197.44115      197.44115     -108.1895     
   1107000   700.07407     -6299033.2      197.44115      197.44115      197.44115     -317.42861    
   1108000   700.24388     -6299019.6      197.44115      197.44115      197.44115     -309.64222    
   1109000   698.3944      -6299078.8      197.44115      197.44115      197.44115     -281.81259    
   1110000   700.30448     -6298966.7      197.44115      197.44115      197.44115     -256.39972    
   1111000   700.25469     -6298941.6      197.44115      197.44115      197.44115     -156.73749    
   1112000   700.29255     -6298944.9      197.44115      197.44115      197.44115     -349.08081    
   1113000   700.34234     -6299038.6      197.44115      197.44115      197.44115     -324.53087    
   1114000   699.13588     -6299044.2      197.44115      197.44115      197.44115     -407.55825    
   1115000   700.05195     -6299058.9      197.44115      197.44115      197.44115     -127.79642    
   1116000   699.75746     -6299009.4      197.44115      197.44115      197.44115     -263.20722    
   1117000   701.16128     -6298961.6      197.44115      197.44115      197.44115     -125.11294    
   1118000   699.43619     -6299049        197.44115      197.44115      197.44115     -290.65485    
   1119000   699.65808     -6299000.4      197.44115      197.44115      197.44115     -266.53492    
   1120000   699.93732     -6299009.5      197.44115      197.44115      197.44115     -278.43915    
   1121000   699.2251      -6299098.2      197.44115      197.44115      197.44115     -250.01607    
   1122000   698.89645     -6299059.4      197.44115      197.44115      197.44115     -171.91591    
   1123000   698.54234     -6299120.2      197.44115      197.44115      197.44115     -156.54575    
   1124000   699.46428     -6299140.7      197.44115      197.44115      197.44115     -382.326      
   1125000   699.39124     -6299101.6      197.44115      197.44115      197.44115     -286.0007     
   1126000   699.79613     -6299119.5      197.44115      197.44115      197.44115     -253.83191    
   1127000   701.49874     -6298934.2      197.44115      197.44115      197.44115     -258.58142    
   1128000   700.78453     -6298934.7      197.44115      197.44115      197.44115     -273.79423    
   1129000   699.68719     -6299048.9      197.44115      197.44115      197.44115     -264.82417    
   1130000   700.91914     -6298877.1      197.44115      197.44115      197.44115     -276.69603    
   1131000   700.69983     -6298956.3      197.44115      197.44115      197.44115     -339.21136    
   1132000   701.78297     -6298860.8      197.44115      197.44115      197.44115     -353.26953    
   1133000   699.17517     -6299055.1      197.44115      197.44115      197.44115     -200.5        
   1134000   699.04324     -6299145.5      197.44115      197.44115      197.44115     -352.87888    
   1135000   699.96073     -6299042.4      197.44115      197.44115      197.44115     -386.87854    
   1136000   700.04673     -6298963.7      197.44115      197.44115      197.44115     -290.0534     
   1137000   699.39828     -6299037.5      197.44115      197.44115      197.44115     -153.8873     
   1138000   701.39445     -6298920.5      197.44115      197.44115      197.44115     -221.20815    
   1139000   701.30565     -6299018.3      197.44115      197.44115      197.44115     -203.21712    
   1140000   698.63703     -6299176.5      197.44115      197.44115      197.44115     -137.74938    
   1141000   699.23389     -6299036.5      197.44115      197.44115      197.44115     -244.68997    
   1142000   699.73916     -6299035.1      197.44115      197.44115      197.44115     -319.8086     
   1143000   699.67009     -6299082        197.44115      197.44115      197.44115     -215.75464    
   1144000   700.19293     -6299026.3      197.44115      197.44115      197.44115     -242.11434    
   1145000   701.32488     -6298932.4      197.44115      197.44115      197.44115     -147.56702    
   1146000   700.61034     -6298982.6      197.44115      197.44115      197.44115     -154.74712    
   1147000   699.70961     -6299076.7      197.44115      197.44115      197.44115     -254.00073    
   1148000   700.06356     -6298946.1      197.44115      197.44115      197.44115     -140.22935    
   1149000   700.67994     -6298938.7      197.44115      197.44115      197.44115     -388.92619    
   1150000   701.11492     -6298984.4      197.44115      197.44115      197.44115     -223.7813     
   1151000   700.12283     -6299070.5      197.44115      197.44115      197.44115     -211.58066    
   1152000   701.84045     -6298819.4      197.44115      197.44115      197.44115     -163.29058    
   1153000   700.39626     -6299059.9      197.44115      197.44115      197.44115     -320.14247    
   1154000   698.41982     -6299150.9      197.44115      197.44115      197.44115     -245.65787    
   1155000   699.92236     -6299074.4      197.44115      197.44115      197.44115     -469.46922    
   1156000   700.40459     -6298961.6      197.44115      197.44115      197.44115     -396.55909    
   1157000   700.56405     -6298919.4      197.44115      197.44115      197.44115     -348.6055     
   1158000   698.50213     -6299135.1      197.44115      197.44115      197.44115     -362.83149    
   1159000   701.38589     -6298961.2      197.44115      197.44115      197.44115     -424.15301    
   1160000   698.6246      -6299001        197.44115      197.44115      197.44115     -262.48122    
   1161000   699.90238     -6299010.8      197.44115      197.44115      197.44115     -264.85535    
   1162000   700.29179     -6298948        197.44115      197.44115      197.44115     -171.00886    
   1163000   701.17218     -6298976.8      197.44115      197.44115      197.44115     -344.56485    
   1164000   699.45864     -6299024.5      197.44115      197.44115      197.44115     -210.21114    
   1165000   699.40758     -6299157.9      197.44115      197.44115      197.44115     -196.90173    
   1166000   700.31985     -6298966.3      197.44115      197.44115      197.44115     -236.4671     
   1167000   699.64632     -6299003.1      197.44115      197.44115      197.44115     -395.03605    
   1168000   699.17732     -6299148.7      197.44115      197.44115      197.44115     -177.59428    
   1169000   699.64648     -6299053.6      197.44115      197.44115      197.44115     -264.23639    
   1170000   700.34833     -6298996.3      197.44115      197.44115      197.44115     -306.06897    
   1171000   699.26312     -6298988.8      197.44115      197.44115      197.44115     -316.96362    
   1172000   700.04919     -6298991.8      197.44115      197.44115      197.44115     -340.30949    
   1173000   699.014       -6299132.1      197.44115      197.44115      197.44115     -386.5825     
   1174000   700.84442     -6298920.9      197.44115      197.44115      197.44115     -474.05486    
   1175000   701.04268     -6299017.3      197.44115      197.44115      197.44115     -212.22917    
   1176000   700.13954     -6298943.7      197.44115      197.44115      197.44115     -269.22447    
   1177000   700.299       -6298921.5      197.44115      197.44115      197.44115     -131.10637    
   1178000   698.63179     -6299136.6      197.44115      197.44115      197.44115     -361.76531    
   1179000   700.17851     -6298962.3      197.44115      197.44115      197.44115     -280.23654    
   1180000   699.32913     -6299083.8      197.44115      197.44115      197.44115     -338.37994    
   1181000   699.73096     -6299072.2      197.44115      197.44115      197.44115     -152.97552    
   1182000   700.60009     -6298913.5      197.44115      197.44115      197.44115     -224.54974    
   1183000   700.43252     -6299046.2      197.44115      197.44115      197.44115     -264.23394    
   1184000   700.73525     -6298976        197.44115      197.44115      197.44115     -318.55188    
   1185000   699.33822     -6299188.2      197.44115      197.44115      197.44115     -304.36567    
   1186000   701.2104      -6299041.5      197.44115      197.44115      197.44115     -245.4361     
   1187000   700.35946     -6299003.8      197.44115      197.44115      197.44115     -223.98727    
   1188000   698.93496     -6299080.3      197.44115      197.44115      197.44115     -284.00486    
   1189000   701.26844     -6299060.3      197.44115      197.44115      197.44115     -274.9319     
   1190000   700.24936     -6299068.8      197.44115      197.44115      197.44115     -200.53432    
   1191000   699.91333     -6299221.5      197.44115      197.44115      197.44115     -301.5017     
   1192000   700.74227     -6298987.4      197.44115      197.44115      197.44115     -316.40331    
   1193000   700.18225     -6299052.4      197.44115      197.44115      197.44115     -346.53617    
   1194000   700.34552     -6299076.3      197.44115      197.44115      197.44115     -318.43195    
   1195000   699.91905     -6299070.3      197.44115      197.44115      197.44115     -422.28904    
   1196000   699.17741     -6299085.9      197.44115      197.44115      197.44115     -302.10643    
   1197000   699.59773     -6299099        197.44115      197.44115      197.44115     -360.659      
   1198000   700.73563     -6298984.2      197.44115      197.44115      197.44115     -441.51668    
   1199000   700.25086     -6299100.8      197.44115      197.44115      197.44115     -238.89765    
   1200000   700.49377     -6298927.1      197.44115      197.44115      197.44115     -240.95071    
   1201000   700.05027     -6299078.2      197.44115      197.44115      197.44115     -282.46361    
   1202000   699.67034     -6299000        197.44115      197.44115      197.44115     -260.07934    
   1203000   698.87841     -6299039.9      197.44115      197.44115      197.44115     -384.3405     
   1204000   699.84917     -6298946.2      197.44115      197.44115      197.44115     -304.89454    
   1205000   700.70799     -6298978.2      197.44115      197.44115      197.44115     -268.9664     
   1206000   699.2593      -6299132        197.44115      197.44115      197.44115     -111.00159    
   1207000   700.92308     -6298953.6      197.44115      197.44115      197.44115     -195.44201    
   1208000   700.13947     -6299041.3      197.44115      197.44115      197.44115     -348.80565    
   1209000   700.20236     -6299022.3      197.44115      197.44115      197.44115     -229.29042    
   1210000   698.66203     -6299121.2      197.44115      197.44115      197.44115     -176.25279    
   1211000   698.34796     -6299058.4      197.44115      197.44115      197.44115     -253.24845    
   1212000   700.33592     -6298946.9      197.44115      197.44115      197.44115     -256.68224    
   1213000   699.07441     -6299095        197.44115      197.44115      197.44115     -277.03302    
   1214000   699.8969      -6298984.1      197.44115      197.44115      197.44115     -240.45724    
   1215000   698.98742     -6299087.2      197.44115      197.44115      197.44115     -430.63769    
   1216000   701.64847     -6298949        197.44115      197.44115      197.44115     -279.78089    
   1217000   702.30253     -6298925.1      197.44115      197.44115      197.44115     -254.66233    
   1218000   699.49251     -6298920.2      197.44115      197.44115      197.44115     -254.57599    
   1219000   698.94536     -6299060.2      197.44115      197.44115      197.44115     -207.86362    
   1220000   699.78961     -6299039        197.44115      197.44115      197.44115     -256.59373    
   1221000   699.59385     -6299021.1      197.44115      197.44115      197.44115     -376.27575    
   1222000   699.08156     -6299005.2      197.44115      197.44115      197.44115     -354.19212    
   1223000   701.02215     -6298994.1      197.44115      197.44115      197.44115     -291.53539    
   1224000   700.45571     -6299027.7      197.44115      197.44115      197.44115     -413.71202    
   1225000   700.4471      -6298949.9      197.44115      197.44115      197.44115     -161.24129    
   1226000   700.62769     -6298879.4      197.44115      197.44115      197.44115     -327.84739    
   1227000   700.73726     -6298937        197.44115      197.44115      197.44115     -280.47921    
   1228000   699.23435     -6299091.5      197.44115      197.44115      197.44115     -339.12859    
   1229000   699.00048     -6299002.1      197.44115      197.44115      197.44115     -337.37426    
   1230000   700.62963     -6298908.6      197.44115      197.44115      197.44115     -343.51899    
   1231000   699.97231     -6298984.3      197.44115      197.44115      197.44115     -371.6309     
   1232000   700.33644     -6298923.4      197.44115      197.44115      197.44115     -216.63248    
   1233000   700.71453     -6298851.9      197.44115      197.44115      197.44115     -327.00241    
   1234000   699.763       -6299053.9      197.44115      197.44115      197.44115     -133.71802    
   1235000   700.11157     -6299047.5      197.44115      197.44115      197.44115     -269.68292    
   1236000   701.24211     -6298866.5      197.44115      197.44115      197.44115     -267.65022    
   1237000   700.67958     -6299099.6      197.44115      197.44115      197.44115     -245.70755    
   1238000   700.15323     -6299063.6      197.44115      197.44115      197.44115     -464.7317     
   1239000   700.06626     -6298944.9      197.44115      197.44115      197.44115     -197.4003     
   1240000   700.02959     -6299025.5      197.44115      197.44115      197.44115     -170.60171    
   1241000   700.11282     -6299147.5      197.44115      197.44115      197.44115     -306.39251    
   1242000   699.37582     -6299070.9      197.44115      197.44115      197.44115     -238.91115    
   1243000   699.81298     -6299056.8      197.44115      197.44115      197.44115     -245.43854    
   1244000   699.9754      -6298968.9      197.44115      197.44115      197.44115     -206.5544     
   1245000   699.99018     -6298987        197.44115      197.44115      197.44115     -261.64262    
   1246000   700.12793     -6299068.1      197.44115      197.44115      197.44115     -356.85586    
   1247000   699.48552     -6299066.9      197.44115      197.44115      197.44115     -341.02303    
   1248000   700.94922     -6298909.1      197.44115      197.44115      197.44115     -147.85017    
   1249000   700.32251     -6299027.3      197.44115      197.44115      197.44115     -490.52687    
   1250000   699.83936     -6299043.5      197.44115      197.44115      197.44115     -236.08502    
   1251000   699.83638     -6299030.7      197.44115      197.44115      197.44115     -359.54199    
   1252000   700.4982      -6298975.4      197.44115      197.44115      197.44115     -446.65562    
   1253000   699.744       -6299075.7      197.44115      197.44115      197.44115     -292.41441    
   1254000   699.71947     -6299034.1      197.44115      197.44115      197.44115     -326.87592    
   1255000   699.5728      -6299129.3      197.44115      197.44115      197.44115     -421.60171    
   1256000   699.72042     -6299078.8      197.44115      197.44115      197.44115     -249.46505    
   1257000   700.26082     -6299116.7      197.44115      197.44115      197.44115     -488.69191    
   1258000   699.63155     -6298996.9      197.44115      197.44115      197.44115     -258.58083    
   1259000   700.22056     -6299071.9      197.44115      197.44115      197.44115     -205.11505    
   1260000   699.99959     -6299064.3      197.44115      197.44115      197.44115     -277.27869    
   1261000   701.26123     -6298982.8      197.44115      197.44115      197.44115     -383.15307    
   1262000   699.45278     -6299004        197.44115      197.44115      197.44115     -348.253      
   1263000   700.40535     -6298993.9      197.44115      197.44115      197.44115     -222.7842     
   1264000   701.16087     -6298902.4      197.44115      197.44115      197.44115     -204.76599    
   1265000   700.86593     -6298932.7      197.44115      197.44115      197.44115     -305.9318     
   1266000   699.03971     -6299086.3      197.44115      197.44115      197.44115     -215.93807    
   1267000   699.76609     -6298918.5      197.44115      197.44115      197.44115     -318.19006    
   1268000   701.21551     -6298865.5      197.44115      197.44115      197.44115     -203.98998    
   1269000   698.66936     -6299148.1      197.44115      197.44115      197.44115     -287.71499    
   1270000   700.98183     -6298956.9      197.44115      197.44115      197.44115     -214.9807     
   1271000   699.71416     -6299000.6      197.44115      197.44115      197.44115     -302.9499     
   1272000   699.37089     -6299105.8      197.44115      197.44115      197.44115     -369.65541    
   1273000   699.77692     -6298979        197.44115      197.44115      197.44115     -349.1501     
   1274000   697.96875     -6299225        197.44115      197.44115      197.44115     -308.45032    
   1275000   699.86307     -6299031.5      197.44115      197.44115      197.44115     -201.27429    
   1276000   699.38572     -6299181.3      197.44115      197.44115      197.44115     -349.2906     
   1277000   699.70733     -6298979.2      197.44115      197.44115      197.44115     -153.92589    
   1278000   698.39788     -6299152.8      197.44115      197.44115      197.44115     -315.82216    
   1279000   700.42287     -6298956.3      197.44115      197.44115      197.44115     -29.27408     
   1280000   700.19067     -6299064.2      197.44115      197.44115      197.44115     -466.35714    
   1281000   699.43443     -6299100        197.44115      197.44115      197.44115     -172.59918    
   1282000   699.37302     -6299107.6      197.44115      197.44115      197.44115     -522.39065    
   1283000   700.36568     -6299072.5      197.44115      197.44115      197.44115     -249.50213    
   1284000   700.69541     -6298841.5      197.44115      197.44115      197.44115     -252.85499    
   1285000   699.56979     -6298974.9      197.44115      197.44115      197.44115     -182.30672    
   1286000   698.80813     -6299136        197.44115      197.44115      197.44115     -257.02149    
   1287000   699.74818     -6299133.3      197.44115      197.44115      197.44115     -303.36351    
   1288000   699.14351     -6299205.4      197.44115      197.44115      197.44115     -253.37184    
   1289000   700.08365     -6299136.1      197.44115      197.44115      197.44115     -272.74948    
   1290000   699.06167     -6299054.2      197.44115      197.44115      197.44115     -86.613627    
   1291000   700.07675     -6299061.5      197.44115      197.44115      197.44115     -262.26829    
   1292000   699.415       -6299119.6      197.44115      197.44115      197.44115     -439.90756    
   1293000   700.4261      -6298942.3      197.44115      197.44115      197.44115     -379.61023    
   1294000   700.51663     -6299037.7      197.44115      197.44115      197.44115     -283.98411    
   1295000   699.75546     -6298967.5      197.44115      197.44115      197.44115     -308.57365    
   1296000   698.40014     -6299122.8      197.44115      197.44115      197.44115     -105.61227    
   1297000   700.9187      -6298930        197.44115      197.44115      197.44115     -214.13368    
   1298000   700.81037     -6298984.5      197.44115      197.44115      197.44115     -150.94384    
   1299000   699.21009     -6299127.7      197.44115      197.44115      197.44115     -263.24043    
   1300000   700.94331     -6298963.2      197.44115      197.44115      197.44115     -228.19056    
   1301000   701.40712     -6298912.5      197.44115      197.44115      197.44115     -328.33153    
   1302000   700.75602     -6298879.8      197.44115      197.44115      197.44115     -382.23429    
   1303000   698.35527     -6299121.7      197.44115      197.44115      197.44115     -398.85401    
   1304000   700.41508     -6299000.9      197.44115      197.44115      197.44115     -290.42243    
   1305000   699.10461     -6299075        197.44115      197.44115      197.44115     -334.0498     
   1306000   700.26627     -6299076.6      197.44115      197.44115      197.44115     -457.38611    
   1307000   700.86959     -6298951        197.44115      197.44115      197.44115     -357.11421    
   1308000   700.75047     -6299001.5      197.44115      197.44115      197.44115     -272.81539    
   1309000   699.46916     -6299081.5      197.44115      197.44115      197.44115     -350.86639    
   1310000   699.78196     -6299182.6      197.44115      197.44115      197.44115     -346.52823    
   1311000   700.55328     -6299059.9      197.44115      197.44115      197.44115     -257.1041     
   1312000   700.36456     -6298967.3      197.44115      197.44115      197.44115     -308.90335    
   1313000   700.08367     -6299057.5      197.44115      197.44115      197.44115     -320.25345    
   1314000   699.75722     -6299091.5      197.44115      197.44115      197.44115     -486.60571    
   1315000   699.7636      -6299083.7      197.44115      197.44115      197.44115     -332.12448    
   1316000   699.23025     -6299136.4      197.44115      197.44115      197.44115     -293.57171    
   1317000   700.30629     -6299039.6      197.44115      197.44115      197.44115     -265.71584    
   1318000   699.8958      -6299008.7      197.44115      197.44115      197.44115     -194.89492    
   1319000   701.95777     -6298914.3      197.44115      197.44115      197.44115     -338.2837     
   1320000   701.20041     -6298921.3      197.44115      197.44115      197.44115     -312.70195    
   1321000   699.0762      -6299059.6      197.44115      197.44115      197.44115     -202.14708    
   1322000   699.5311      -6299147.5      197.44115      197.44115      197.44115     -256.41647    
   1323000   700.87446     -6299030        197.44115      197.44115      197.44115     -328.24591    
   1324000   700.11429     -6299062.2      197.44115      197.44115      197.44115     -283.21925    
   1325000   700.29139     -6299022.9      197.44115      197.44115      197.44115     -350.42816    
   1326000   698.92209     -6299050.4      197.44115      197.44115      197.44115     -193.35898    
   1327000   700.4291      -6298852.4      197.44115      197.44115      197.44115     -118.07399    
   1328000   700.54997     -6299033.8      197.44115      197.44115      197.44115     -172.97257    
   1329000   699.61888     -6299120.2      197.44115      197.44115      197.44115     -323.55318    
   1330000   699.93441     -6299058.3      197.44115      197.44115      197.44115     -250.8552     
   1331000   701.21588     -6298967.5      197.44115      197.44115      197.44115     -283.17522    
   1332000   699.1233      -6299046.1      197.44115      197.44115      197.44115     -256.50442    
   1333000   698.46034     -6299165.8      197.44115      197.44115      197.44115     -288.46119    
   1334000   700.04502     -6299102.8      197.44115      197.44115      197.44115     -218.49506    
   1335000   700.50025     -6299066.8      197.44115      197.44115      197.44115     -358.31124    
   1336000   699.74023     -6299095.2      197.44115      197.44115      197.44115     -214.21405    
   1337000   701.45147     -6298933.5      197.44115      197.44115      197.44115     -386.0386     
   1338000   700.23972     -6299081.5      197.44115      197.44115      197.44115     -438.82637    
   1339000   699.33543     -6299021.2      197.44115      197.44115      197.44115     -296.05181    
   1340000   700.87992     -6299144.9      197.44115      197.44115      197.44115     -339.63595    
   1341000   700.47737     -6299031.3      197.44115      197.44115      197.44115     -88.265168    
   1342000   699.17076     -6299174        197.44115      197.44115      197.44115     -307.93484    
   1343000   700.69774     -6299007.8      197.44115      197.44115      197.44115     -424.67804    
   1344000   700.15635     -6298977.1      197.44115      197.44115      197.44115     -398.17325    
   1345000   700.11838     -6299072.9      197.44115      197.44115      197.44115     -245.77306    
   1346000   700.27499     -6299044.2      197.44115      197.44115      197.44115     -270.2527     
   1347000   700.37242     -6298944        197.44115      197.44115      197.44115     -230.65883    
   1348000   700.01924     -6299036.1      197.44115      197.44115      197.44115     -186.3137     
   1349000   699.49008     -6299031.9      197.44115      197.44115      197.44115     -209.08104    
   1350000   700.7261      -6299045.1      197.44115      197.44115      197.44115     -212.03457    
   1351000   701.22273     -6298985.5      197.44115      197.44115      197.44115     -221.88084    
   1352000   699.14113     -6299071.8      197.44115      197.44115      197.44115     -215.97404    
   1353000   700.83124     -6298932.8      197.44115      197.44115      197.44115     -200.83736    
   1354000   699.98608     -6299000.1      197.44115      197.44115      197.44115     -160.40064    
   1355000   700.18593     -6299083.3      197.44115      197.44115      197.44115     -352.84229    
   1356000   700.45007     -6298969.5      197.44115      197.44115      197.44115     -198.82127    
   1357000   700.61612     -6299111.4      197.44115      197.44115      197.44115     -529.84735    
   1358000   700.3525      -6298977.8      197.44115      197.44115      197.44115     -291.21603    
   1359000   699.02649     -6299061.5      197.44115      197.44115      197.44115     -373.78594    
   1360000   699.16002     -6299121        197.44115      197.44115      197.44115     -409.43358    
   1361000   699.76267     -6298983.2      197.44115      197.44115      197.44115     -262.05454    
   1362000   699.45676     -6299129        197.44115      197.44115      197.44115     -350.15936    
   1363000   700.66873     -6299089.6      197.44115      197.44115      197.44115     -338.93986    
   1364000   699.60969     -6299079.6      197.44115      197.44115      197.44115     -294.26021    
   1365000   699.49184     -6299099.3      197.44115      197.44115      197.44115     -348.00781    
   1366000   699.95517     -6299012        197.44115      197.44115      197.44115     -154.22645    
   1367000   700.65702     -6298958.3      197.44115      197.44115      197.44115     -171.57797    
   1368000   700.84739     -6298979.1      197.44115      197.44115      197.44115     -240.23636    
   1369000   699.75208     -6299067.2      197.44115      197.44115      197.44115     -109.48062    
   1370000   699.54217     -6298984.6      197.44115      197.44115      197.44115     -159.71923    
   1371000   700.91204     -6298977.4      197.44115      197.44115      197.44115     -235.56902    
   1372000   700.27892     -6299037.4      197.44115      197.44115      197.44115     -240.1417     
   1373000   700.14451     -6299049.9      197.44115      197.44115      197.44115     -229.96632    
   1374000   699.1662      -6299038.1      197.44115      197.44115      197.44115     -265.4043     
   1375000   698.99613     -6299091.3      197.44115      197.44115      197.44115     -314.01963    
   1376000   701.01772     -6298938        197.44115      197.44115      197.44115     -226.27714    
   1377000   700.45902     -6298948.2      197.44115      197.44115      197.44115     -212.31466    
   1378000   700.83083     -6298976.1      197.44115      197.44115      197.44115     -271.79706    
   1379000   701.32767     -6298932.8      197.44115      197.44115      197.44115     -273.74952    
   1380000   699.96421     -6299072.4      197.44115      197.44115      197.44115     -256.39394    
   1381000   700.1646      -6298996.5      197.44115      197.44115      197.44115     -190.18445    
   1382000   700.2919      -6298978.1      197.44115      197.44115      197.44115     -192.04355    
   1383000   699.37178     -6299093.4      197.44115      197.44115      197.44115     -206.93061    
   1384000   700.48621     -6298937.5      197.44115      197.44115      197.44115     -324.91145    
   1385000   700.20537     -6299034        197.44115      197.44115      197.44115     -140.58575    
   1386000   700.79445     -6299063        197.44115      197.44115      197.44115     -226.24354    
   1387000   699.10082     -6299094.5      197.44115      197.44115      197.44115     -304.30726    
   1388000   699.65412     -6299170.3      197.44115      197.44115      197.44115     -425.12624    
   1389000   700.93475     -6299020.5      197.44115      197.44115      197.44115     -213.31835    
   1390000   699.66177     -6299141        197.44115      197.44115      197.44115     -270.74373    
   1391000   701.19794     -6299021.3      197.44115      197.44115      197.44115     -167.74526    
   1392000   700.91807     -6298969.1      197.44115      197.44115      197.44115     -361.71276    
   1393000   700.55149     -6298857.2      197.44115      197.44115      197.44115     -142.87666    
   1394000   699.59997     -6299099.4      197.44115      197.44115      197.44115     -203.32662    
   1395000   698.47795     -6299183        197.44115      197.44115      197.44115     -232.41761    
   1396000   699.18665     -6299047.3      197.44115      197.44115      197.44115     -139.25474    
   1397000   700.18831     -6298937.6      197.44115      197.44115      197.44115     -145.80035    
   1398000   699.61412     -6298971.4      197.44115      197.44115      197.44115     -276.44526    
   1399000   700.8004      -6298994.9      197.44115      197.44115      197.44115     -311.86827    
   1400000   698.62081     -6299323.4      197.44115      197.44115      197.44115     -280.40203    
   1401000   699.56214     -6298971.5      197.44115      197.44115      197.44115     -282.00806    
   1402000   700.04167     -6298947.1      197.44115      197.44115      197.44115     -131.78241    
   1403000   698.80712     -6299138.3      197.44115      197.44115      197.44115     -222.83465    
   1404000   700.39703     -6298909.5      197.44115      197.44115      197.44115     -258.44524    
   1405000   700.80827     -6298964        197.44115      197.44115      197.44115     -103.13972    
   1406000   699.18217     -6299172.3      197.44115      197.44115      197.44115     -216.72244    
   1407000   701.75564     -6298975.6      197.44115      197.44115      197.44115     -345.1399     
   1408000   699.85241     -6299134.1      197.44115      197.44115      197.44115     -450.2453     
   1409000   698.57131     -6299126.2      197.44115      197.44115      197.44115     -122.66314    
   1410000   699.08432     -6299221.1      197.44115      197.44115      197.44115     -347.24911    
   1411000   700.55182     -6299031.9      197.44115      197.44115      197.44115     -288.45526    
   1412000   699.72114     -6299122.6      197.44115      197.44115      197.44115     -244.41297    
   1413000   698.98297     -6299075.7      197.44115      197.44115      197.44115     -390.22914    
   1414000   698.10128     -6299238        197.44115      197.44115      197.44115     -311.93669    
   1415000   699.5607      -6299069.3      197.44115      197.44115      197.44115     -295.28097    
   1416000   699.34704     -6299123.1      197.44115      197.44115      197.44115     -248.64498    
   1417000   699.63439     -6298964.6      197.44115      197.44115      197.44115     -190.53521    
   1418000   699.25698     -6299019.5      197.44115      197.44115      197.44115     -245.59638    
   1419000   699.16083     -6299085        197.44115      197.44115      197.44115     -270.52344    
   1420000   699.66673     -6299068.8      197.44115      197.44115      197.44115     -337.31552    
   1421000   699.33578     -6299165.8      197.44115      197.44115      197.44115     -371.40722    
   1422000   699.86425     -6298970.4      197.44115      197.44115      197.44115     -234.74576    
   1423000   698.77615     -6299218.6      197.44115      197.44115      197.44115     -454.72732    
   1424000   699.16995     -6299154.6      197.44115      197.44115      197.44115     -178.94862    
   1425000   699.75019     -6299002.3      197.44115      197.44115      197.44115     -249.54158    
   1426000   700.94271     -6298949.7      197.44115      197.44115      197.44115     -237.61885    
   1427000   699.82312     -6299111.7      197.44115      197.44115      197.44115     -208.94483    
   1428000   698.40433     -6299151.6      197.44115      197.44115      197.44115     -242.28634    
   1429000   700.2399      -6298881.3      197.44115      197.44115      197.44115     -239.13962    
   1430000   699.08648     -6299092.7      197.44115      197.44115      197.44115     -206.2117     
   1431000   699.29657     -6299114.3      197.44115      197.44115      197.44115     -175.07528    
   1432000   700.5223      -6299029.7      197.44115      197.44115      197.44115     -296.90996    
   1433000   699.21223     -6299115.6      197.44115      197.44115      197.44115     -347.33909    
   1434000   700.61939     -6298984.5      197.44115      197.44115      197.44115     -259.26418    
   1435000   701.41408     -6298978.3      197.44115      197.44115      197.44115     -408.30401    
   1436000   700.61814     -6298987        197.44115      197.44115      197.44115     -228.15136    
   1437000   701.19697     -6298942.5      197.44115      197.44115      197.44115     -147.69863    
   1438000   700.52409     -6298921.7      197.44115      197.44115      197.44115     -302.22242    
   1439000   701.03403     -6298999.5      197.44115      197.44115      197.44115     -306.11178    
   1440000   699.88501     -6299037        197.44115      197.44115      197.44115     -254.64923    
   1441000   700.20432     -6299033.6      197.44115      197.44115      197.44115     -290.8184     
   1442000   699.12237     -6299115.8      197.44115      197.44115      197.44115     -301.97467    
   1443000   700.56813     -6299053.7      197.44115      197.44115      197.44115     -214.21523    
   1444000   700.07624     -6299149.1      197.44115      197.44115      197.44115     -251.4924     
   1445000   699.65664     -6299144.2      197.44115      197.44115      197.44115     -257.17869    
   1446000   699.21524     -6299117.6      197.44115      197.44115      197.44115     -368.88214    
   1447000   700.39509     -6298938        197.44115      197.44115      197.44115     -172.2475     
   1448000   700.61029     -6298995.7      197.44115      197.44115      197.44115     -159.19148    
   1449000   700.62009     -6299112.9      197.44115      197.44115      197.44115     -357.1701     
   1450000   699.45413     -6299097.8      197.44115      197.44115      197.44115     -328.16954    
   1451000   699.80013     -6299118.7      197.44115      197.44115      197.44115     -362.82089    
   1452000   701.16196     -6298976.7      197.44115      197.44115      197.44115     -132.41762    
   1453000   700.93819     -6299048.6      197.44115      197.44115      197.44115     -392.72915    
   1454000   701.47254     -6298994.1      197.44115      197.44115      197.44115     -292.16954    
   1455000   700.52892     -6298961.8      197.44115      197.44115      197.44115     -164.27595    
   1456000   700.93148     -6299067.7      197.44115      197.44115      197.44115     -179.08954    
   1457000   698.91954     -6299132.9      197.44115      197.44115      197.44115     -294.62562    
   1458000   699.37022     -6299154.9      197.44115      197.44115      197.44115     -419.08213    
   1459000   701.15873     -6298914.1      197.44115      197.44115      197.44115     -235.89638    
   1460000   699.78772     -6299077.3      197.44115      197.44115      197.44115     -263.58275    
   1461000   700.40603     -6299028.4      197.44115      197.44115      197.44115     -302.31392    
   1462000   700.01497     -6299131.8      197.44115      197.44115      197.44115     -333.43983    
   1463000   700.68995     -6299003.5      197.44115      197.44115      197.44115     -295.25536    
   1464000   699.43163     -6299028.4      197.44115      197.44115      197.44115     -223.58631    
   1465000   700.77952     -6298865.3      197.44115      197.44115      197.44115     -152.64165    
   1466000   700.14327     -6299080.1      197.44115      197.44115      197.44115     -222.92409    
   1467000   700.06782     -6299056.4      197.44115      197.44115      197.44115     -348.66808    
   1468000   698.71184     -6299142.4      197.44115      197.44115      197.44115     -254.24011    
   1469000   700.32897     -6298990.6      197.44115      197.44115      197.44115     -249.7949     
   1470000   700.56487     -6298911.4      197.44115      197.44115      197.44115     -17.87419     
   1471000   701.21561     -6299069.6      197.44115      197.44115      197.44115     -206.85347    
   1472000   699.71372     -6299133.4      197.44115      197.44115      197.44115     -214.62194    
   1473000   699.33756     -6299219.1      197.44115      197.44115      197.44115     -345.17207    
   1474000   699.86657     -6299103.7      197.44115      197.44115      197.44115     -330.84077    
   1475000   700.6151      -6299145.7      197.44115      197.44115      197.44115     -224.22398    
   1476000   700.67514     -6298959.8      197.44115      197.44115      197.44115     -231.18032    
   1477000   700.52318     -6298964.2      197.44115      197.44115      197.44115     -259.61909    
   1478000   700.90721     -6298999.4      197.44115      197.44115      197.44115     -269.76459    
   1479000   699.57697     -6299072.8      197.44115      197.44115      197.44115     -294.7396     
   1480000   699.39137     -6299106.6      197.44115      197.44115      197.44115     -229.86471    
   1481000   699.14171     -6299042.3      197.44115      197.44115      197.44115     -265.85921    
   1482000   699.4743      -6299122.2      197.44115      197.44115      197.44115     -239.66254    
   1483000   700.409       -6299019.1      197.44115      197.44115      197.44115     -184.4993     
   1484000   699.89473     -6298948.3      197.44115      197.44115      197.44115     -236.98332    
   1485000   699.88412     -6299088.6      197.44115      197.44115      197.44115     -229.90081    
   1486000   699.9927      -6299161.4      197.44115      197.44115      197.44115     -319.40084    
   1487000   700.24174     -6298978        197.44115      197.44115      197.44115     -227.22753    
   1488000   699.64963     -6299078.6      197.44115      197.44115      197.44115     -213.63572    
   1489000   698.47056     -6299150.3      197.44115      197.44115      197.44115     -226.49794    
   1490000   700.13337     -6299031.9      197.44115      197.44115      197.44115     -236.09726    
   1491000   699.39031     -6299015.4      197.44115      197.44115      197.44115     -94.864891    
   1492000   700.21973     -6299101.3      197.44115      197.44115      197.44115     -244.01418    
   1493000   699.65755     -6299115.4      197.44115      197.44115      197.44115     -243.25286    
   1494000   699.90838     -6298998.7      197.44115      197.44115      197.44115     -365.77813    
   1495000   700.20029     -6298973.4      197.44115      197.44115      197.44115     -283.36322    
   1496000   700.17564     -6299011.5      197.44115      197.44115      197.44115     -305.52994    
   1497000   700.86431     -6298932.4      197.44115      197.44115      197.44115     -280.79091    
   1498000   701.19197     -6298952.2      197.44115      197.44115      197.44115     -258.72379    
   1499000   697.93129     -6299202.9      197.44115      197.44115      197.44115     -240.04499    
   1500000   700.3919      -6298907.8      197.44115      197.44115      197.44115     -367.0104     
   1501000   699.79636     -6299122.6      197.44115      197.44115      197.44115     -501.75106    
   1502000   698.99427     -6299181.1      197.44115      197.44115      197.44115     -426.39741    
   1503000   699.48123     -6299141.7      197.44115      197.44115      197.44115     -240.84261    
   1504000   700.85996     -6298973.5      197.44115      197.44115      197.44115     -336.18871    
   1505000   699.31012     -6299153.4      197.44115      197.44115      197.44115     -338.3746     
   1506000   699.3102      -6299147.3      197.44115      197.44115      197.44115     -292.43555    
   1507000   699.74409     -6299242.5      197.44115      197.44115      197.44115     -320.71884    
   1508000   699.96919     -6299093.4      197.44115      197.44115      197.44115     -243.45017    
   1509000   700.46457     -6299054        197.44115      197.44115      197.44115     -252.19974    
   1510000   700.2976      -6298976.3      197.44115      197.44115      197.44115     -208.30845    
   1511000   700.4978      -6299075.2      197.44115      197.44115      197.44115     -359.46784    
   1512000   701.77194     -6299011        197.44115      197.44115      197.44115     -310.30242    
   1513000   699.835       -6299085        197.44115      197.44115      197.44115     -353.38996    
   1514000   698.54342     -6299110        197.44115      197.44115      197.44115     -202.30028    
   1515000   698.81327     -6299116        197.44115      197.44115      197.44115     -231.92901    
   1516000   699.00703     -6299004.1      197.44115      197.44115      197.44115     -156.94911    
   1517000   698.92665     -6299251.9      197.44115      197.44115      197.44115     -351.99067    
   1518000   699.25885     -6299262.9      197.44115      197.44115      197.44115     -412.91711    
   1519000   700.6014      -6299005.7      197.44115      197.44115      197.44115     -238.49552    
   1520000   700.16137     -6299076.9      197.44115      197.44115      197.44115     -278.605      
   1521000   698.3726      -6299254.4      197.44115      197.44115      197.44115     -287.83803    
   1522000   700.32304     -6298993.2      197.44115      197.44115      197.44115     -306.13536    
   1523000   700.14794     -6299088.3      197.44115      197.44115      197.44115     -374.84388    
   1524000   700.17445     -6298976.8      197.44115      197.44115      197.44115     -167.88883    
   1525000   700.28995     -6299057        197.44115      197.44115      197.44115     -188.84775    
   1526000   699.51817     -6299139.3      197.44115      197.44115      197.44115     -271.77549    
   1527000   700.58101     -6299058.8      197.44115      197.44115      197.44115     -235.73512    
   1528000   701.69079     -6298991.4      197.44115      197.44115      197.44115     -223.32029    
   1529000   698.2771      -6299163.3      197.44115      197.44115      197.44115     -155.78188    
   1530000   699.75732     -6299132.1      197.44115      197.44115      197.44115     -265.44052    
   1531000   701.38096     -6299010.1      197.44115      197.44115      197.44115     -319.46112    
   1532000   701.27053     -6299002        197.44115      197.44115      197.44115     -249.06531    
   1533000   700.40929     -6298951.3      197.44115      197.44115      197.44115     -152.2406     
   1534000   699.53159     -6299107.7      197.44115      197.44115      197.44115     -137.6939     
   1535000   699.56762     -6299067.2      197.44115      197.44115      197.44115     -322.95191    
   1536000   699.89699     -6298965.2      197.44115      197.44115      197.44115     -267.21524    
   1537000   700.37787     -6299081.9      197.44115      197.44115      197.44115     -338.60865    
   1538000   700.42092     -6299045.6      197.44115      197.44115      197.44115     -138.57111    
   1539000   699.67213     -6299066.5      197.44115      197.44115      197.44115     -195.57196    
   1540000   699.56118     -6298988.6      197.44115      197.44115      197.44115     -133.87664    
   1541000   699.37239     -6299153.3      197.44115      197.44115      197.44115     -265.69865    
   1542000   700.04558     -6299075.9      197.44115      197.44115      197.44115     -265.21752    
   1543000   699.83431     -6299102.1      197.44115      197.44115      197.44115     -291.85912    
   1544000   700.52795     -6298966.8      197.44115      197.44115      197.44115     -218.92615    
   1545000   699.54804     -6299097.4      197.44115      197.44115      197.44115     -177.15125    
   1546000   700.7334      -6299102.7      197.44115      197.44115      197.44115     -187.48786    
   1547000   700.25315     -6299060        197.44115      197.44115      197.44115     -269.04227    
   1548000   699.99973     -6299110        197.44115      197.44115      197.44115     -327.28459    
   1549000   698.77952     -6299152.5      197.44115      197.44115      197.44115     -340.53201    
   1550000   700.74342     -6299012        197.44115      197.44115      197.44115     -202.83561    
   1551000   698.9368      -6299030.8      197.44115      197.44115      197.44115     -307.82373    
   1552000   699.06305     -6299114.5      197.44115      197.44115      197.44115     -356.3278     
   1553000   699.46175     -6298992        197.44115      197.44115      197.44115     -210.71242    
   1554000   698.60962     -6299210.1      197.44115      197.44115      197.44115     -372.44994    
   1555000   701.14231     -6299072.5      197.44115      197.44115      197.44115     -413.96107    
   1556000   700.17786     -6299067.9      197.44115      197.44115      197.44115     -288.42202    
   1557000   700.41756     -6299016.6      197.44115      197.44115      197.44115     -422.33719    
   1558000   699.05953     -6299059.3      197.44115      197.44115      197.44115     -410.91471    
   1559000   699.88164     -6299118.7      197.44115      197.44115      197.44115     -257.1552     
   1560000   698.95777     -6299110.7      197.44115      197.44115      197.44115     -363.16991    
   1561000   699.7738      -6299151.4      197.44115      197.44115      197.44115     -327.94273    
   1562000   699.70783     -6299044        197.44115      197.44115      197.44115     -253.80615    
   1563000   699.7066      -6299139        197.44115      197.44115      197.44115     -353.66467    
   1564000   699.41797     -6299067.8      197.44115      197.44115      197.44115     -263.46675    
   1565000   699.53323     -6299077.3      197.44115      197.44115      197.44115     -323.80384    
   1566000   699.34467     -6299110.6      197.44115      197.44115      197.44115     -204.00352    
   1567000   700.23289     -6299110.1      197.44115      197.44115      197.44115     -368.49303    
   1568000   699.72484     -6298987        197.44115      197.44115      197.44115     -242.68323    
   1569000   698.36298     -6299226.9      197.44115      197.44115      197.44115     -328.17704    
   1570000   700.73272     -6299009.9      197.44115      197.44115      197.44115     -259.95024    
   1571000   701.01497     -6299116.3      197.44115      197.44115      197.44115     -267.86306    
   1572000   700.62516     -6298994.4      197.44115      197.44115      197.44115     -310.12682    
   1573000   699.80236     -6298972.4      197.44115      197.44115      197.44115     -183.89918    
   1574000   699.51758     -6299091.8      197.44115      197.44115      197.44115     -289.59815    
   1575000   700.33951     -6299062.5      197.44115      197.44115      197.44115     -272.39211    
   1576000   700.42977     -6299012.1      197.44115      197.44115      197.44115     -235.36703    
   1577000   699.53032     -6299086.5      197.44115      197.44115      197.44115     -400.10712    
   1578000   701.22459     -6298893        197.44115      197.44115      197.44115     -259.55836    
   1579000   699.71856     -6299036.1      197.44115      197.44115      197.44115     -305.17056    
   1580000   700.29149     -6299086.3      197.44115      197.44115      197.44115     -252.93493    
   1581000   698.8949      -6299192.2      197.44115      197.44115      197.44115     -174.70519    
   1582000   699.0297      -6299234.9      197.44115      197.44115      197.44115     -244.70553    
   1583000   699.36509     -6299173.1      197.44115      197.44115      197.44115     -266.06399    
   1584000   700.43185     -6299073.7      197.44115      197.44115      197.44115     -181.35174    
   1585000   701.92104     -6298983.4      197.44115      197.44115      197.44115     -229.98625    
   1586000   700.35821     -6299087.7      197.44115      197.44115      197.44115     -235.74461    
   1587000   698.64026     -6299134.2      197.44115      197.44115      197.44115     -317.51208    
   1588000   698.8448      -6299220        197.44115      197.44115      197.44115     -182.33501    
   1589000   700.87785     -6298923.2      197.44115      197.44115      197.44115     -179.97393    
   1590000   701.1439      -6298935.4      197.44115      197.44115      197.44115     -171.87559    
   1591000   700.39248     -6299000.9      197.44115      197.44115      197.44115     -236.42748    
   1592000   700.30553     -6299126.8      197.44115      197.44115      197.44115     -225.98691    
   1593000   698.78207     -6299091.6      197.44115      197.44115      197.44115     -129.07943    
   1594000   699.49723     -6299195.5      197.44115      197.44115      197.44115     -200.79181    
   1595000   699.87416     -6299161.5      197.44115      197.44115      197.44115     -173.06208    
   1596000   699.07494     -6299164.4      197.44115      197.44115      197.44115     -226.9052     
   1597000   700.38313     -6299036        197.44115      197.44115      197.44115     -221.87517    
   1598000   699.49364     -6299121        197.44115      197.44115      197.44115     -335.85337    
   1599000   699.10761     -6299206.4      197.44115      197.44115      197.44115     -346.37312    
   1600000   699.34899     -6299158.5      197.44115      197.44115      197.44115     -231.65277    
   1601000   700.4765      -6299081.7      197.44115      197.44115      197.44115     -234.33766    
   1602000   700.30146     -6299038.8      197.44115      197.44115      197.44115     -127.61476    
   1603000   701.16727     -6299016.9      197.44115      197.44115      197.44115     -266.0805     
   1604000   700.33058     -6299116.4      197.44115      197.44115      197.44115     -300.70386    
   1605000   699.18876     -6299106        197.44115      197.44115      197.44115     -411.38154    
   1606000   700.08034     -6299082.1      197.44115      197.44115      197.44115     -333.46586    
   1607000   700.16717     -6299032.5      197.44115      197.44115      197.44115     -338.23383    
   1608000   700.1787      -6299103.8      197.44115      197.44115      197.44115     -293.42789    
   1609000   700.51204     -6298965.7      197.44115      197.44115      197.44115     -283.8926     
   1610000   700.15791     -6299079.2      197.44115      197.44115      197.44115     -357.09331    
   1611000   700.29717     -6299062.8      197.44115      197.44115      197.44115     -383.57637    
   1612000   699.71401     -6299114.4      197.44115      197.44115      197.44115     -443.94474    
   1613000   699.52577     -6299015.9      197.44115      197.44115      197.44115     -387.70986    
   1614000   699.37797     -6299078.5      197.44115      197.44115      197.44115     -258.81578    
   1615000   699.98269     -6299052.6      197.44115      197.44115      197.44115     -394.2395     
   1616000   701.84608     -6298859.8      197.44115      197.44115      197.44115     -238.45686    
   1617000   701.1935      -6298949.3      197.44115      197.44115      197.44115     -301.84965    
   1618000   698.87761     -6299121        197.44115      197.44115      197.44115     -314.32634    
   1619000   698.78482     -6299181.7      197.44115      197.44115      197.44115     -301.27326    
   1620000   700.27722     -6299109.9      197.44115      197.44115      197.44115     -385.59156    
   1621000   699.56761     -6299071.4      197.44115      197.44115      197.44115     -401.80664    
   1622000   700.58626     -6299038.9      197.44115      197.44115      197.44115     -268.45021    
   1623000   699.71454     -6299047.6      197.44115      197.44115      197.44115     -77.387112    
   1624000   699.51772     -6299016.6      197.44115      197.44115      197.44115     -94.125725    
   1625000   699.27326     -6299168.1      197.44115      197.44115      197.44115     -17.402431    
   1626000   699.92458     -6299107.6      197.44115      197.44115      197.44115     -435.04943    
   1627000   700.31497     -6299104.7      197.44115      197.44115      197.44115     -385.65805    
   1628000   699.4277      -6299118.9      197.44115      197.44115      197.44115     -219.32681    
   1629000   699.75929     -6299019.7      197.44115      197.44115      197.44115     -319.35865    
   1630000   701.06705     -6299014        197.44115      197.44115      197.44115     -295.34553    
   1631000   699.88561     -6299050        197.44115      197.44115      197.44115     -273.08366    
   1632000   700.85803     -6299053.2      197.44115      197.44115      197.44115     -334.4101     
   1633000   700.06579     -6299037.2      197.44115      197.44115      197.44115     -186.31669    
   1634000   699.65689     -6299107.9      197.44115      197.44115      197.44115     -410.86302    
   1635000   698.98303     -6299043.6      197.44115      197.44115      197.44115     -297.53334    
   1636000   700.34289     -6299011        197.44115      197.44115      197.44115     -260.3626     
   1637000   699.62863     -6299106.8      197.44115      197.44115      197.44115     -320.92939    
   1638000   699.62834     -6299034.6      197.44115      197.44115      197.44115     -234.89657    
   1639000   699.58171     -6299070.1      197.44115      197.44115      197.44115     -405.14347    
   1640000   700.56949     -6298994.8      197.44115      197.44115      197.44115     -187.78714    
   1641000   698.72314     -6299111.9      197.44115      197.44115      197.44115     -347.69867    
   1642000   699.22848     -6299198.5      197.44115      197.44115      197.44115     -413.0272     
   1643000   701.52554     -6298987.3      197.44115      197.44115      197.44115     -136.76542    
   1644000   698.93417     -6299053.8      197.44115      197.44115      197.44115     -252.37789    
   1645000   700.47824     -6299000.7      197.44115      197.44115      197.44115     -174.2478     
   1646000   699.56567     -6299088.9      197.44115      197.44115      197.44115     -339.77292    
   1647000   700.46445     -6299161.5      197.44115      197.44115      197.44115     -239.84625    
   1648000   700.13935     -6299058.1      197.44115      197.44115      197.44115     -299.17547    
   1649000   701.27515     -6299087.2      197.44115      197.44115      197.44115     -283.25586    
   1650000   700.43366     -6299191.1      197.44115      197.44115      197.44115     -308.22347    
   1651000   700.67504     -6299094.8      197.44115      197.44115      197.44115     -140.04461    
   1652000   700.94334     -6298911.4      197.44115      197.44115      197.44115     -187.33105    
   1653000   698.96393     -6299130.6      197.44115      197.44115      197.44115     -152.31343    
   1654000   700.84634     -6299106.1      197.44115      197.44115      197.44115     -334.58718    
   1655000   699.89387     -6299174.5      197.44115      197.44115      197.44115     -113.59217    
   1656000   699.96334     -6298997        197.44115      197.44115      197.44115     -161.13067    
   1657000   699.47659     -6299171.2      197.44115      197.44115      197.44115     -244.88472    
   1658000   700.39383     -6299068.1      197.44115      197.44115      197.44115     -356.52586    
   1659000   698.19137     -6299359.1      197.44115      197.44115      197.44115     -399.40298    
   1660000   700.22196     -6299084.7      197.44115      197.44115      197.44115     -306.03262    
   1661000   699.44636     -6299156.5      197.44115      197.44115      197.44115     -249.93745    
   1662000   699.85158     -6299082.6      197.44115      197.44115      197.44115     -444.4077     
   1663000   699.59251     -6299034.1      197.44115      197.44115      197.44115     -216.08282    
   1664000   700.43393     -6298915.2      197.44115      197.44115      197.44115     -160.88395    
   1665000   699.85157     -6299178.4      197.44115      197.44115      197.44115     -273.18629    
   1666000   698.68814     -6299165.7      197.44115      197.44115      197.44115     -297.90514    
   1667000   699.89082     -6299096.6      197.44115      197.44115      197.44115     -318.13618    
   1668000   699.12743     -6299141.6      197.44115      197.44115      197.44115     -235.47238    
   1669000   700.48121     -6299061.9      197.44115      197.44115      197.44115     -166.13661    
   1670000   699.91206     -6299116.5      197.44115      197.44115      197.44115     -333.04264    
   1671000   699.50613     -6299028.9      197.44115      197.44115      197.44115     -197.55409    
   1672000   700.99462     -6299079.2      197.44115      197.44115      197.44115     -257.4121     
   1673000   700.61225     -6299018.5      197.44115      197.44115      197.44115     -212.92591    
   1674000   699.45434     -6299114.2      197.44115      197.44115      197.44115     -261.21328    
   1675000   699.97323     -6299246.5      197.44115      197.44115      197.44115     -229.93929    
   1676000   700.41537     -6299016.3      197.44115      197.44115      197.44115     -243.7038     
   1677000   699.43905     -6299158.3      197.44115      197.44115      197.44115     -238.75027    
   1678000   700.48271     -6299163.3      197.44115      197.44115      197.44115     -232.46387    
   1679000   700.44083     -6299077.2      197.44115      197.44115      197.44115     -295.19341    
   1680000   700.41948     -6298983.8      197.44115      197.44115      197.44115     -266.75789    
   1681000   699.02512     -6299170.8      197.44115      197.44115      197.44115     -203.04818    
   1682000   699.8723      -6299160.4      197.44115      197.44115      197.44115     -252.06478    
   1683000   698.70722     -6299173.8      197.44115      197.44115      197.44115     -280.5184     
   1684000   699.89536     -6299093.6      197.44115      197.44115      197.44115     -259.30202    
   1685000   700.0195      -6299168.4      197.44115      197.44115      197.44115     -380.9121     
   1686000   699.2978      -6299134.4      197.44115      197.44115      197.44115     -304.53595    
   1687000   699.81094     -6299104        197.44115      197.44115      197.44115     -201.71387    
   1688000   699.85301     -6299108.6      197.44115      197.44115      197.44115     -223.21603    
   1689000   699.58016     -6299043.9      197.44115      197.44115      197.44115     -183.40142    
   1690000   699.4694      -6299128.3      197.44115      197.44115      197.44115     -289.51561    
   1691000   700.85472     -6298975        197.44115      197.44115      197.44115     -207.33693    
   1692000   698.88587     -6299031.1      197.44115      197.44115      197.44115     -213.85455    
   1693000   700.88698     -6298978.4      197.44115      197.44115      197.44115     -312.58309    
   1694000   700.10223     -6299011.9      197.44115      197.44115      197.44115     -339.45479    
   1695000   699.7818      -6299098.5      197.44115      197.44115      197.44115     -152.8674     
   1696000   698.60937     -6299029.8      197.44115      197.44115      197.44115     -101.60016    
   1697000   700.63493     -6299108.9      197.44115      197.44115      197.44115     -346.30231    
   1698000   701.79657     -6298999.8      197.44115      197.44115      197.44115     -162.02875    
   1699000   699.0161      -6299231.2      197.44115      197.44115      197.44115     -216.47628    
   1700000   700.03264     -6299102.1      197.44115      197.44115      197.44115     -144.73158    
   1701000   700.07908     -6299087.4      197.44115      197.44115      197.44115     -378.3675     
   1702000   700.49052     -6299055        197.44115      197.44115      197.44115     -239.3014     
   1703000   702.06605     -6298902.5      197.44115      197.44115      197.44115     -117.83435    
   1704000   698.44599     -6299307.4      197.44115      197.44115      197.44115     -327.69634    
   1705000   700.38616     -6299026.9      197.44115      197.44115      197.44115     -189.63645    
   1706000   699.2577      -6299107        197.44115      197.44115      197.44115     -277.92436    
   1707000   699.02239     -6299168        197.44115      197.44115      197.44115     -220.2303     
   1708000   698.51922     -6299309.2      197.44115      197.44115      197.44115     -365.66431    
   1709000   700.47565     -6299133.8      197.44115      197.44115      197.44115     -436.21175    
   1710000   699.1933      -6299133        197.44115      197.44115      197.44115     -190.94808    
   1711000   699.97408     -6299156        197.44115      197.44115      197.44115     -290.63172    
   1712000   699.46926     -6299158.6      197.44115      197.44115      197.44115     -356.92113    
   1713000   698.96689     -6299134.6      197.44115      197.44115      197.44115     -258.25878    
   1714000   699.58491     -6299141.3      197.44115      197.44115      197.44115     -331.40323    
   1715000   699.76127     -6299099.2      197.44115      197.44115      197.44115     -181.85347    
   1716000   699.51312     -6299148.7      197.44115      197.44115      197.44115     -163.19555    
   1717000   700.14539     -6299038.8      197.44115      197.44115      197.44115     -275.58726    
   1718000   699.42135     -6299130.8      197.44115      197.44115      197.44115     -394.36878    
   1719000   699.66463     -6299085.9      197.44115      197.44115      197.44115     -265.70575    
   1720000   699.66269     -6299133.8      197.44115      197.44115      197.44115     -333.15027    
   1721000   700.29719     -6299025.5      197.44115      197.44115      197.44115     -54.611984    
   1722000   700.64349     -6299078.4      197.44115      197.44115      197.44115     -130.49402    
   1723000   699.02365     -6299195        197.44115      197.44115      197.44115     -313.06578    
   1724000   700.72648     -6299037.2      197.44115      197.44115      197.44115     -194.71692    
   1725000   699.39848     -6299103.5      197.44115      197.44115      197.44115     -345.33838    
   1726000   700.17526     -6299009.2      197.44115      197.44115      197.44115     -205.50174    
   1727000   701.51735     -6299023.3      197.44115      197.44115      197.44115     -131.41887    
   1728000   700.33096     -6299114.3      197.44115      197.44115      197.44115     -262.59432    
   1729000   700.02036     -6299205.6      197.44115      197.44115      197.44115     -280.71403    
   1730000   699.83498     -6299121.2      197.44115      197.44115      197.44115     -328.09263    
   1731000   700.60419     -6299037.2      197.44115      197.44115      197.44115     -320.08811    
   1732000   699.95686     -6299073.2      197.44115      197.44115      197.44115     -369.76475    
   1733000   700.49904     -6299034.1      197.44115      197.44115      197.44115     -272.95309    
   1734000   700.57819     -6299157.3      197.44115      197.44115      197.44115     -331.06407    
   1735000   701.26132     -6298992.5      197.44115      197.44115      197.44115     -243.96144    
   1736000   698.7077      -6299221.9      197.44115      197.44115      197.44115     -261.45022    
   1737000   699.47276     -6299154.9      197.44115      197.44115      197.44115     -353.48501    
   1738000   700.64166     -6298999.5      197.44115      197.44115      197.44115     -302.88811    
   1739000   700.75552     -6299027.7      197.44115      197.44115      197.44115     -395.80049    
   1740000   701.24279     -6299036.4      197.44115      197.44115      197.44115     -270.62304    
   1741000   700.21122     -6298992.8      197.44115      197.44115      197.44115     -324.58141    
   1742000   698.75775     -6299277.3      197.44115      197.44115      197.44115     -374.06461    
   1743000   700.17856     -6299201.4      197.44115      197.44115      197.44115     -497.2878     
   1744000   699.37826     -6299200.1      197.44115      197.44115      197.44115     -250.52582    
   1745000   699.77155     -6299109.3      197.44115      197.44115      197.44115     -348.67145    
   1746000   699.26749     -6299157.8      197.44115      197.44115      197.44115     -412.49428    
   1747000   700.46116     -6299084.4      197.44115      197.44115      197.44115     -161.27761    
   1748000   699.51885     -6299120.7      197.44115      197.44115      197.44115     -344.14465    
   1749000   699.91044     -6299097.5      197.44115      197.44115      197.44115     -298.27297    
   1750000   699.25305     -6299152.2      197.44115      197.44115      197.44115     -308.7879     
   1751000   699.7863      -6299033.5      197.44115      197.44115      197.44115     -335.80396    
   1752000   700.46609     -6299012.5      197.44115      197.44115      197.44115     -185.05947    
   1753000   700.64641     -6299051.3      197.44115      197.44115      197.44115     -257.64939    
   1754000   700.72224     -6298996.8      197.44115      197.44115      197.44115     -163.17094    
   1755000   700.66978     -6299062        197.44115      197.44115      197.44115     -303.72358    
   1756000   699.50452     -6299071.1      197.44115      197.44115      197.44115     -331.82018    
   1757000   698.8568      -6299270.8      197.44115      197.44115      197.44115     -377.9247     
   1758000   699.3313      -6299027        197.44115      197.44115      197.44115     -243.693      
   1759000   699.31107     -6299125.9      197.44115      197.44115      197.44115     -255.98389    
   1760000   699.69458     -6299076.5      197.44115      197.44115      197.44115     -307.23652    
   1761000   698.00545     -6299202.4      197.44115      197.44115      197.44115     -424.9118     
   1762000   700.99934     -6299001.7      197.44115      197.44115      197.44115     -357.30558    
   1763000   700.03592     -6299144.6      197.44115      197.44115      197.44115     -302.50333    
   1764000   699.66774     -6299148.3      197.44115      197.44115      197.44115     -362.23916    
   1765000   701.29796     -6299037.1      197.44115      197.44115      197.44115     -305.32939    
   1766000   700.83021     -6298927.2      197.44115      197.44115      197.44115     -345.25826    
   1767000   700.24799     -6299040.6      197.44115      197.44115      197.44115     -287.1401     
   1768000   699.73369     -6299052.7      197.44115      197.44115      197.44115     -292.25143    
   1769000   700.06719     -6299072.4      197.44115      197.44115      197.44115     -107.86457    
   1770000   700.34496     -6298997.5      197.44115      197.44115      197.44115     -265.50729    
   1771000   699.49801     -6299071.3      197.44115      197.44115      197.44115     -295.91327    
   1772000   699.61587     -6299184.8      197.44115      197.44115      197.44115     -352.08643    
   1773000   699.70012     -6299029.9      197.44115      197.44115      197.44115     -247.78339    
   1774000   699.57057     -6299114.7      197.44115      197.44115      197.44115     -310.66827    
   1775000   699.48294     -6299100.3      197.44115      197.44115      197.44115     -448.66059    
   1776000   698.49029     -6299183.4      197.44115      197.44115      197.44115     -357.51015    
   1777000   700.14308     -6299138.7      197.44115      197.44115      197.44115     -229.35097    
   1778000   698.49013     -6299189.3      197.44115      197.44115      197.44115     -336.79145    
   1779000   701.02        -6298991.5      197.44115      197.44115      197.44115     -290.67746    
   1780000   699.18447     -6299071.7      197.44115      197.44115      197.44115     -294.7566     
   1781000   701.53581     -6299075.2      197.44115      197.44115      197.44115     -355.25321    
   1782000   700.23479     -6298977.5      197.44115      197.44115      197.44115     -183.85352    
   1783000   699.62175     -6299148.7      197.44115      197.44115      197.44115     -300.63814    
   1784000   698.77297     -6299200.8      197.44115      197.44115      197.44115     -258.6924     
   1785000   700.83009     -6299069.5      197.44115      197.44115      197.44115     -325.78019    
   1786000   699.62049     -6299187.3      197.44115      197.44115      197.44115     -372.16997    
   1787000   699.34381     -6299087.4      197.44115      197.44115      197.44115     -366.53076    
   1788000   699.41633     -6299131.4      197.44115      197.44115      197.44115     -251.25015    
   1789000   700.57889     -6299111.9      197.44115      197.44115      197.44115     -364.85159    
   1790000   699.82084     -6299165.4      197.44115      197.44115      197.44115     -490.89636    
   1791000   699.95536     -6299010.1      197.44115      197.44115      197.44115     -267.2248     
   1792000   699.02967     -6299107.1      197.44115      197.44115      197.44115     -315.54611    
   1793000   700.7879      -6299006.8      197.44115      197.44115      197.44115     -349.66468    
   1794000   699.22124     -6299178.5      197.44115      197.44115      197.44115     -529.92706    
   1795000   699.36859     -6299185.9      197.44115      197.44115      197.44115     -348.58179    
   1796000   699.46249     -6299139.6      197.44115      197.44115      197.44115     -272.83716    
   1797000   700.51016     -6299100.1      197.44115      197.44115      197.44115     -340.44246    
   1798000   701.45114     -6298946.1      197.44115      197.44115      197.44115     -325.50775    
   1799000   700.00702     -6298986        197.44115      197.44115      197.44115     -269.34021    
   1800000   701.72046     -6298990.8      197.44115      197.44115      197.44115     -319.29612    
   1801000   699.51421     -6299205.6      197.44115      197.44115      197.44115     -332.45863    
   1802000   699.70347     -6299225.5      197.44115      197.44115      197.44115     -406.3364     
   1803000   700.81785     -6298928.4      197.44115      197.44115      197.44115     -142.7028     
   1804000   698.7841      -6299095.4      197.44115      197.44115      197.44115     -293.91565    
   1805000   700.40492     -6299071.5      197.44115      197.44115      197.44115     -350.30787    
   1806000   700.26453     -6299054.6      197.44115      197.44115      197.44115     -269.70814    
   1807000   698.35046     -6299194.2      197.44115      197.44115      197.44115     -285.20612    
   1808000   700.81377     -6299091.9      197.44115      197.44115      197.44115     -269.51067    
   1809000   700.60104     -6298997.2      197.44115      197.44115      197.44115     -90.621179    
   1810000   699.19636     -6299191.3      197.44115      197.44115      197.44115     -350.43657    
   1811000   699.07136     -6299136.4      197.44115      197.44115      197.44115     -172.28968    
   1812000   701.34677     -6298932.8      197.44115      197.44115      197.44115     -204.51135    
   1813000   699.95606     -6299174.8      197.44115      197.44115      197.44115     -283.69354    
   1814000   700.34106     -6299040.6      197.44115      197.44115      197.44115     -338.68943    
   1815000   699.53629     -6299084.3      197.44115      197.44115      197.44115     -399.11111    
   1816000   701.00473     -6299036.1      197.44115      197.44115      197.44115     -144.72576    
   1817000   699.29552     -6299142.7      197.44115      197.44115      197.44115     -217.58435    
   1818000   699.24146     -6299193.3      197.44115      197.44115      197.44115     -243.10389    
   1819000   698.51407     -6299214        197.44115      197.44115      197.44115     -503.48606    
   1820000   700.72846     -6299006.5      197.44115      197.44115      197.44115     -203.14179    
   1821000   698.55638     -6299102.8      197.44115      197.44115      197.44115     -368.42577    
   1822000   700.70045     -6299018.3      197.44115      197.44115      197.44115     -223.5055     
   1823000   699.98685     -6299066.4      197.44115      197.44115      197.44115     -262.95941    
   1824000   699.17395     -6299104.7      197.44115      197.44115      197.44115     -303.68286    
   1825000   700.53307     -6299069.3      197.44115      197.44115      197.44115     -313.76595    
   1826000   701.85059     -6298945.1      197.44115      197.44115      197.44115     -297.20452    
   1827000   699.87458     -6299129.7      197.44115      197.44115      197.44115     -274.07354    
   1828000   701.74693     -6298906.6      197.44115      197.44115      197.44115     -200.88081    
   1829000   700.71204     -6299056        197.44115      197.44115      197.44115     -259.5192     
   1830000   699.32301     -6299112.4      197.44115      197.44115      197.44115     -220.60405    
   1831000   701.09931     -6298995.5      197.44115      197.44115      197.44115     -386.82605    
   1832000   700.87558     -6298966.5      197.44115      197.44115      197.44115     -368.86483    
   1833000   700.57571     -6299065.7      197.44115      197.44115      197.44115     -356.38906    
   1834000   700.53452     -6299154.3      197.44115      197.44115      197.44115     -370.85482    
   1835000   700.1117      -6299069.8      197.44115      197.44115      197.44115     -358.50559    
   1836000   698.57549     -6299162.7      197.44115      197.44115      197.44115     -400.33991    
   1837000   699.69751     -6299062        197.44115      197.44115      197.44115     -268.62097    
   1838000   699.6446      -6299107.3      197.44115      197.44115      197.44115     -286.23147    
   1839000   700.2557      -6299109.8      197.44115      197.44115      197.44115     -245.55711    
   1840000   700.7079      -6298968.1      197.44115      197.44115      197.44115     -158.49157    
   1841000   699.21        -6299143.1      197.44115      197.44115      197.44115     -366.31938    
   1842000   699.22801     -6299076.5      197.44115      197.44115      197.44115     -262.68656    
   1843000   700.18683     -6299081.9      197.44115      197.44115      197.44115     -212.1801     
   1844000   699.96575     -6299119.7      197.44115      197.44115      197.44115     -330.98226    
   1845000   701.68702     -6298911.1      197.44115      197.44115      197.44115     -251.61322    
   1846000   698.69908     -6299093.5      197.44115      197.44115      197.44115     -260.00513    
   1847000   701.24299     -6299013.4      197.44115      197.44115      197.44115     -333.58674    
   1848000   699.27637     -6299266.9      197.44115      197.44115      197.44115     -245.81115    
   1849000   701.13222     -6298978.8      197.44115      197.44115      197.44115     -213.45084    
   1850000   699.91702     -6299142.9      197.44115      197.44115      197.44115     -311.59512    
   1851000   700.36632     -6299147.1      197.44115      197.44115      197.44115     -300.17454    
   1852000   701.49558     -6298946.1      197.44115      197.44115      197.44115     -308.04095    
   1853000   700.18378     -6298973.3      197.44115      197.44115      197.44115     -122.33701    
   1854000   698.40824     -6299210.9      197.44115      197.44115      197.44115     -313.76147    
   1855000   699.62191     -6299183.3      197.44115      197.44115      197.44115     -189.94104    
   1856000   701.01109     -6298973.2      197.44115      197.44115      197.44115     -222.42846    
   1857000   699.38916     -6299125.1      197.44115      197.44115      197.44115     -207.28724    
   1858000   698.95633     -6299147.9      197.44115      197.44115      197.44115     -225.35777    
   1859000   700.55962     -6298983.7      197.44115      197.44115      197.44115     -162.20624    
   1860000   700.20785     -6299175.9      197.44115      197.44115      197.44115     -400.22106    
   1861000   701.2415      -6299018        197.44115      197.44115      197.44115     -317.49613    
   1862000   700.71337     -6299093.3      197.44115      197.44115      197.44115     -325.58011    
   1863000   699.64017     -6299105.6      197.44115      197.44115      197.44115     -459.87731    
   1864000   701.09724     -6298973.9      197.44115      197.44115      197.44115     -218.69954    
   1865000   698.71803     -6299187.4      197.44115      197.44115      197.44115     -238.41066    
   1866000   700.73333     -6299006.3      197.44115      197.44115      197.44115     -279.01178    
   1867000   700.83866     -6299001.1      197.44115      197.44115      197.44115     -307.14325    
   1868000   700.08848     -6299098.9      197.44115      197.44115      197.44115     -351.13692    
   1869000   699.69034     -6299190.6      197.44115      197.44115      197.44115     -267.9018     
   1870000   699.47386     -6299186        197.44115      197.44115      197.44115     -317.57306    
   1871000   699.74081     -6299135.1      197.44115      197.44115      197.44115     -262.97721    
   1872000   700.72212     -6298965.8      197.44115      197.44115      197.44115     -383.48636    
   1873000   700.08672     -6299098        197.44115      197.44115      197.44115     -329.89907    
   1874000   700.16375     -6299176.1      197.44115      197.44115      197.44115     -365.79962    
   1875000   700.66355     -6299042.3      197.44115      197.44115      197.44115     -226.13299    
   1876000   699.87275     -6299060.4      197.44115      197.44115      197.44115     -350.68512    
   1877000   699.86289     -6299162.4      197.44115      197.44115      197.44115     -405.80412    
   1878000   700.01611     -6299046.7      197.44115      197.44115      197.44115     -438.05013    
   1879000   700.92029     -6298994.1      197.44115      197.44115      197.44115     -415.12283    
   1880000   700.60786     -6299027.1      197.44115      197.44115      197.44115     -251.25158    
   1881000   700.98323     -6299056.8      197.44115      197.44115      197.44115     -473.12345    
   1882000   699.06469     -6299194.2      197.44115      197.44115      197.44115     -319.72294    
   1883000   699.53311     -6299045.6      197.44115      197.44115      197.44115     -312.7148     
   1884000   699.784       -6299052        197.44115      197.44115      197.44115     -259.63138    
   1885000   701.44362     -6299035.4      197.44115      197.44115      197.44115     -480.23319    
   1886000   699.88185     -6299169.4      197.44115      197.44115      197.44115     -216.21541    
   1887000   700.03498     -6299161.9      197.44115      197.44115      197.44115     -495.40735    
   1888000   699.82645     -6299134.1      197.44115      197.44115      197.44115     -277.38044    
   1889000   700.87411     -6299079.8      197.44115      197.44115      197.44115     -353.84079    
   1890000   700.92722     -6299066.7      197.44115      197.44115      197.44115     -419.34362    
   1891000   700.59997     -6299006.4      197.44115      197.44115      197.44115     -363.59296    
   1892000   700.15824     -6299165        197.44115      197.44115      197.44115     -331.87719    
   1893000   701.61182     -6298945.8      197.44115      197.44115      197.44115     -146.26526    
   1894000   700.99684     -6299020.3      197.44115      197.44115      197.44115     -306.18062    
   1895000   699.52564     -6299177.7      197.44115      197.44115      197.44115     -374.30411    
   1896000   699.96736     -6299037.5      197.44115      197.44115      197.44115     -312.89475    
   1897000   700.12538     -6299007.8      197.44115      197.44115      197.44115     -363.87856    
   1898000   699.7156      -6299113.9      197.44115      197.44115      197.44115     -246.36104    
   1899000   699.80327     -6299065.7      197.44115      197.44115      197.44115     -166.02809    
   1900000   700.38996     -6299096.4      197.44115      197.44115      197.44115     -366.32433    
   1901000   698.86808     -6299279        197.44115      197.44115      197.44115     -524.37011    
   1902000   698.8303      -6299091.3      197.44115      197.44115      197.44115     -259.93671    
   1903000   700.73933     -6299021.9      197.44115      197.44115      197.44115     -300.73054    
   1904000   700.15145     -6298912.8      197.44115      197.44115      197.44115     -165.35449    
   1905000   699.99627     -6299079        197.44115      197.44115      197.44115     -325.85611    
   1906000   700.87854     -6298997.9      197.44115      197.44115      197.44115     -272.30212    
   1907000   701.07467     -6299087        197.44115      197.44115      197.44115     -274.41343    
   1908000   698.64922     -6299072.4      197.44115      197.44115      197.44115     -293.69688    
   1909000   699.54904     -6299071.5      197.44115      197.44115      197.44115     -92.05924     
   1910000   700.04996     -6299081.3      197.44115      197.44115      197.44115     -203.24765    
   1911000   700.25745     -6299038.8      197.44115      197.44115      197.44115     -161.60556    
   1912000   700.07319     -6299072.8      197.44115      197.44115      197.44115     -308.68957    
   1913000   699.43774     -6299193.1      197.44115      197.44115      197.44115     -432.14173    
   1914000   700.59075     -6299079.3      197.44115      197.44115      197.44115     -431.97942    
   1915000   700.69245     -6299073        197.44115      197.44115      197.44115     -272.46811    
   1916000   700.24659     -6299042.8      197.44115      197.44115      197.44115     -242.70043    
   1917000   700.12577     -6299039.8      197.44115      197.44115      197.44115     -350.54226    
   1918000   700.48491     -6299115.2      197.44115      197.44115      197.44115     -158.12612    
   1919000   699.2695      -6299148.2      197.44115      197.44115      197.44115     -374.27894    
   1920000   700.79555     -6299028.5      197.44115      197.44115      197.44115     -251.61514    
   1921000   700.45272     -6299090.9      197.44115      197.44115      197.44115     -390.18476    
   1922000   700.41944     -6299001.4      197.44115      197.44115      197.44115     -208.91333    
   1923000   699.929       -6299094.3      197.44115      197.44115      197.44115     -273.74782    
   1924000   701.60552     -6298873.6      197.44115      197.44115      197.44115     -199.20385    
   1925000   700.56652     -6299059.6      197.44115      197.44115      197.44115     -321.11175    
   1926000   699.34926     -6299172.3      197.44115      197.44115      197.44115     -366.19011    
   1927000   699.33968     -6299138.5      197.44115      197.44115      197.44115     -210.28745    
   1928000   699.94946     -6299237.6      197.44115      197.44115      197.44115     -235.20932    
   1929000   701.05299     -6299075.6      197.44115      197.44115      197.44115     -221.67469    
   1930000   699.33717     -6299180.6      197.44115      197.44115      197.44115     -350.07867    
   1931000   699.79526     -6299148.7      197.44115      197.44115      197.44115     -119.62849    
   1932000   699.82372     -6299201.6      197.44115      197.44115      197.44115     -231.19785    
   1933000   698.58896     -6299285.7      197.44115      197.44115      197.44115     -356.60806    
   1934000   698.3         -6299149.6      197.44115      197.44115      197.44115     -238.1446     
   1935000   698.72613     -6299253.2      197.44115      197.44115      197.44115     -392.27644    
   1936000   699.22951     -6299173.3      197.44115      197.44115      197.44115     -307.65347    
   1937000   700.31162     -6299116.2      197.44115      197.44115      197.44115     -322.76024    
   1938000   700.74201     -6298962.4      197.44115      197.44115      197.44115     -235.16032    
   1939000   700.23889     -6299047.2      197.44115      197.44115      197.44115     -267.45177    
   1940000   701.42505     -6299075.9      197.44115      197.44115      197.44115     -311.26827    
   1941000   699.37356     -6299147.7      197.44115      197.44115      197.44115     -223.79779    
   1942000   699.86828     -6299070.8      197.44115      197.44115      197.44115     -205.82516    
   1943000   700.34456     -6299092.9      197.44115      197.44115      197.44115     -467.18315    
   1944000   698.9374      -6299245.8      197.44115      197.44115      197.44115     -286.33127    
   1945000   699.3091      -6299131.5      197.44115      197.44115      197.44115     -366.60198    
   1946000   699.82398     -6299121.8      197.44115      197.44115      197.44115     -268.48389    
   1947000   701.21939     -6298964.8      197.44115      197.44115      197.44115     -188.08066    
   1948000   700.65445     -6299122.9      197.44115      197.44115      197.44115     -451.25159    
   1949000   699.5213      -6299155.1      197.44115      197.44115      197.44115     -262.02971    
   1950000   698.43036     -6299235.2      197.44115      197.44115      197.44115     -408.96621    
   1951000   700.2864      -6299104.1      197.44115      197.44115      197.44115     -260.3638     
   1952000   700.35784     -6299073.1      197.44115      197.44115      197.44115     -419.9392     
   1953000   699.91926     -6299056.5      197.44115      197.44115      197.44115     -267.75456    
   1954000   699.70934     -6299073.5      197.44115      197.44115      197.44115     -354.93897    
   1955000   700.15158     -6299027.5      197.44115      197.44115      197.44115     -451.07345    
   1956000   700.15839     -6299059.4      197.44115      197.44115      197.44115     -425.21156    
   1957000   698.46594     -6299200.4      197.44115      197.44115      197.44115     -179.25696    
   1958000   700.22346     -6299108.1      197.44115      197.44115      197.44115     -305.97086    
   1959000   701.85017     -6298966.2      197.44115      197.44115      197.44115     -358.91059    
   1960000   699.13508     -6299144.4      197.44115      197.44115      197.44115     -233.79003    
   1961000   700.61991     -6298987.6      197.44115      197.44115      197.44115     -128.08527    
   1962000   700.00865     -6299191.5      197.44115      197.44115      197.44115     -292.39409    
   1963000   699.9323      -6299116.3      197.44115      197.44115      197.44115     -284.85818    
   1964000   700.30977     -6299035.2      197.44115      197.44115      197.44115     -215.50527    
   1965000   701.54027     -6298950        197.44115      197.44115      197.44115     -273.46497    
   1966000   698.91896     -6299095.9      197.44115      197.44115      197.44115     -302.6397     
   1967000   701.08854     -6299033.5      197.44115      197.44115      197.44115     -286.03053    
   1968000   700.36788     -6299188.6      197.44115      197.44115      197.44115     -283.10257    
   1969000   701.57864     -6298906.7      197.44115      197.44115      197.44115     -368.64058    
   1970000   699.87624     -6299094.3      197.44115      197.44115      197.44115     -257.23261    
   1971000   699.35288     -6299160.5      197.44115      197.44115      197.44115     -334.35075    
   1972000   701.14534     -6299019.9      197.44115      197.44115      197.44115     -280.50154    
   1973000   699.41913     -6299127.3      197.44115      197.44115      197.44115     -368.5567     
   1974000   699.57631     -6299120.5      197.44115      197.44115      197.44115     -298.99606    
   1975000   700.5212      -6299090        197.44115      197.44115      197.44115     -474.4438     
   1976000   700.0043      -6299011.7      197.44115      197.44115      197.44115     -286.58081    
   1977000   700.53133     -6299014.9      197.44115      197.44115      197.44115     -323.99124    
   1978000   698.51731     -6299220.1      197.44115      197.44115      197.44115     -388.47354    
   1979000   700.37999     -6299198.3      197.44115      197.44115      197.44115     -341.04121    
   1980000   700.85566     -6299070.8      197.44115      197.44115      197.44115     -255.48533    
   1981000   700.32        -6299062.9      197.44115      197.44115      197.44115     -371.36295    
   1982000   701.14733     -6299064.5      197.44115      197.44115      197.44115     -326.28552    
   1983000   700.19891     -6299141.9      197.44115      197.44115      197.44115     -345.36831    
   1984000   699.5912      -6299066.2      197.44115      197.44115      197.44115     -187.45595    
   1985000   699.99128     -6299040        197.44115      197.44115      197.44115     -356.76217    
   1986000   699.54929     -6299085.9      197.44115      197.44115      197.44115     -205.8267     
   1987000   700.44286     -6299085.1      197.44115      197.44115      197.44115     -251.33346    
   1988000   700.30485     -6299063.4      197.44115      197.44115      197.44115     -354.27048    
   1989000   699.94718     -6299177.9      197.44115      197.44115      197.44115     -387.45313    
   1990000   700.1612      -6299159.8      197.44115      197.44115      197.44115     -311.1629     
   1991000   699.0653      -6299187.8      197.44115      197.44115      197.44115     -435.79385    
   1992000   700.50221     -6299101.1      197.44115      197.44115      197.44115     -298.63431    
   1993000   699.76984     -6299123.7      197.44115      197.44115      197.44115     -196.11286    
   1994000   700.1308      -6299116.2      197.44115      197.44115      197.44115     -335.97706    
   1995000   699.75032     -6299169.2      197.44115      197.44115      197.44115     -228.13785    
   1996000   700.27787     -6299153.7      197.44115      197.44115      197.44115     -414.42008    
   1997000   700.32742     -6299068.9      197.44115      197.44115      197.44115     -250.20306    
   1998000   699.49778     -6299053.8      197.44115      197.44115      197.44115     -237.68539    
   1999000   700.85102     -6298925.9      197.44115      197.44115      197.44115     -187.58275    
   2000000   699.23721     -6299064.2      197.44115      197.44115      197.44115     -403.62609    
   2001000   699.67996     -6299194.8      197.44115      197.44115      197.44115     -380.1494     
   2002000   699.11038     -6299175.6      197.44115      197.44115      197.44115     -347.14296    
   2003000   699.7214      -6299109.7      197.44115      197.44115      197.44115     -327.09408    
   2004000   699.2317      -6299147        197.44115      197.44115      197.44115     -370.98448    
   2005000   699.39554     -6299145        197.44115      197.44115      197.44115     -241.98758    
   2006000   700.81351     -6299041.1      197.44115      197.44115      197.44115     -321.15468    
   2007000   700.3377      -6299055.3      197.44115      197.44115      197.44115     -312.86882    
   2008000   698.63827     -6299045.9      197.44115      197.44115      197.44115     -148.82667    
   2009000   699.82741     -6299073.4      197.44115      197.44115      197.44115     -404.75763    
   2010000   698.73124     -6299075.4      197.44115      197.44115      197.44115     -304.59766    
   2011000   699.27078     -6299086.8      197.44115      197.44115      197.44115     -324.58477    
   2012000   699.72947     -6299097.4      197.44115      197.44115      197.44115     -402.38299    
   2013000   700.54063     -6299026.4      197.44115      197.44115      197.44115     -290.64973    
   2014000   698.99161     -6299229        197.44115      197.44115      197.44115     -308.5923     
   2015000   700.51715     -6299008.4      197.44115      197.44115      197.44115     -297.13347    
   2016000   700.37581     -6299129.1      197.44115      197.44115      197.44115     -249.53747    
   2017000   699.30452     -6299190.8      197.44115      197.44115      197.44115     -389.65079    
   2018000   699.99378     -6299171.1      197.44115      197.44115      197.44115     -344.37835    
   2019000   699.83219     -6299038.8      197.44115      197.44115      197.44115     -344.6919     
   2020000   700.17765     -6298998.6      197.44115      197.44115      197.44115     -269.00091    
   2021000   699.31801     -6299286.2      197.44115      197.44115      197.44115     -258.85605    
   2022000   700.07289     -6299036.9      197.44115      197.44115      197.44115     -162.99996    
   2023000   699.90608     -6299153.8      197.44115      197.44115      197.44115     -113.42452    
   2024000   698.64118     -6299176.8      197.44115      197.44115      197.44115     -218.45245    
   2025000   700.3032      -6299176.7      197.44115      197.44115      197.44115     -177.59593    
   2026000   699.84473     -6299176.7      197.44115      197.44115      197.44115     -252.03242    
   2027000   701.01082     -6299104.5      197.44115      197.44115      197.44115     -252.11523    
   2028000   700.23705     -6299174.6      197.44115      197.44115      197.44115     -304.12503    
   2029000   699.67657     -6299230        197.44115      197.44115      197.44115     -346.66431    
   2030000   700.47565     -6298995        197.44115      197.44115      197.44115     -301.15357    
   2031000   699.60994     -6299064.7      197.44115      197.44115      197.44115     -165.97233    
   2032000   700.14085     -6299032.9      197.44115      197.44115      197.44115     -271.15673    
   2033000   700.42235     -6299136.2      197.44115      197.44115      197.44115     -202.74641    
   2034000   699.2282      -6299159.7      197.44115      197.44115      197.44115     -170.20074    
   2035000   700.12068     -6299060.1      197.44115      197.44115      197.44115     -315.37348    
   2036000   699.4757      -6299156.3      197.44115      197.44115      197.44115     -214.55793    
   2037000   700.60995     -6299018.2      197.44115      197.44115      197.44115     -290.63881    
   2038000   701.11068     -6299006.8      197.44115      197.44115      197.44115     -361.73118    
   2039000   698.74037     -6299250.7      197.44115      197.44115      197.44115     -205.7455     
   2040000   700.3194      -6299095.5      197.44115      197.44115      197.44115     -246.79995    
   2041000   700.54139     -6299086.9      197.44115      197.44115      197.44115     -357.84998    
   2042000   700.26736     -6299031.2      197.44115      197.44115      197.44115     -269.39822    
   2043000   701.251       -6299020.9      197.44115      197.44115      197.44115     -394.35245    
   2044000   699.65101     -6299068.2      197.44115      197.44115      197.44115     -61.66076     
   2045000   700.60784     -6299029.2      197.44115      197.44115      197.44115     -166.59715    
   2046000   699.98424     -6299120.2      197.44115      197.44115      197.44115     -363.74486    
   2047000   699.71942     -6299193.5      197.44115      197.44115      197.44115     -260.85791    
   2048000   699.74381     -6299206.7      197.44115      197.44115      197.44115     -272.02928    
   2049000   702.92223     -6298921.7      197.44115      197.44115      197.44115     -156.1513     
   2050000   699.49626     -6299133.5      197.44115      197.44115      197.44115     -199.52721    
   2051000   700.92758     -6299044.8      197.44115      197.44115      197.44115     -222.9506     
   2052000   700.96881     -6299112.3      197.44115      197.44115      197.44115     -203.95691    
   2053000   700.04579     -6299088.3      197.44115      197.44115      197.44115     -278.65146    
   2054000   699.70998     -6299093.5      197.44115      197.44115      197.44115     -281.46903    
   2055000   700.26297     -6299180.6      197.44115      197.44115      197.44115     -279.53409    
   2056000   699.67993     -6299124.4      197.44115      197.44115      197.44115     -335.25208    
   2057000   698.81097     -6299153.3      197.44115      197.44115      197.44115     -282.31306    
   2058000   698.46244     -6299210.9      197.44115      197.44115      197.44115     -344.36035    
   2059000   699.01461     -6299140.7      197.44115      197.44115      197.44115     -229.48173    
   2060000   698.55307     -6299225.6      197.44115      197.44115      197.44115     -339.95268    
   2061000   700.97445     -6299023.3      197.44115      197.44115      197.44115     -401.72957    
   2062000   701.02481     -6299131.9      197.44115      197.44115      197.44115     -281.58316    
   2063000   699.46879     -6299147.9      197.44115      197.44115      197.44115     -210.52864    
   2064000   699.32895     -6299185.1      197.44115      197.44115      197.44115     -296.95127    
   2065000   700.07791     -6299181.6      197.44115      197.44115      197.44115     -392.73082    
   2066000   699.47087     -6299159.2      197.44115      197.44115      197.44115     -316.73694    
   2067000   700.46122     -6299121.5      197.44115      197.44115      197.44115     -332.0564     
   2068000   701.02486     -6299006.9      197.44115      197.44115      197.44115     -345.55297    
   2069000   698.89034     -6299188.9      197.44115      197.44115      197.44115     -312.7122     
   2070000   698.71213     -6299186.7      197.44115      197.44115      197.44115     -380.10618    
   2071000   699.93232     -6299021        197.44115      197.44115      197.44115     -132.0901     
   2072000   700.38744     -6299041.5      197.44115      197.44115      197.44115     -226.86098    
   2073000   700.40149     -6299117.3      197.44115      197.44115      197.44115     -226.43743    
   2074000   700.38375     -6299007.3      197.44115      197.44115      197.44115     -256.88866    
   2075000   699.7916      -6299040.5      197.44115      197.44115      197.44115     -222.15011    
   2076000   699.67547     -6299204.3      197.44115      197.44115      197.44115     -363.74831    
   2077000   700.49697     -6299168.5      197.44115      197.44115      197.44115     -272.84441    
   2078000   699.74897     -6299202.2      197.44115      197.44115      197.44115     -372.9204     
   2079000   698.9974      -6299189.4      197.44115      197.44115      197.44115     -253.23307    
   2080000   699.62231     -6299109.4      197.44115      197.44115      197.44115     -333.59529    
   2081000   699.51794     -6299115        197.44115      197.44115      197.44115     -224.44546    
   2082000   699.92742     -6299134.1      197.44115      197.44115      197.44115     -244.19326    
   2083000   699.97663     -6299024.2      197.44115      197.44115      197.44115     -207.18939    
   2084000   699.59429     -6299057.3      197.44115      197.44115      197.44115     -160.04811    
   2085000   699.03435     -6299287.3      197.44115      197.44115      197.44115     -295.03904    
   2086000   701.07022     -6299185.8      197.44115      197.44115      197.44115     -431.09387    
   2087000   700.85256     -6299065.2      197.44115      197.44115      197.44115     -259.43834    
   2088000   700.30445     -6299045        197.44115      197.44115      197.44115     -251.64066    
   2089000   699.91456     -6299179.7      197.44115      197.44115      197.44115     -293.01294    
   2090000   700.76966     -6299023.1      197.44115      197.44115      197.44115     -277.70855    
   2091000   699.68656     -6299090.9      197.44115      197.44115      197.44115     -103.06943    
   2092000   699.39836     -6299102.5      197.44115      197.44115      197.44115     -307.55739    
   2093000   699.58084     -6299144.5      197.44115      197.44115      197.44115     -286.80929    
   2094000   700.74808     -6299039.2      197.44115      197.44115      197.44115     -283.13371    
   2095000   699.16249     -6299158.8      197.44115      197.44115      197.44115     -306.78762    
   2096000   700.18064     -6299107.8      197.44115      197.44115      197.44115     -184.93203    
   2097000   699.93965     -6299062.8      197.44115      197.44115      197.44115     -143.69098    
   2098000   700.1653      -6299151.7      197.44115      197.44115      197.44115     -173.01736    
   2099000   699.89426     -6299143.9      197.44115      197.44115      197.44115     -272.77741    
   2100000   699.5454      -6299123.7      197.44115      197.44115      197.44115     -197.5795     
   2101000   700.04197     -6299117.8      197.44115      197.44115      197.44115     -277.66106    
   2102000   699.23235     -6299130.1      197.44115      197.44115      197.44115     -264.32506    
   2103000   700.39686     -6299082.9      197.44115      197.44115      197.44115     -283.54422    
   2104000   701.19422     -6299081.9      197.44115      197.44115      197.44115     -360.36782    
   2105000   700.97927     -6299046.1      197.44115      197.44115      197.44115     -234.86918    
   2106000   701.00603     -6299070.1      197.44115      197.44115      197.44115     -244.12967    
   2107000   699.88955     -6299159        197.44115      197.44115      197.44115     -401.6229     
   2108000   698.67247     -6299264.2      197.44115      197.44115      197.44115     -345.03178    
   2109000   699.62588     -6299102.4      197.44115      197.44115      197.44115     -333.73875    
   2110000   699.66842     -6299217.4      197.44115      197.44115      197.44115     -140.23579    
   2111000   699.96012     -6299134.2      197.44115      197.44115      197.44115     -325.6924     
   2112000   699.12983     -6299187        197.44115      197.44115      197.44115     -221.09682    
   2113000   700.00035     -6299143.5      197.44115      197.44115      197.44115     -256.09101    
   2114000   699.90671     -6299126.2      197.44115      197.44115      197.44115     -184.02629    
   2115000   699.15449     -6299174.9      197.44115      197.44115      197.44115     -347.09952    
   2116000   701.35334     -6299056.3      197.44115      197.44115      197.44115     -233.46191    
   2117000   700.24284     -6299099.9      197.44115      197.44115      197.44115     -386.06845    
   2118000   700.59433     -6299063.9      197.44115      197.44115      197.44115     -258.92362    
   2119000   698.87365     -6299294.7      197.44115      197.44115      197.44115     -310.86193    
   2120000   699.56837     -6299157.4      197.44115      197.44115      197.44115     -230.11644    
   2121000   701.72485     -6299021.4      197.44115      197.44115      197.44115     -171.15783    
   2122000   700.79166     -6299045.3      197.44115      197.44115      197.44115     -367.74055    
   2123000   702.53998     -6298976.1      197.44115      197.44115      197.44115     -187.56618    
   2124000   700.02783     -6298997.7      197.44115      197.44115      197.44115     -269.1128     
   2125000   699.61322     -6299185.3      197.44115      197.44115      197.44115     -340.6255     
   2126000   700.03335     -6299058.7      197.44115      197.44115      197.44115     -214.05921    
   2127000   702.09199     -6298882.9      197.44115      197.44115      197.44115     -170.38736    
   2128000   699.19409     -6299148.3      197.44115      197.44115      197.44115     -201.83726    
   2129000   700.07761     -6299128.1      197.44115      197.44115      197.44115     -469.50067    
   2130000   700.68823     -6299015.2      197.44115      197.44115      197.44115     -179.26314    
   2131000   700.17844     -6299121.4      197.44115      197.44115      197.44115     -256.25961    
   2132000   699.64207     -6299043        197.44115      197.44115      197.44115     -469.17242    
   2133000   699.72591     -6299163.1      197.44115      197.44115      197.44115     -339.8037     
   2134000   699.45891     -6299189.8      197.44115      197.44115      197.44115     -351.28871    
   2135000   700.01122     -6299041.4      197.44115      197.44115      197.44115     -286.15611    
   2136000   701.14135     -6299066.1      197.44115      197.44115      197.44115     -272.36536    
   2137000   699.57188     -6299114.9      197.44115      197.44115      197.44115     -305.07722    
   2138000   699.93399     -6299137.8      197.44115      197.44115      197.44115     -364.04105    
   2139000   700.48299     -6298955.3      197.44115      197.44115      197.44115     -221.64609    
   2140000   700.15794     -6299099.1      197.44115      197.44115      197.44115     -331.34361    
   2141000   698.72079     -6299098.7      197.44115      197.44115      197.44115     -262.78542    
   2142000   698.6648      -6299228.3      197.44115      197.44115      197.44115     -454.35102    
   2143000   700.74821     -6299046.6      197.44115      197.44115      197.44115     -266.14016    
   2144000   698.66232     -6299309.8      197.44115      197.44115      197.44115     -296.29558    
   2145000   700.23173     -6299054.1      197.44115      197.44115      197.44115     -270.81561    
   2146000   699.26334     -6299105.8      197.44115      197.44115      197.44115     -281.60618    
   2147000   700.82785     -6299052.7      197.44115      197.44115      197.44115     -395.50153    
   2148000   701.99837     -6298962.5      197.44115      197.44115      197.44115     -206.70019    
   2149000   700.45712     -6299086.3      197.44115      197.44115      197.44115     -282.19971    
   2150000   700.92653     -6298956.8      197.44115      197.44115      197.44115     -186.43893    
   2151000   700.2402      -6299141.3      197.44115      197.44115      197.44115     -279.18729    
   2152000   701.09634     -6299030.6      197.44115      197.44115      197.44115     -408.64567    
   2153000   700.84167     -6299150.9      197.44115      197.44115      197.44115     -380.90177    
   2154000   698.85368     -6299147.6      197.44115      197.44115      197.44115     -436.14334    
   2155000   699.5503      -6299176.8      197.44115      197.44115      197.44115     -465.32883    
   2156000   700.40842     -6299020.7      197.44115      197.44115      197.44115     -221.80993    
   2157000   699.92128     -6299196.2      197.44115      197.44115      197.44115     -254.03741    
   2158000   699.77088     -6299076.9      197.44115      197.44115      197.44115     -306.8417     
   2159000   699.26031     -6299210.4      197.44115      197.44115      197.44115     -390.56358    
   2160000   699.86873     -6299061.5      197.44115      197.44115      197.44115     -364.01941    
   2161000   699.84826     -6299144.4      197.44115      197.44115      197.44115     -414.33443    
   2162000   700.48716     -6299088.9      197.44115      197.44115      197.44115     -344.36582    
   2163000   699.12939     -6299163.6      197.44115      197.44115      197.44115     -276.70397    
   2164000   699.35504     -6299140.9      197.44115      197.44115      197.44115     -409.02143    
   2165000   700.48553     -6299208.4      197.44115      197.44115      197.44115     -228.05958    
   2166000   699.52263     -6299142.6      197.44115      197.44115      197.44115     -347.27831    
   2167000   699.79675     -6299199.2      197.44115      197.44115      197.44115     -295.24386    
   2168000   699.66546     -6299076.6      197.44115      197.44115      197.44115     -357.20316    
   2169000   698.52178     -6299196        197.44115      197.44115      197.44115     -250.67602    
   2170000   700.14732     -6299178.9      197.44115      197.44115      197.44115     -296.85123    
   2171000   699.94375     -6299082.7      197.44115      197.44115      197.44115     -206.41515    
   2172000   700.56696     -6299085.2      197.44115      197.44115      197.44115     -371.30216    
   2173000   699.64353     -6299224.7      197.44115      197.44115      197.44115     -419.09661    
   2174000   700.2426      -6299090        197.44115      197.44115      197.44115     -309.25642    
   2175000   700.35379     -6298999.1      197.44115      197.44115      197.44115     -401.29013    
   2176000   699.34208     -6299171.1      197.44115      197.44115      197.44115     -369.03821    
   2177000   699.44891     -6299213.1      197.44115      197.44115      197.44115     -467.3985     
   2178000   700.77405     -6299134        197.44115      197.44115      197.44115     -459.22181    
   2179000   700.62451     -6299110.5      197.44115      197.44115      197.44115     -405.33535    
   2180000   699.43837     -6299237.7      197.44115      197.44115      197.44115     -296.61133    
   2181000   698.42793     -6299217.6      197.44115      197.44115      197.44115     -427.50196    
   2182000   700.57542     -6299085.9      197.44115      197.44115      197.44115     -202.96015    
   2183000   700.07547     -6299037.5      197.44115      197.44115      197.44115     -321.92675    
   2184000   700.10171     -6299105.5      197.44115      197.44115      197.44115     -231.06068    
   2185000   700.36846     -6299102.3      197.44115      197.44115      197.44115     -327.7096     
   2186000   699.75296     -6299075.3      197.44115      197.44115      197.44115     -392.48449    
   2187000   700.97745     -6299030.4      197.44115      197.44115      197.44115     -281.14084    
   2188000   698.29388     -6299220.9      197.44115      197.44115      197.44115     -226.31919    
   2189000   700.42864     -6299001        197.44115      197.44115      197.44115     -317.4391     
   2190000   700.16389     -6299089.3      197.44115      197.44115      197.44115     -320.02469    
   2191000   700.63563     -6299025.2      197.44115      197.44115      197.44115     -350.41568    
   2192000   699.88195     -6299026.8      197.44115      197.44115      197.44115     -140.07484    
   2193000   700.12079     -6299118.6      197.44115      197.44115      197.44115     -340.20256    
   2194000   698.85665     -6299185.9      197.44115      197.44115      197.44115     -270.38344    
   2195000   700.26958     -6299040.4      197.44115      197.44115      197.44115     -312.58083    
   2196000   700.81903     -6299132.4      197.44115      197.44115      197.44115     -325.90968    
   2197000   700.56442     -6299098.2      197.44115      197.44115      197.44115     -366.01118    
   2198000   699.01003     -6299066.7      197.44115      197.44115      197.44115     -171.52807    
   2199000   699.51677     -6299163.6      197.44115      197.44115      197.44115     -292.10902    
   2200000   700.68594     -6299011        197.44115      197.44115      197.44115     -236.64638    
   2201000   700.84023     -6299068.9      197.44115      197.44115      197.44115     -307.41915    
   2202000   699.85051     -6299236.5      197.44115      197.44115      197.44115     -379.81929    
   2203000   701.22686     -6299036.6      197.44115      197.44115      197.44115     -391.04238    
   2204000   699.41325     -6299072        197.44115      197.44115      197.44115     -374.73155    
   2205000   699.99556     -6299178.3      197.44115      197.44115      197.44115     -296.93627    
   2206000   700.15422     -6299186.7      197.44115      197.44115      197.44115     -229.82021    
   2207000   699.18967     -6299189        197.44115      197.44115      197.44115     -263.78778    
   2208000   700.09859     -6299107.6      197.44115      197.44115      197.44115     -263.23317    
   2209000   700.95164     -6299077.1      197.44115      197.44115      197.44115     -244.98439    
   2210000   699.06634     -6299233.8      197.44115      197.44115      197.44115     -353.41012    
   2211000   699.65044     -6299176        197.44115      197.44115      197.44115     -286.84647    
   2212000   700.24343     -6299164.4      197.44115      197.44115      197.44115     -335.11649    
   2213000   699.77277     -6299145.8      197.44115      197.44115      197.44115     -288.81274    
   2214000   699.82866     -6299273.3      197.44115      197.44115      197.44115     -323.95756    
   2215000   700.80395     -6299006        197.44115      197.44115      197.44115     -208.41207    
   2216000   699.54999     -6299246.7      197.44115      197.44115      197.44115     -260.63835    
   2217000   700.08602     -6298992.2      197.44115      197.44115      197.44115     -365.08466    
   2218000   698.8614      -6299156.9      197.44115      197.44115      197.44115     -227.16448    
   2219000   699.17766     -6299113.5      197.44115      197.44115      197.44115     -259.57225    
   2220000   701.95796     -6298955.6      197.44115      197.44115      197.44115     -146.45589    
   2221000   699.20483     -6299176.6      197.44115      197.44115      197.44115     -370.66873    
   2222000   700.57943     -6299056.2      197.44115      197.44115      197.44115     -318.13572    
   2223000   701.09438     -6299078.5      197.44115      197.44115      197.44115     -237.42395    
   2224000   700.25761     -6299077.3      197.44115      197.44115      197.44115     -261.06051    
   2225000   698.9027      -6299184        197.44115      197.44115      197.44115     -265.68866    
   2226000   701.10903     -6299092.9      197.44115      197.44115      197.44115     -291.1991     
   2227000   700.64008     -6299108.1      197.44115      197.44115      197.44115     -206.59541    
   2228000   700.87193     -6299080.4      197.44115      197.44115      197.44115     -429.12866    
   2229000   701.91282     -6298965.8      197.44115      197.44115      197.44115     -233.01       
   2230000   699.55378     -6299136.7      197.44115      197.44115      197.44115     -256.62741    
   2231000   699.57015     -6299089.8      197.44115      197.44115      197.44115     -298.02428    
   2232000   700.36956     -6299009.8      197.44115      197.44115      197.44115     -221.31785    
   2233000   699.41213     -6299109        197.44115      197.44115      197.44115     -300.23984    
   2234000   700.20378     -6299094.6      197.44115      197.44115      197.44115     -275.44314    
   2235000   700.15544     -6299020.9      197.44115      197.44115      197.44115     -393.48996    
   2236000   699.64036     -6299214.4      197.44115      197.44115      197.44115     -388.6429     
   2237000   699.76973     -6299162.6      197.44115      197.44115      197.44115     -249.84436    
   2238000   700.238       -6299041.3      197.44115      197.44115      197.44115     -198.66682    
   2239000   700.71337     -6299033        197.44115      197.44115      197.44115     -160.60095    
   2240000   701.36116     -6298978.3      197.44115      197.44115      197.44115     -245.14039    
   2241000   699.20913     -6299133.8      197.44115      197.44115      197.44115     -380.81851    
   2242000   699.92111     -6299088        197.44115      197.44115      197.44115     -173.96341    
   2243000   698.59683     -6299172        197.44115      197.44115      197.44115     -346.93247    
   2244000   699.38614     -6299214.9      197.44115      197.44115      197.44115     -339.11445    
   2245000   699.87932     -6299037.9      197.44115      197.44115      197.44115     -392.56567    
   2246000   699.26282     -6299183.8      197.44115      197.44115      197.44115     -395.39129    
   2247000   699.99729     -6299059.2      197.44115      197.44115      197.44115     -443.63153    
   2248000   700.02312     -6299116.3      197.44115      197.44115      197.44115     -337.83797    
   2249000   699.42577     -6299248.6      197.44115      197.44115      197.44115     -377.75827    
   2250000   700.92687     -6299083.6      197.44115      197.44115      197.44115     -336.79371    
   2251000   699.32787     -6299322.4      197.44115      197.44115      197.44115     -367.82548    
   2252000   700.86198     -6299075.8      197.44115      197.44115      197.44115     -241.10253    
   2253000   700.76342     -6299122.3      197.44115      197.44115      197.44115     -483.67905    
   2254000   700.41302     -6299083.4      197.44115      197.44115      197.44115     -290.40584    
   2255000   700.08087     -6299095        197.44115      197.44115      197.44115     -335.1344     
   2256000   699.52534     -6299129.6      197.44115      197.44115      197.44115     -300.72735    
   2257000   700.17913     -6299042.2      197.44115      197.44115      197.44115     -372.65224    
   2258000   699.93867     -6299114.4      197.44115      197.44115      197.44115     -391.94032    
   2259000   699.48663     -6299031.7      197.44115      197.44115      197.44115     -344.50003    
   2260000   700.76943     -6299090.6      197.44115      197.44115      197.44115     -264.34297    
   2261000   701.33285     -6299026.7      197.44115      197.44115      197.44115     -384.99824    
   2262000   698.72034     -6299221.7      197.44115      197.44115      197.44115     -201.84087    
   2263000   700.51317     -6299112.2      197.44115      197.44115      197.44115     -232.16585    
   2264000   699.64803     -6299206.5      197.44115      197.44115      197.44115     -409.10557    
   2265000   699.41308     -6299096.6      197.44115      197.44115      197.44115     -184.49474    
   2266000   700.4726      -6299093.8      197.44115      197.44115      197.44115     -335.18803    
   2267000   699.93784     -6299101.7      197.44115      197.44115      197.44115     -393.22254    
   2268000   699.09184     -6299197.8      197.44115      197.44115      197.44115     -267.71946    
   2269000   699.89649     -6299147.8      197.44115      197.44115      197.44115     -256.91719    
   2270000   698.57539     -6299241.4      197.44115      197.44115      197.44115     -353.32327    
   2271000   699.92683     -6299125.5      197.44115      197.44115      197.44115     -269.2477     
   2272000   699.84582     -6299113.5      197.44115      197.44115      197.44115     -357.58959    
   2273000   700.98302     -6299075.7      197.44115      197.44115      197.44115     -301.46058    
   2274000   700.16909     -6298995.5      197.44115      197.44115      197.44115     -330.20599    
   2275000   700.23039     -6299094.7      197.44115      197.44115      197.44115     -342.91373    
   2276000   700.62744     -6299039.1      197.44115      197.44115      197.44115     -298.37783    
   2277000   701.5444      -6298863.7      197.44115      197.44115      197.44115     -223.87638    
   2278000   699.84949     -6299142.2      197.44115      197.44115      197.44115     -296.44968    
   2279000   698.97257     -6299281.2      197.44115      197.44115      197.44115     -338.20587    
   2280000   700.35896     -6299045.1      197.44115      197.44115      197.44115     -306.63388    
   2281000   700.22975     -6299104.4      197.44115      197.44115      197.44115     -309.22159    
   2282000   699.92179     -6299138.4      197.44115      197.44115      197.44115     -212.20204    
   2283000   700.37248     -6299065.5      197.44115      197.44115      197.44115     -248.71792    
   2284000   699.23684     -6299166        197.44115      197.44115      197.44115     -267.25532    
   2285000   699.22657     -6299160.5      197.44115      197.44115      197.44115     -300.48031    
   2286000   700.44629     -6299014.5      197.44115      197.44115      197.44115     -204.80538    
   2287000   700.10424     -6299076.5      197.44115      197.44115      197.44115     -356.06041    
   2288000   700.25641     -6299147.1      197.44115      197.44115      197.44115     -206.15143    
   2289000   700.48332     -6299040.7      197.44115      197.44115      197.44115     -422.01666    
   2290000   700.54487     -6299070.8      197.44115      197.44115      197.44115     -189.80594    
   2291000   699.5266      -6299143.5      197.44115      197.44115      197.44115     -238.06637    
   2292000   700.15735     -6299135        197.44115      197.44115      197.44115     -310.5488     
   2293000   700.52048     -6299036.1      197.44115      197.44115      197.44115     -221.65127    
   2294000   699.85099     -6299205.7      197.44115      197.44115      197.44115     -297.74804    
   2295000   700.82226     -6299075.4      197.44115      197.44115      197.44115     -292.98581    
   2296000   700.34205     -6299088.9      197.44115      197.44115      197.44115     -171.90301    
   2297000   700.27158     -6299103.6      197.44115      197.44115      197.44115     -335.83343    
   2298000   700.67232     -6299136.6      197.44115      197.44115      197.44115     -371.83288    
   2299000   700.85863     -6299081.4      197.44115      197.44115      197.44115     -237.13621    
   2300000   699.36872     -6299152.5      197.44115      197.44115      197.44115     -202.12592    
   2301000   700.09577     -6299129.3      197.44115      197.44115      197.44115     -345.61078    
   2302000   699.51067     -6299093.9      197.44115      197.44115      197.44115     -300.29592    
   2303000   701.8399      -6298923.5      197.44115      197.44115      197.44115     -290.67762    
   2304000   699.33037     -6299074.7      197.44115      197.44115      197.44115     -272.05594    
   2305000   700.38241     -6299114.4      197.44115      197.44115      197.44115     -343.72136    
   2306000   700.95104     -6299064.2      197.44115      197.44115      197.44115     -455.9941     
   2307000   699.29808     -6299104.2      197.44115      197.44115      197.44115     -397.86453    
   2308000   700.46499     -6299182.1      197.44115      197.44115      197.44115     -401.08247    
   2309000   700.13326     -6299151.2      197.44115      197.44115      197.44115     -316.47859    
   2310000   700.28546     -6299094.3      197.44115      197.44115      197.44115     -401.05435    
   2311000   700.93452     -6299125.3      197.44115      197.44115      197.44115     -455.97896    
   2312000   699.62696     -6299157.1      197.44115      197.44115      197.44115     -416.21827    
   2313000   700.21562     -6299091        197.44115      197.44115      197.44115     -336.64792    
   2314000   699.94018     -6299037.5      197.44115      197.44115      197.44115     -211.63657    
   2315000   699.71942     -6299079.1      197.44115      197.44115      197.44115     -109.62624    
   2316000   700.1375      -6299099.4      197.44115      197.44115      197.44115     -321.35076    
   2317000   698.47667     -6299201.2      197.44115      197.44115      197.44115     -265.80432    
   2318000   701.27807     -6299056.9      197.44115      197.44115      197.44115     -231.86585    
   2319000   700.10292     -6299142.7      197.44115      197.44115      197.44115     -425.67224    
   2320000   700.16288     -6299134.7      197.44115      197.44115      197.44115     -196.58919    
   2321000   700.02804     -6299123        197.44115      197.44115      197.44115     -371.52748    
   2322000   700.91168     -6299014.2      197.44115      197.44115      197.44115     -267.93067    
   2323000   700.35773     -6299015.4      197.44115      197.44115      197.44115     -310.62459    
   2324000   700.08973     -6299132.4      197.44115      197.44115      197.44115     -439.98408    
   2325000   699.91606     -6299102.6      197.44115      197.44115      197.44115     -268.81462    
   2326000   699.88403     -6299206.5      197.44115      197.44115      197.44115     -325.59206    
   2327000   700.96758     -6299182.1      197.44115      197.44115      197.44115     -324.1043     
   2328000   699.5293      -6299210.3      197.44115      197.44115      197.44115     -361.84383    
   2329000   700.04015     -6299134.5      197.44115      197.44115      197.44115     -301.32953    
   2330000   700.19211     -6299176.8      197.44115      197.44115      197.44115     -416.95725    
   2331000   699.13        -6299312.4      197.44115      197.44115      197.44115     -332.46659    
   2332000   699.94684     -6299112        197.44115      197.44115      197.44115     -244.29977    
   2333000   700.32474     -6299216.4      197.44115      197.44115      197.44115     -341.4376     
   2334000   699.36992     -6299170.4      197.44115      197.44115      197.44115     -402.13913    
   2335000   699.2237      -6299202.1      197.44115      197.44115      197.44115     -361.19883    
   2336000   698.87708     -6299247.5      197.44115      197.44115      197.44115     -305.2908     
   2337000   699.33051     -6299119.3      197.44115      197.44115      197.44115     -499.45133    
   2338000   700.17809     -6299173        197.44115      197.44115      197.44115     -390.0566     
   2339000   699.71042     -6299182.4      197.44115      197.44115      197.44115     -353.50057    
   2340000   700.40189     -6299135.8      197.44115      197.44115      197.44115     -317.5692     
   2341000   698.96604     -6299220.4      197.44115      197.44115      197.44115     -229.72515    
   2342000   701.08281     -6298998        197.44115      197.44115      197.44115     -466.45956    
   2343000   699.85095     -6299104.1      197.44115      197.44115      197.44115     -423.10423    
   2344000   698.86227     -6299176.8      197.44115      197.44115      197.44115     -334.83458    
   2345000   701.33618     -6299126.6      197.44115      197.44115      197.44115     -233.87599    
   2346000   699.48707     -6299277.4      197.44115      197.44115      197.44115     -457.57321    
   2347000   700.31882     -6299046.2      197.44115      197.44115      197.44115     -373.96022    
   2348000   699.63835     -6299158.9      197.44115      197.44115      197.44115     -276.97492    
   2349000   699.83563     -6299029.4      197.44115      197.44115      197.44115     -284.24592    
   2350000   700.72581     -6299127.1      197.44115      197.44115      197.44115     -392.77112    
   2351000   699.43822     -6299143.3      197.44115      197.44115      197.44115     -282.8278     
   2352000   700.31509     -6299120.3      197.44115      197.44115      197.44115     -342.4852     
   2353000   699.69189     -6299293        197.44115      197.44115      197.44115     -316.40309    
   2354000   699.41697     -6299203.6      197.44115      197.44115      197.44115     -363.44161    
   2355000   699.8294      -6299214.4      197.44115      197.44115      197.44115     -404.70985    
   2356000   699.39323     -6299240.9      197.44115      197.44115      197.44115     -449.42849    
   2357000   699.07366     -6299326        197.44115      197.44115      197.44115     -412.48863    
   2358000   699.28463     -6299203.3      197.44115      197.44115      197.44115     -244.2419     
   2359000   700.90046     -6299161.2      197.44115      197.44115      197.44115     -418.68966    
   2360000   700.19738     -6299133.3      197.44115      197.44115      197.44115     -379.27314    
   2361000   699.22581     -6299115.8      197.44115      197.44115      197.44115     -336.28537    
   2362000   699.82554     -6299240        197.44115      197.44115      197.44115     -407.60693    
   2363000   698.66562     -6299236.6      197.44115      197.44115      197.44115     -348.10713    
   2364000   697.54883     -6299281.4      197.44115      197.44115      197.44115     -382.27229    
   2365000   700.42756     -6298998        197.44115      197.44115      197.44115     -281.04135    
   2366000   700.93719     -6299144.1      197.44115      197.44115      197.44115     -345.43766    
   2367000   700.81136     -6299107.9      197.44115      197.44115      197.44115     -298.45047    
   2368000   699.3273      -6299148.6      197.44115      197.44115      197.44115     -328.0846     
   2369000   699.58692     -6299117.5      197.44115      197.44115      197.44115     -222.83708    
   2370000   700.71398     -6299106        197.44115      197.44115      197.44115     -312.51051    
   2371000   699.73418     -6299137.5      197.44115      197.44115      197.44115     -185.96891    
   2372000   699.57681     -6299140.6      197.44115      197.44115      197.44115     -505.26586    
   2373000   701.60913     -6299010.7      197.44115      197.44115      197.44115     -326.27829    
   2374000   700.62512     -6299119.6      197.44115      197.44115      197.44115     -335.79719    
   2375000   700.06772     -6299201.3      197.44115      197.44115      197.44115     -294.81459    
   2376000   698.69587     -6299202.5      197.44115      197.44115      197.44115     -526.14798    
   2377000   700.47286     -6299156.8      197.44115      197.44115      197.44115     -402.67168    
   2378000   700.39035     -6299196.9      197.44115      197.44115      197.44115     -318.61053    
   2379000   700.73971     -6298942        197.44115      197.44115      197.44115     -191.66019    
   2380000   699.96343     -6299222.9      197.44115      197.44115      197.44115     -349.98154    
   2381000   700.27815     -6299225.4      197.44115      197.44115      197.44115     -349.14831    
   2382000   700.50806     -6299181.4      197.44115      197.44115      197.44115     -362.55737    
   2383000   699.08499     -6299201        197.44115      197.44115      197.44115     -209.16224    
   2384000   699.51193     -6299161        197.44115      197.44115      197.44115     -287.78097    
   2385000   700.6105      -6299179.7      197.44115      197.44115      197.44115     -325.34833    
   2386000   700.69264     -6299053.1      197.44115      197.44115      197.44115     -428.25946    
   2387000   699.67006     -6299209.1      197.44115      197.44115      197.44115     -300.76309    
   2388000   699.5467      -6299190.1      197.44115      197.44115      197.44115     -435.61499    
   2389000   699.64735     -6299264.8      197.44115      197.44115      197.44115     -526.1965     
   2390000   700.80233     -6299183.8      197.44115      197.44115      197.44115     -386.93127    
   2391000   700.76226     -6299082.4      197.44115      197.44115      197.44115     -318.0963     
   2392000   700.22751     -6299063.1      197.44115      197.44115      197.44115     -355.47905    
   2393000   699.62806     -6299281.9      197.44115      197.44115      197.44115     -301.41063    
   2394000   700.09014     -6299129.5      197.44115      197.44115      197.44115     -369.49007    
   2395000   701.41148     -6299075.6      197.44115      197.44115      197.44115     -403.75937    
   2396000   700.62656     -6299141.2      197.44115      197.44115      197.44115     -504.69587    
   2397000   698.70968     -6299256.7      197.44115      197.44115      197.44115     -453.57712    
   2398000   699.48708     -6299127.7      197.44115      197.44115      197.44115     -454.44109    
   2399000   699.34027     -6299166.5      197.44115      197.44115      197.44115     -344.9187     
   2400000   700.66206     -6299026.7      197.44115      197.44115      197.44115     -372.07313    
   2401000   700.73045     -6299071.2      197.44115      197.44115      197.44115     -343.27068    
   2402000   700.52664     -6299129.8      197.44115      197.44115      197.44115     -314.35254    
   2403000   701.21799     -6298994        197.44115      197.44115      197.44115     -207.71827    
   2404000   700.9931      -6299122.7      197.44115      197.44115      197.44115     -340.99507    
   2405000   699.32558     -6299208.7      197.44115      197.44115      197.44115     -384.15122    
   2406000   700.02583     -6299141.9      197.44115      197.44115      197.44115     -325.4044     
   2407000   699.88292     -6299168.6      197.44115      197.44115      197.44115     -269.33263    
   2408000   701.07965     -6299084.1      197.44115      197.44115      197.44115     -208.33059    
   2409000   700.38747     -6299079.9      197.44115      197.44115      197.44115     -350.42118    
   2410000   699.99321     -6299123        197.44115      197.44115      197.44115     -418.21662    
   2411000   699.65232     -6299126.9      197.44115      197.44115      197.44115     -270.64297    
   2412000   701.81323     -6299068.3      197.44115      197.44115      197.44115     -401.88699    
   2413000   699.54159     -6299044        197.44115      197.44115      197.44115     -267.85067    
   2414000   701.65187     -6299039.4      197.44115      197.44115      197.44115     -309.45471    
   2415000   700.62235     -6298992.2      197.44115      197.44115      197.44115     -254.52423    
   2416000   698.99399     -6299130.5      197.44115      197.44115      197.44115     -304.03738    
   2417000   700.48647     -6299042.4      197.44115      197.44115      197.44115     -351.80353    
   2418000   699.88163     -6299128.6      197.44115      197.44115      197.44115     -336.40864    
   2419000   699.09601     -6299252.3      197.44115      197.44115      197.44115     -399.72907    
   2420000   699.33935     -6299183.6      197.44115      197.44115      197.44115     -374.95154    
   2421000   699.99631     -6299045.1      197.44115      197.44115      197.44115     -283.37527    
   2422000   699.90938     -6299107.2      197.44115      197.44115      197.44115     -351.8435     
   2423000   699.22011     -6299206.1      197.44115      197.44115      197.44115     -376.52491    
   2424000   701.31125     -6298996.8      197.44115      197.44115      197.44115     -370.31875    
   2425000   700.48419     -6299146.5      197.44115      197.44115      197.44115     -292.39492    
   2426000   699.21286     -6299304.9      197.44115      197.44115      197.44115     -469.6619     
   2427000   699.71521     -6299221.3      197.44115      197.44115      197.44115     -331.1514     
   2428000   700.64177     -6299097.3      197.44115      197.44115      197.44115     -343.58487    
   2429000   700.4646      -6299114.8      197.44115      197.44115      197.44115     -278.55672    
   2430000   699.30802     -6299182.3      197.44115      197.44115      197.44115     -314.80731    
   2431000   700.68811     -6299134.9      197.44115      197.44115      197.44115     -251.64321    
   2432000   700.47622     -6299084.1      197.44115      197.44115      197.44115     -326.89204    
   2433000   700.72719     -6298975.8      197.44115      197.44115      197.44115     -330.54188    
   2434000   700.91061     -6299021.4      197.44115      197.44115      197.44115     -230.34331    
   2435000   699.19071     -6299172.6      197.44115      197.44115      197.44115     -298.16871    
   2436000   700.59776     -6299034.4      197.44115      197.44115      197.44115     -314.18006    
   2437000   699.2984      -6299069.3      197.44115      197.44115      197.44115     -362.11158    
   2438000   700.93318     -6299131        197.44115      197.44115      197.44115     -381.36       
   2439000   699.71079     -6299208        197.44115      197.44115      197.44115     -231.64349    
   2440000   699.29389     -6299182.2      197.44115      197.44115      197.44115     -304.59331    
   2441000   697.88642     -6299247.2      197.44115      197.44115      197.44115     -382.14571    
   2442000   700.84687     -6299121        197.44115      197.44115      197.44115     -365.94815    
   2443000   700.26516     -6299103.4      197.44115      197.44115      197.44115     -386.61377    
   2444000   700.47937     -6299127.4      197.44115      197.44115      197.44115     -289.73639    
   2445000   699.15036     -6299192        197.44115      197.44115      197.44115     -462.30506    
   2446000   700.32156     -6299195.3      197.44115      197.44115      197.44115     -330.65436    
   2447000   698.36361     -6299233.5      197.44115      197.44115      197.44115     -185.4899     
   2448000   700.26332     -6299135.2      197.44115      197.44115      197.44115     -269.24716    
   2449000   701.01433     -6299036.5      197.44115      197.44115      197.44115     -339.13517    
   2450000   700.03457     -6299091.2      197.44115      197.44115      197.44115     -400.97246    
   2451000   700.11875     -6299232        197.44115      197.44115      197.44115     -410.4506     
   2452000   700.82917     -6298988        197.44115      197.44115      197.44115     -378.84482    
   2453000   699.22482     -6299144.3      197.44115      197.44115      197.44115     -219.32892    
   2454000   700.12305     -6299032.9      197.44115      197.44115      197.44115     -281.76543    
   2455000   699.68689     -6299105.9      197.44115      197.44115      197.44115     -227.51475    
   2456000   699.85206     -6299104.5      197.44115      197.44115      197.44115     -402.25726    
   2457000   700.21453     -6299020.2      197.44115      197.44115      197.44115     -274.40304    
   2458000   699.6689      -6299134.7      197.44115      197.44115      197.44115     -198.07667    
   2459000   699.77054     -6299210.6      197.44115      197.44115      197.44115     -240.57436    
   2460000   699.63041     -6299191.7      197.44115      197.44115      197.44115     -414.28969    
   2461000   700.06449     -6299123.1      197.44115      197.44115      197.44115     -249.02805    
   2462000   700.30323     -6299172.4      197.44115      197.44115      197.44115     -386.12772    
   2463000   699.96413     -6299148.6      197.44115      197.44115      197.44115     -235.31953    
   2464000   699.13734     -6299283.7      197.44115      197.44115      197.44115     -420.11708    
   2465000   700.87195     -6299094.3      197.44115      197.44115      197.44115     -484.51273    
   2466000   700.26259     -6299072        197.44115      197.44115      197.44115     -206.17934    
   2467000   699.59081     -6299231.7      197.44115      197.44115      197.44115     -288.89861    
   2468000   699.29916     -6299148.2      197.44115      197.44115      197.44115     -365.56234    
   2469000   699.29852     -6299124        197.44115      197.44115      197.44115     -410.83612    
   2470000   700.61688     -6299134.5      197.44115      197.44115      197.44115     -427.81353    
   2471000   699.16367     -6299275.7      197.44115      197.44115      197.44115     -390.51475    
   2472000   700.43389     -6299143.7      197.44115      197.44115      197.44115     -449.70097    
   2473000   701.41742     -6299083.8      197.44115      197.44115      197.44115     -417.00361    
   2474000   700.06362     -6299175.5      197.44115      197.44115      197.44115     -444.03418    
   2475000   699.72156     -6299158.3      197.44115      197.44115      197.44115     -339.8937     
   2476000   700.44716     -6299096.1      197.44115      197.44115      197.44115     -340.45476    
   2477000   699.46099     -6299144.6      197.44115      197.44115      197.44115     -292.53008    
   2478000   701.23799     -6299101.3      197.44115      197.44115      197.44115     -380.26377    
   2479000   699.50861     -6299185.2      197.44115      197.44115      197.44115     -267.89472    
   2480000   699.42612     -6299205.3      197.44115      197.44115      197.44115     -335.35751    
   2481000   698.84218     -6299276.9      197.44115      197.44115      197.44115     -298.5692     
   2482000   698.53005     -6299329.1      197.44115      197.44115      197.44115     -486.24423    
   2483000   699.67338     -6299138.1      197.44115      197.44115      197.44115     -440.26895    
   2484000   699.78556     -6299146.2      197.44115      197.44115      197.44115     -323.48802    
   2485000   699.07758     -6299134.6      197.44115      197.44115      197.44115     -376.15456    
   2486000   699.78882     -6299151.7      197.44115      197.44115      197.44115     -296.35895    
   2487000   700.53294     -6299107.2      197.44115      197.44115      197.44115     -361.72884    
   2488000   700.37079     -6299108.7      197.44115      197.44115      197.44115     -491.8007     
   2489000   701.376       -6299050.8      197.44115      197.44115      197.44115     -350.1035     
   2490000   699.17649     -6299209.5      197.44115      197.44115      197.44115     -467.5179     
   2491000   700.84866     -6299040.8      197.44115      197.44115      197.44115     -323.64947    
   2492000   701.01757     -6299061.5      197.44115      197.44115      197.44115     -394.93755    
   2493000   698.84661     -6299206.5      197.44115      197.44115      197.44115     -379.65686    
   2494000   699.14527     -6299222.9      197.44115      197.44115      197.44115     -282.55813    
   2495000   698.39353     -6299235.1      197.44115      197.44115      197.44115     -326.21365    
   2496000   701.61725     -6299040        197.44115      197.44115      197.44115     -420.5408     
   2497000   700.70477     -6299005        197.44115      197.44115      197.44115     -326.6445     
   2498000   698.86875     -6299254.5      197.44115      197.44115      197.44115     -420.30795    
   2499000   700.22187     -6299064        197.44115      197.44115      197.44115     -445.34546    
   2500000   700.86932     -6299081.5      197.44115      197.44115      197.44115     -581.56603    
   2501000   700.2588      -6299104.3      197.44115      197.44115      197.44115     -464.34811    
   2502000   699.98099     -6299147.7      197.44115      197.44115      197.44115     -390.0988     
   2503000   699.53193     -6299209.3      197.44115      197.44115      197.44115     -388.28589    
   2504000   700.74735     -6299095        197.44115      197.44115      197.44115     -359.61015    
   2505000   700.27514     -6299132.9      197.44115      197.44115      197.44115     -231.90271    
   2506000   699.26796     -6299250        197.44115      197.44115      197.44115     -442.31851    
   2507000   700.70281     -6298981.3      197.44115      197.44115      197.44115     -296.69554    
   2508000   699.67547     -6299238.4      197.44115      197.44115      197.44115     -428.57653    
   2509000   699.84406     -6299067        197.44115      197.44115      197.44115     -491.9041     
   2510000   699.51005     -6299261.6      197.44115      197.44115      197.44115     -442.48885    
Loop time of 196855 on 16384 procs for 2500000 steps with 556217 atoms

Performance: 2.195 ns/day, 10.936 hours/ns, 12.700 timesteps/s, 7.064 Matom-step/s
84.3% CPU use with 128 MPI tasks x 128 OpenMP threads

MPI task timing breakdown:
Section |  min time  |  avg time  |  max time  |%varavg| %total
---------------------------------------------------------------
Pair    | 94765      | 1.1691e+05 | 1.3893e+05 |4695.6 | 59.39
Bond    | 0.36144    | 0.60761    | 0.96641    |  14.9 |  0.00
Kspace  | 32472      | 57673      | 82749      |7629.6 | 29.30
Neigh   | 12334      | 15602      | 18780      |1916.0 |  7.93
Comm    | 4788.5     | 5291.1     | 5787.8     | 329.3 |  2.69
Output  | 0.36896    | 0.41321    | 0.4247     |   1.0 |  0.00
Modify  | 509.5      | 965.49     | 1438.1     | 881.6 |  0.49
Other   |            | 412.4      |            |       |  0.21

Nlocal:        4345.45 ave        4940 max        3727 min
Histogram: 56 8 0 0 0 0 0 0 1 63
Nghost:        13475.5 ave       14568 max       12392 min
Histogram: 60 4 0 0 0 0 0 0 5 59
Neighs:    1.10429e+06 ave 1.33211e+06 max      870984 min
Histogram: 14 34 15 1 0 0 1 17 26 20

Total # of neighbors = 1.4134848e+08
Ave neighs/atom = 254.12471
Ave special neighs/atom = 0
Neighbor list builds = 425468
Dangerous builds = 0
Total wall time: 55:10:14
