LAMMPS (8 Feb 2023)
WARNING: Using I/O redirection is unreliable with parallel runs. Better to use the -in switch to read input files. (src/src/lammps.cpp:531)
  using 128 OpenMP thread(s) per MPI task
Reading data file ...
  orthogonal box = (0 0 0) to (195 195 195)
  4 by 4 by 8 MPI processor grid
  reading atoms ...
  431984 atoms
Finding 1-2 1-3 1-4 neighbors ...
  special bond factors lj:    0        0        0       
  special bond factors coul:  0        0        0       
     0 = max # of 1-2 neighbors
     0 = max # of 1-3 neighbors
     0 = max # of 1-4 neighbors
     1 = max # of special neighbors
  special bonds CPU = 0.088 seconds
  read_data CPU = 1.782 seconds
114924 atoms in group Li
220572 atoms in group O
36756 atoms in group Zr
PPPM initialization ...
  using 12-bit tables for long-range coulomb (src/src/kspace.cpp:342)
  G vector (1/distance) = 0.27362615
  grid = 128 128 128
  stencil order = 5
  estimated absolute RMS force accuracy = 0.001898023
  estimated relative force accuracy = 0.0001318104
  using double precision MKL FFT
  3d grid and FFT values/proc = 28749 16384
Generated 0 of 10 mixed pair_coeff terms from geometric mixing rule
Neighbor list info ...
  update: every = 1 steps, delay = 0 steps, check = yes
  max neighbors/atom: 5000, page size: 100000
  master list distance cutoff = 11.5
  ghost atom cutoff = 11.5
  binsize = 5.75, bins = 34 34 34
  3 neighbor lists, perpetual/occasional/extra = 3 0 0
  (1) pair buck/coul/long, perpetual
      attributes: half, newton on
      pair build: half/bin/newton
      stencil: half/bin/3d
      bin: standard
  (2) pair lennard/mdf, perpetual, skip from (3)
      attributes: half, newton on, cut 4
      pair build: skip
      stencil: none
      bin: none
  (3) neighbor class addition, perpetual, trim from (1)
      attributes: half, newton on, cut 4
      pair build: trim
      stencil: none
      bin: none
Setting up cg style minimization ...
  Unit style    : metal
  Current step  : 0
Per MPI rank memory allocation (min/avg/max) = 224.4 | 261 | 297.6 Mbytes
   Step          Temp          E_pair         E_mol          TotEng         Press     
         0   0              3.2788264e+11  0              3.2788264e+11  2.8339621e+11
      2854   0             -4958356        0             -4958356        1721.5947    
Loop time of 355.82 on 16384 procs for 2854 steps with 431984 atoms

77.2% CPU use with 128 MPI tasks x 128 OpenMP threads

Minimization stats:
  Stopping criterion = linesearch alpha is zero
  Energy initial, next-to-last, final = 
       327882638675.07  -4958356.04081306  -4958356.04081306
  Force two-norm initial, final = 2.941604e+13 0.56002924
  Force max component initial, final = 1.6413597e+13 0.18553859
  Final line search alpha, max atom move = 3.4325584e-08 6.3687206e-09
  Iterations, force evaluations = 2854 4586

MPI task timing breakdown:
Section |  min time  |  avg time  |  max time  |%varavg| %total
---------------------------------------------------------------
Pair    | 131.22     | 202.41     | 275.82     | 398.7 | 56.89
Bond    | 0.00039693 | 0.00086285 | 0.00155    |   0.0 |  0.00
Kspace  | 55.167     | 133.09     | 208.46     | 524.1 | 37.40
Neigh   | 6.4647     | 10.374     | 14.761     | 100.5 |  2.92
Comm    | 5.4976     | 7.1368     | 8.7313     |  41.4 |  2.01
Output  | 0          | 0          | 0          |   0.0 |  0.00
Modify  | 0          | 0          | 0          |   0.0 |  0.00
Other   |            | 2.81       |            |       |  0.79

Nlocal:        3374.88 ave        4340 max        2448 min
Histogram: 64 0 0 0 0 0 0 0 0 64
Nghost:        11302.3 ave       12938 max        9686 min
Histogram: 64 0 0 0 0 0 0 0 0 64
Neighs:         846347 ave 1.19106e+06 max      532169 min
Histogram: 32 32 0 0 0 0 0 20 22 22

Total # of neighbors = 1.0833244e+08
Ave neighs/atom = 250.77882
Ave special neighs/atom = 0
Neighbor list builds = 380
Dangerous builds = 0
PPPM initialization ...
  using 12-bit tables for long-range coulomb (src/src/kspace.cpp:342)
  G vector (1/distance) = 0.27362615
  grid = 128 128 128
  stencil order = 5
  estimated absolute RMS force accuracy = 0.001898023
  estimated relative force accuracy = 0.0001318104
  using double precision MKL FFT
  3d grid and FFT values/proc = 28749 16384
Generated 0 of 10 mixed pair_coeff terms from geometric mixing rule
Setting up Verlet run ...
  Unit style    : metal
  Current step  : 0
  Time step     : 0.002
Per MPI rank memory allocation (min/avg/max) = 224.7 | 260.9 | 297 Mbytes
   Step          Temp          TotEng           Lx             Ly             Lz           Press     
         0   400           -4936020.8      195            195            195            4939.0058    
      1000   399.13251     -4914902.9      196.37803      196.37803      196.37803      82.698824    
      2000   399.61968     -4915713        196.36935      196.36935      196.36935     -132.27856    
      3000   399.75095     -4916123.2      196.30539      196.30539      196.30539      240.90308    
      4000   400.20101     -4916400.4      196.32482      196.32482      196.32482     -4.8027913    
      5000   400.00345     -4916607.1      196.29846      196.29846      196.29846      158.43177    
      6000   399.67544     -4916732.9      196.2977       196.2977       196.2977       107.06205    
      7000   400.42071     -4916843.7      196.29486      196.29486      196.29486      7.1335886    
      8000   400.02278     -4916950.9      196.28318      196.28318      196.28318     -6.3541171    
      9000   399.8352      -4917029.1      196.27495      196.27495      196.27495     -70.219115    
     10000   399.3595      -4917145.5      196.27754      196.27754      196.27754      32.454092    
     11000   399.63989     -4917176.7      196.24611      196.24611      196.24611      104.13751    
     12000   399.57132     -4917284        196.23788      196.23788      196.23788      134.45819    
     13000   400.08994     -4917275        196.241        196.241        196.241        27.989964    
     14000   399.37614     -4917346.1      196.24292      196.24292      196.24292      1.7197449    
     15000   399.59358     -4917407.9      196.23129      196.23129      196.23129     -3.0432038    
     16000   400.97005     -4917309.9      196.24036      196.24036      196.24036      61.698296    
     17000   399.40469     -4917466.8      196.23976      196.23976      196.23976     -91.17265     
     18000   399.94905     -4917440.9      196.22962      196.22962      196.22962      88.243445    
     19000   399.22254     -4917498.5      196.2297       196.2297       196.2297      -14.87257     
     20000   400.7059      -4917436.8      196.23652      196.23652      196.23652      17.169443    
     21000   400.47022     -4917500.7      196.22148      196.22148      196.22148      126.97022    
     22000   400.76526     -4917504.2      196.24103      196.24103      196.24103     -64.230124    
     23000   399.50983     -4917595.3      196.24653      196.24653      196.24653     -98.712559    
     24000   400.83306     -4917526        196.24144      196.24144      196.24144      54.871827    
     25000   400.08436     -4917619.4      196.24862      196.24862      196.24862     -105.30262    
     26000   399.63158     -4917626.1      196.23659      196.23659      196.23659     -37.508797    
     27000   399.57205     -4917720.7      196.24141      196.24141      196.24141     -231.35107    
     28000   400.54378     -4917650.2      196.23075      196.23075      196.23075     -54.703918    
     29000   399.62778     -4917753        196.22298      196.22298      196.22298     -36.084853    
     30000   399.73348     -4917697.7      196.22743      196.22743      196.22743      18.045027    
     31000   399.96047     -4917676.4      196.22792      196.22792      196.22792     -22.931539    
     32000   400.44253     -4917754.8      196.2062       196.2062       196.2062       62.654       
     33000   401.47342     -4917709.1      196.2224       196.2224       196.2224      -60.507253    
     34000   399.34293     -4917827.7      196.22767      196.22767      196.22767      15.346511    
     35000   399.93196     -4917821.6      196.22213      196.22213      196.22213     -26.723027    
     36000   399.34538     -4917859.4      196.21854      196.21854      196.21854     -23.174488    
     37000   400.84643     -4917822        196.2187       196.2187       196.2187      -52.898569    
     38000   399.96262     -4917867.2      196.20934      196.20934      196.20934     -32.170569    
     39000   400.41332     -4917879.5      196.21651      196.21651      196.21651     -19.203419    
     40000   399.42355     -4917854.8      196.22134      196.22134      196.22134      47.115519    
     41000   399.70724     -4917903.1      196.21393      196.21393      196.21393     -38.180747    
     42000   399.25258     -4917972.1      196.21348      196.21348      196.21348     -109.77815    
     43000   400.87855     -4917872.5      196.21942      196.21942      196.21942     -144.26556    
     44000   401.01011     -4917872        196.21145      196.21145      196.21145      29.636244    
     45000   399.6655      -4917949        196.21616      196.21616      196.21616     -110.03659    
     46000   400.08549     -4917967.9      196.20541      196.20541      196.20541      63.476094    
     47000   400.7162      -4917948.3      196.22003      196.22003      196.22003     -24.33831     
     48000   400.50817     -4917918        196.20759      196.20759      196.20759     -5.8842616    
     49000   399.52185     -4918007.8      196.21459      196.21459      196.21459      24.729452    
     50000   399.50894     -4918030.6      196.21948      196.21948      196.21948     -62.396414    
     51000   400.37741     -4918033.6      196.21374      196.21374      196.21374     -3.0722277    
     52000   401.23718     -4917966.7      196.1948       196.1948       196.1948       127.9122     
     53000   399.33062     -4918085.2      196.19129      196.19129      196.19129      27.813396    
     54000   399.78885     -4918042        196.20344      196.20344      196.20344     -0.17868832   
     55000   399.73662     -4918049.1      196.20666      196.20666      196.20666     -13.688495    
     56000   399.16883     -4918124.3      196.19738      196.19738      196.19738     -1.8783591    
     57000   399.98392     -4918077.5      196.2066       196.2066       196.2066       60.874953    
     58000   400.24335     -4918052.7      196.20939      196.20939      196.20939     -13.357252    
     59000   400.61915     -4918002        196.22034      196.22034      196.22034      23.784061    
     60000   400.71057     -4918038.1      196.21995      196.21995      196.21995     -11.498147    
     61000   399.9526      -4918106.1      196.2075       196.2075       196.2075       14.577804    
     62000   400.5006      -4918093.1      196.19721      196.19721      196.19721      87.725507    
     63000   400.30187     -4918072.7      196.19293      196.19293      196.19293      68.55015     
     64000   400.17588     -4918154.5      196.19765      196.19765      196.19765     -24.325786    
     65000   399.83608     -4918224.5      196.18943      196.18943      196.18943     -176.0177     
     66000   400.07852     -4918132.9      196.18398      196.18398      196.18398      64.816626    
     67000   399.98273     -4918122.5      196.18432      196.18432      196.18432      94.103415    
     68000   399.79208     -4918167.4      196.18904      196.18904      196.18904     -0.38732898   
     69000   399.76476     -4918175.2      196.21131      196.21131      196.21131     -73.242766    
     70000   399.46219     -4918198.7      196.20512      196.20512      196.20512      66.425538    
     71000   399.87742     -4918136.3      196.20869      196.20869      196.20869     -36.61937     
     72000   401.06791     -4918141.1      196.20073      196.20073      196.20073     -47.926981    
     73000   399.21592     -4918246.3      196.18525      196.18525      196.18525      58.938849    
     74000   399.34747     -4918199.4      196.20411      196.20411      196.20411     -103.33611    
     75000   399.74468     -4918241        196.18706      196.18706      196.18706      67.551889    
     76000   399.12349     -4918231.6      196.19473      196.19473      196.19473     -28.254053    
     77000   399.77992     -4918206.8      196.20848      196.20848      196.20848     -170.10223    
     78000   399.66283     -4918234.9      196.18154      196.18154      196.18154      90.637623    
     79000   399.72683     -4918220.5      196.19805      196.19805      196.19805     -3.7154816    
     80000   399.91925     -4918216        196.19315      196.19315      196.19315      72.747066    
     81000   399.46976     -4918256.8      196.18113      196.18113      196.18113      79.659164    
     82000   400.28185     -4918267.8      196.18018      196.18018      196.18018      15.65471     
     83000   400.15295     -4918284.3      196.17883      196.17883      196.17883      27.550221    
     84000   400.14284     -4918265.6      196.17439      196.17439      196.17439      70.950068    
     85000   400.59213     -4918227.5      196.17837      196.17837      196.17837     -6.3782016    
     86000   400.36331     -4918292.8      196.19395      196.19395      196.19395     -121.38977    
     87000   399.5088      -4918317.9      196.19044      196.19044      196.19044     -67.141233    
     88000   399.83133     -4918356.5      196.18353      196.18353      196.18353      1.3862861    
     89000   400.56996     -4918264.9      196.18192      196.18192      196.18192      85.911143    
     90000   400.44433     -4918307.9      196.1751       196.1751       196.1751       117.99947    
     91000   399.73161     -4918295.6      196.17664      196.17664      196.17664      37.698481    
     92000   399.48103     -4918365        196.1894       196.1894       196.1894      -45.942005    
     93000   400.29382     -4918328.8      196.18814      196.18814      196.18814      44.835663    
     94000   400.17907     -4918295        196.20188      196.20188      196.20188     -19.992998    
     95000   400.19555     -4918304.5      196.19349      196.19349      196.19349     -98.607367    
     96000   399.59966     -4918383.7      196.19233      196.19233      196.19233      0.52850211   
     97000   400.26625     -4918270.6      196.17097      196.17097      196.17097      115.77561    
     98000   400.76028     -4918335.4      196.17062      196.17062      196.17062     -4.1900814    
     99000   400.11111     -4918377.8      196.187        196.187        196.187       -41.109894    
    100000   399.26088     -4918399.2      196.16762      196.16762      196.16762     -79.871742    
    101000   399.59215     -4918360.1      196.18789      196.18789      196.18789     -183.66276    
    102000   398.80455     -4918445.6      196.17405      196.17405      196.17405     -9.9794253    
    103000   400.11642     -4918360        196.18091      196.18091      196.18091      43.793824    
    104000   399.70207     -4918411.6      196.16844      196.16844      196.16844     -13.191803    
    105000   399.88819     -4918395.7      196.18124      196.18124      196.18124     -8.9856935    
    106000   400.65219     -4918380.7      196.18567      196.18567      196.18567      78.35021     
    107000   399.68607     -4918425        196.18546      196.18546      196.18546     -5.5854145    
    108000   399.42947     -4918420.1      196.19603      196.19603      196.19603     -126.4628     
    109000   400.11365     -4918379.4      196.18748      196.18748      196.18748     -9.4012122    
    110000   399.46895     -4918431.8      196.18206      196.18206      196.18206     -13.168811    
    111000   400.12269     -4918352.8      196.17485      196.17485      196.17485      80.715086    
    112000   400.6395      -4918407.2      196.18302      196.18302      196.18302      10.104205    
    113000   399.31366     -4918459.3      196.17074      196.17074      196.17074     -36.064138    
    114000   400.25017     -4918415.7      196.17144      196.17144      196.17144      64.802166    
    115000   400.44203     -4918457.5      196.1523       196.1523       196.1523       56.831412    
    116000   399.92313     -4918432.7      196.17506      196.17506      196.17506     -152.75893    
    117000   399.47517     -4918411.8      196.15301      196.15301      196.15301      105.34411    
    118000   400.42927     -4918447.8      196.14716      196.14716      196.14716      218.61032    
    119000   400.63822     -4918417.2      196.15355      196.15355      196.15355      119.27706    
    120000   400.15658     -4918447.1      196.16367      196.16367      196.16367     -74.651825    
    121000   400.52808     -4918454.4      196.16755      196.16755      196.16755     -59.531805    
    122000   400.87062     -4918474.3      196.1694       196.1694       196.1694      -19.345856    
    123000   399.94564     -4918451.4      196.17829      196.17829      196.17829     -107.33703    
    124000   399.93918     -4918457.8      196.1707       196.1707       196.1707       57.69597     
    125000   399.70196     -4918470.7      196.16081      196.16081      196.16081     -5.8337695    
    126000   399.72572     -4918497.6      196.16273      196.16273      196.16273     -47.716402    
    127000   399.54856     -4918469.3      196.17447      196.17447      196.17447      13.21518     
    128000   400.80044     -4918467.4      196.16537      196.16537      196.16537      69.144114    
    129000   401.11306     -4918392.9      196.16974      196.16974      196.16974     -30.808114    
    130000   400.00163     -4918462        196.17183      196.17183      196.17183     -74.787049    
    131000   400.09813     -4918435.7      196.15558      196.15558      196.15558      89.540959    
    132000   399.98247     -4918492.2      196.17308      196.17308      196.17308     -41.24063     
    133000   399.99207     -4918428.6      196.1727       196.1727       196.1727      -31.270219    
    134000   399.98968     -4918513.3      196.16858      196.16858      196.16858     -125.78963    
    135000   400.34001     -4918493.9      196.14579      196.14579      196.14579      3.7208851    
    136000   399.88252     -4918522.5      196.17318      196.17318      196.17318     -108.46592    
    137000   400.15871     -4918460.1      196.1753       196.1753       196.1753      -5.2626796    
    138000   400.06301     -4918531        196.15755      196.15755      196.15755      70.458538    
    139000   399.92208     -4918601.2      196.1655       196.1655       196.1655      -9.115798     
    140000   399.03286     -4918495        196.172        196.172        196.172       -24.694868    
    141000   399.62835     -4918566.1      196.15191      196.15191      196.15191      55.868884    
    142000   400.01737     -4918497.5      196.15743      196.15743      196.15743      20.15173     
    143000   400.4431      -4918509.5      196.17281      196.17281      196.17281     -195.8309     
    144000   398.72357     -4918603.8      196.15616      196.15616      196.15616      1.812068     
    145000   400.20847     -4918507.2      196.16759      196.16759      196.16759      20.743945    
    146000   399.22482     -4918571.5      196.15926      196.15926      196.15926      2.0049917    
    147000   399.8246      -4918561.4      196.14662      196.14662      196.14662      147.37791    
    148000   399.5856      -4918553.8      196.1724       196.1724       196.1724      -88.974253    
    149000   400.46062     -4918477.8      196.16668      196.16668      196.16668      56.428429    
    150000   400.17663     -4918524.6      196.17023      196.17023      196.17023     -14.913537    
    151000   400.0689      -4918488.9      196.16974      196.16974      196.16974      8.9488886    
    152000   400.07732     -4918569.3      196.16144      196.16144      196.16144      35.0647      
    153000   399.9187      -4918598.7      196.16801      196.16801      196.16801     -19.956216    
    154000   400.10896     -4918581.9      196.15099      196.15099      196.15099      63.794724    
    155000   399.82434     -4918625.1      196.17479      196.17479      196.17479      77.823883    
    156000   400.2894      -4918528.6      196.15348      196.15348      196.15348      71.043354    
    157000   400.2992      -4918514        196.16437      196.16437      196.16437     -74.279717    
    158000   399.88475     -4918554.4      196.1758       196.1758       196.1758      -170.06806    
    159000   399.07388     -4918585.1      196.16745      196.16745      196.16745     -38.949503    
    160000   399.55668     -4918593.9      196.17043      196.17043      196.17043     -112.05502    
    161000   399.67659     -4918600.5      196.17212      196.17212      196.17212     -104.28448    
    162000   400.04376     -4918570        196.17019      196.17019      196.17019      22.396161    
    163000   399.26364     -4918706.1      196.16168      196.16168      196.16168     -4.8127081    
    164000   399.40072     -4918655        196.16328      196.16328      196.16328     -36.319785    
    165000   399.82917     -4918608.5      196.15944      196.15944      196.15944     -11.461017    
    166000   399.56588     -4918634.2      196.15275      196.15275      196.15275      59.735515    
    167000   400.22328     -4918593.8      196.14182      196.14182      196.14182      71.873559    
    168000   399.62229     -4918659.2      196.14201      196.14201      196.14201      57.696782    
    169000   400.63574     -4918594        196.1622       196.1622       196.1622      -93.539778    
    170000   400.46461     -4918535.6      196.15019      196.15019      196.15019      98.142166    
    171000   399.5032      -4918638.8      196.15731      196.15731      196.15731     -4.0630336    
    172000   399.44378     -4918638.1      196.15448      196.15448      196.15448      87.358383    
    173000   399.52377     -4918626.6      196.14598      196.14598      196.14598      70.299128    
    174000   399.49815     -4918681.6      196.15383      196.15383      196.15383     -4.3679553    
    175000   400.22715     -4918586.8      196.15601      196.15601      196.15601      39.007576    
    176000   399.45308     -4918656        196.15531      196.15531      196.15531     -8.7788319    
    177000   400.17722     -4918630.7      196.15272      196.15272      196.15272      75.000483    
    178000   400.07164     -4918605.1      196.17026      196.17026      196.17026     -18.937977    
    179000   401.67469     -4918520.4      196.14187      196.14187      196.14187      99.166951    
    180000   399.98891     -4918645.6      196.13837      196.13837      196.13837      77.814168    
    181000   400.39904     -4918656.4      196.15981      196.15981      196.15981     -67.608313    
    182000   399.47727     -4918687.9      196.14689      196.14689      196.14689     -30.922946    
    183000   400.34182     -4918624.9      196.16087      196.16087      196.16087     -13.021823    
    184000   400.24433     -4918661.9      196.1546       196.1546       196.1546       18.724551    
    185000   400.12857     -4918570.7      196.16508      196.16508      196.16508     -91.274875    
    186000   400.6209      -4918591        196.15971      196.15971      196.15971      59.545963    
    187000   399.83196     -4918603.9      196.1569       196.1569       196.1569       49.714482    
    188000   400.11341     -4918685.5      196.1572       196.1572       196.1572       16.652657    
    189000   400.35059     -4918656.2      196.15648      196.15648      196.15648      102.3845     
    190000   399.81298     -4918700.2      196.14043      196.14043      196.14043      166.44597    
    191000   400.75757     -4918588        196.16171      196.16171      196.16171     -51.976478    
    192000   400.56664     -4918619.9      196.14427      196.14427      196.14427      39.891772    
    193000   400.69781     -4918580.6      196.16229      196.16229      196.16229      13.642097    
    194000   400.15677     -4918680.5      196.15582      196.15582      196.15582     -35.356531    
    195000   400.59509     -4918587.9      196.16341      196.16341      196.16341     -109.23074    
    196000   400.01398     -4918699.6      196.14518      196.14518      196.14518      106.93564    
    197000   400.4759      -4918676        196.1617       196.1617       196.1617      -140.2101     
    198000   400.13845     -4918661.9      196.14996      196.14996      196.14996     -10.691274    
    199000   399.59662     -4918679.1      196.15576      196.15576      196.15576     -115.52178    
    200000   400.65888     -4918645.8      196.16128      196.16128      196.16128     -92.706306    
    201000   399.8076      -4918681.9      196.14407      196.14407      196.14407     -14.469369    
    202000   399.44562     -4918722.4      196.15154      196.15154      196.15154      22.349828    
    203000   399.39312     -4918713.9      196.15016      196.15016      196.15016     -19.380652    
    204000   400.52335     -4918648.5      196.16267      196.16267      196.16267     -167.33237    
    205000   400.3398      -4918705.2      196.14854      196.14854      196.14854     -48.78866     
    206000   400.14841     -4918688.9      196.15383      196.15383      196.15383      21.368947    
    207000   399.96872     -4918640.5      196.14264      196.14264      196.14264      47.559925    
    208000   399.64329     -4918661.3      196.15439      196.15439      196.15439      40.790749    
    209000   400.01587     -4918708.4      196.15334      196.15334      196.15334      43.14162     
    210000   399.59344     -4918758.3      196.13425      196.13425      196.13425      141.50665    
    211000   399.71334     -4918684.1      196.1587       196.1587       196.1587       102.46657    
    212000   399.68548     -4918777.9      196.15998      196.15998      196.15998     -77.421365    
    213000   400.12205     -4918690.8      196.1382       196.1382       196.1382       116.38706    
    214000   399.73459     -4918700.5      196.13764      196.13764      196.13764      218.30878    
    215000   400.50562     -4918660.3      196.14037      196.14037      196.14037      202.77074    
    216000   401.00578     -4918692.9      196.15042      196.15042      196.15042     -8.1007362    
    217000   399.98071     -4918698.3      196.14732      196.14732      196.14732     -6.358045     
    218000   400.19596     -4918689.8      196.14337      196.14337      196.14337      63.214364    
    219000   400.16243     -4918698.6      196.1355       196.1355       196.1355       46.563129    
    220000   400.29575     -4918704        196.15708      196.15708      196.15708     -28.038896    
    221000   399.69563     -4918717        196.14642      196.14642      196.14642      60.771498    
    222000   399.21696     -4918723.1      196.14546      196.14546      196.14546      25.361222    
    223000   399.4769      -4918704.2      196.13897      196.13897      196.13897      50.645425    
    224000   399.99457     -4918706.1      196.14712      196.14712      196.14712      20.525349    
    225000   400.49119     -4918705.7      196.14208      196.14208      196.14208     -10.465551    
    226000   399.20903     -4918772.6      196.1492       196.1492       196.1492      -90.156194    
    227000   399.18306     -4918736.3      196.14951      196.14951      196.14951     -57.091557    
    228000   399.9279      -4918700.9      196.13779      196.13779      196.13779      126.12756    
    229000   400.40065     -4918712.4      196.15086      196.15086      196.15086     -40.99762     
    230000   399.97114     -4918673.8      196.14273      196.14273      196.14273      22.179397    
    231000   400.02135     -4918671.1      196.14181      196.14181      196.14181      15.517358    
    232000   399.77855     -4918703.7      196.14487      196.14487      196.14487      13.467959    
    233000   399.0828      -4918760.7      196.13994      196.13994      196.13994      68.303515    
    234000   400.61459     -4918701.6      196.15307      196.15307      196.15307     -74.317989    
    235000   400.17648     -4918709.8      196.15449      196.15449      196.15449     -70.189695    
    236000   400.33926     -4918755.4      196.14929      196.14929      196.14929      41.254806    
    237000   398.54146     -4918801.8      196.16392      196.16392      196.16392     -68.018386    
    238000   400.48106     -4918697.4      196.16199      196.16199      196.16199      12.408281    
    239000   400.42109     -4918735.2      196.16516      196.16516      196.16516     -3.929675     
    240000   399.65623     -4918702.8      196.1518       196.1518       196.1518       131.00326    
    241000   399.80065     -4918756.1      196.1432       196.1432       196.1432       78.898569    
    242000   399.6317      -4918731.4      196.16311      196.16311      196.16311     -66.611018    
    243000   399.91065     -4918711.6      196.15684      196.15684      196.15684     -174.76415    
    244000   400.14749     -4918702.5      196.13933      196.13933      196.13933      107.52901    
    245000   400.20597     -4918691.5      196.15586      196.15586      196.15586     -13.28239     
    246000   399.51882     -4918755        196.13777      196.13777      196.13777      12.349393    
    247000   400.24634     -4918770.5      196.12724      196.12724      196.12724      18.582352    
    248000   399.5916      -4918735.4      196.13411      196.13411      196.13411     -82.202545    
    249000   400.88741     -4918666.1      196.13931      196.13931      196.13931     -102.32965    
    250000   399.88074     -4918760.4      196.1413       196.1413       196.1413      -29.226033    
    251000   399.58346     -4918775.1      196.14807      196.14807      196.14807     -2.4499542    
    252000   400.52983     -4918721.7      196.15308      196.15308      196.15308     -28.18726     
    253000   399.97554     -4918714.6      196.1458       196.1458       196.1458       95.202091    
    254000   399.27527     -4918773.7      196.15225      196.15225      196.15225     -42.664428    
    255000   400.17964     -4918773.9      196.1277       196.1277       196.1277       130.74914    
    256000   399.76441     -4918797.2      196.13679      196.13679      196.13679      104.0374     
    257000   400.08781     -4918766.6      196.14767      196.14767      196.14767     -15.292392    
    258000   400.47326     -4918786.3      196.14342      196.14342      196.14342      231.98773    
    259000   400.86974     -4918712.3      196.17212      196.17212      196.17212     -83.349336    
    260000   400.6938      -4918766.9      196.14391      196.14391      196.14391      195.21503    
    261000   400.37269     -4918698.6      196.16437      196.16437      196.16437      33.48421     
    262000   399.28182     -4918830.8      196.15717      196.15717      196.15717     -14.762503    
    263000   400.05029     -4918734.7      196.14856      196.14856      196.14856      53.929526    
    264000   399.69372     -4918792.3      196.1468       196.1468       196.1468       21.900219    
    265000   399.719       -4918813.9      196.13859      196.13859      196.13859      73.248186    
    266000   399.41592     -4918800.4      196.14908      196.14908      196.14908     -60.140828    
    267000   400.30716     -4918757.7      196.14468      196.14468      196.14468      1.3590503    
    268000   399.58435     -4918854.5      196.16222      196.16222      196.16222     -14.007626    
    269000   400.92208     -4918742.8      196.15037      196.15037      196.15037     -49.91872     
    270000   400.3687      -4918791.7      196.14094      196.14094      196.14094      76.3569      
    271000   399.78556     -4918763.7      196.15793      196.15793      196.15793      30.73999     
    272000   400.35811     -4918810.4      196.14794      196.14794      196.14794      45.403135    
    273000   399.87136     -4918794.6      196.15256      196.15256      196.15256      18.239778    
    274000   400.51854     -4918780.6      196.14391      196.14391      196.14391     -34.377882    
    275000   399.52409     -4918815.6      196.14846      196.14846      196.14846      90.427279    
    276000   400.51031     -4918742.1      196.14423      196.14423      196.14423     -35.532339    
    277000   400.26462     -4918759.2      196.13745      196.13745      196.13745      57.977517    
    278000   399.21523     -4918808.3      196.13673      196.13673      196.13673      141.36123    
    279000   399.8834      -4918754.6      196.1341       196.1341       196.1341       91.743069    
    280000   399.52065     -4918815.9      196.14426      196.14426      196.14426      18.010759    
    281000   399.678       -4918794.3      196.15788      196.15788      196.15788     -73.222257    
    282000   399.79542     -4918842.6      196.13322      196.13322      196.13322      58.722131    
    283000   400.01862     -4918791.1      196.15469      196.15469      196.15469     -152.84092    
    284000   400.42069     -4918751.1      196.13898      196.13898      196.13898      142.61374    
    285000   400.17746     -4918831.9      196.13537      196.13537      196.13537     -14.515194    
    286000   398.93634     -4918881.7      196.14659      196.14659      196.14659     -86.156318    
    287000   399.69211     -4918795.2      196.148        196.148        196.148       -9.2191824    
    288000   399.43351     -4918807.8      196.14479      196.14479      196.14479     -13.863712    
    289000   400.64761     -4918767.1      196.13759      196.13759      196.13759      69.873464    
    290000   399.85849     -4918816.6      196.13782      196.13782      196.13782      124.32348    
    291000   399.81874     -4918784.5      196.15385      196.15385      196.15385     -127.92761    
    292000   400.84903     -4918726.7      196.1561       196.1561       196.1561      -61.0064      
    293000   400.73144     -4918720.7      196.16533      196.16533      196.16533     -112.90525    
    294000   400.30058     -4918785.4      196.159        196.159        196.159       -100.20622    
    295000   400.0038      -4918833.7      196.15568      196.15568      196.15568     -111.16874    
    296000   400.2838      -4918805.8      196.13477      196.13477      196.13477     -8.6397919    
    297000   400.39826     -4918735.3      196.16589      196.16589      196.16589     -143.21224    
    298000   399.54806     -4918843.6      196.14626      196.14626      196.14626     -53.030379    
    299000   400.61285     -4918805.1      196.14323      196.14323      196.14323     -14.33111     
    300000   399.64291     -4918924.7      196.13739      196.13739      196.13739     -24.087317    
    301000   400.21813     -4918844        196.12354      196.12354      196.12354      109.44206    
    302000   399.74789     -4918815.9      196.13915      196.13915      196.13915     -78.307748    
    303000   399.16915     -4918838.8      196.13373      196.13373      196.13373     -44.684943    
    304000   400.20397     -4918772        196.12434      196.12434      196.12434      66.568702    
    305000   400.17551     -4918848        196.13734      196.13734      196.13734      14.92444     
    306000   400.10734     -4918826        196.13812      196.13812      196.13812     -22.410328    
    307000   399.53504     -4918892        196.12736      196.12736      196.12736     -14.185997    
    308000   400.40676     -4918795.6      196.12967      196.12967      196.12967      16.76763     
    309000   399.1852      -4918918.5      196.1449       196.1449       196.1449      -35.256693    
    310000   399.75329     -4918876.8      196.14757      196.14757      196.14757     -38.819804    
    311000   400.42341     -4918785        196.1442       196.1442       196.1442       27.481444    
    312000   400.04989     -4918792.7      196.1408       196.1408       196.1408       79.110171    
    313000   399.20083     -4918889.4      196.15068      196.15068      196.15068     -47.620877    
    314000   399.93424     -4918837.7      196.1293       196.1293       196.1293       137.83597    
    315000   398.67867     -4918919.3      196.13666      196.13666      196.13666      46.957838    
    316000   399.57174     -4918835        196.12657      196.12657      196.12657      82.595149    
    317000   399.78503     -4918865        196.13735      196.13735      196.13735     -33.613937    
    318000   400.28011     -4918849.4      196.14907      196.14907      196.14907     -97.370848    
    319000   399.71017     -4918859        196.13791      196.13791      196.13791      5.765564     
    320000   399.99394     -4918805.1      196.15386      196.15386      196.15386     -2.6246625    
    321000   399.94908     -4918845.2      196.15334      196.15334      196.15334     -39.725142    
    322000   399.59132     -4918820.1      196.14058      196.14058      196.14058      58.387592    
    323000   400.51618     -4918807.9      196.14595      196.14595      196.14595      93.45131     
    324000   399.84618     -4918888.5      196.14945      196.14945      196.14945     -91.570596    
    325000   400.06446     -4918853.3      196.14745      196.14745      196.14745     -127.52168    
    326000   400.42832     -4918878.6      196.14103      196.14103      196.14103     -43.237354    
    327000   399.59547     -4918864.5      196.15049      196.15049      196.15049      2.6352236    
    328000   399.94433     -4918874.4      196.14775      196.14775      196.14775     -57.523421    
    329000   400.04774     -4918878.5      196.13724      196.13724      196.13724      115.43943    
    330000   399.12328     -4918937.5      196.14212      196.14212      196.14212     -13.140693    
    331000   400.54219     -4918848.4      196.13832      196.13832      196.13832     -18.551019    
    332000   399.68261     -4918846.2      196.14107      196.14107      196.14107      94.049636    
    333000   398.69928     -4918920.7      196.14197      196.14197      196.14197      17.492732    
    334000   400.64557     -4918855.1      196.15962      196.15962      196.15962     -136.60541    
    335000   400.27601     -4918792.1      196.13776      196.13776      196.13776     -45.652052    
    336000   399.81952     -4918856.4      196.13365      196.13365      196.13365     -30.666305    
    337000   399.19107     -4918933.4      196.12797      196.12797      196.12797      61.763887    
    338000   400.26676     -4918864.1      196.13188      196.13188      196.13188      5.1364382    
    339000   399.62335     -4918876.6      196.12511      196.12511      196.12511     -13.636133    
    340000   399.99789     -4918865.3      196.12775      196.12775      196.12775     -14.297129    
    341000   400.85237     -4918798.4      196.11344      196.11344      196.11344      42.899528    
    342000   400.35566     -4918872        196.11288      196.11288      196.11288      132.77075    
    343000   400.16309     -4918945.9      196.11337      196.11337      196.11337      209.70828    
    344000   399.47863     -4918867.4      196.14824      196.14824      196.14824     -146.85089    
    345000   399.68484     -4918922        196.13422      196.13422      196.13422     -9.779338     
    346000   401.15679     -4918798        196.13186      196.13186      196.13186      87.86362     
    347000   399.86309     -4918922        196.12831      196.12831      196.12831      10.163423    
    348000   400.64775     -4918863.5      196.12716      196.12716      196.12716      58.046361    
    349000   400.17496     -4918895.4      196.13255      196.13255      196.13255     -25.239358    
    350000   400.17862     -4918850.9      196.13477      196.13477      196.13477     -65.563135    
    351000   400.32187     -4918889.5      196.13089      196.13089      196.13089      114.49511    
    352000   400.21324     -4918907.1      196.1243       196.1243       196.1243       116.05318    
    353000   400.42265     -4918836.6      196.13966      196.13966      196.13966     -0.58765238   
    354000   399.16183     -4918937.5      196.14159      196.14159      196.14159     -88.556557    
    355000   399.83174     -4918924.7      196.13031      196.13031      196.13031     -40.008766    
    356000   399.76881     -4918927.1      196.13276      196.13276      196.13276     -1.5904522    
    357000   399.57207     -4918881.6      196.12487      196.12487      196.12487      48.519534    
    358000   400.36201     -4918853.2      196.14228      196.14228      196.14228      13.565986    
    359000   400.52974     -4918933.7      196.12592      196.12592      196.12592      18.132228    
    360000   400.66327     -4918841.9      196.12543      196.12543      196.12543     -120.27026    
    361000   399.80741     -4918918        196.12885      196.12885      196.12885      28.733746    
    362000   400.45039     -4918904.2      196.10815      196.10815      196.10815      138.54044    
    363000   398.66292     -4918966.5      196.12796      196.12796      196.12796      51.645408    
    364000   399.66533     -4918918.1      196.13815      196.13815      196.13815     -86.194796    
    365000   399.57494     -4918975.5      196.12518      196.12518      196.12518      21.765206    
    366000   400.27292     -4918832.9      196.12483      196.12483      196.12483      55.091262    
    367000   400.02835     -4918908.9      196.13777      196.13777      196.13777      107.98876    
    368000   400.28616     -4918901.7      196.13994      196.13994      196.13994     -78.513843    
    369000   399.70937     -4918918.4      196.13         196.13         196.13         23.359013    
    370000   399.42118     -4918930.8      196.14294      196.14294      196.14294     -70.113378    
    371000   399.50341     -4918904.6      196.12891      196.12891      196.12891      76.178915    
    372000   399.8182      -4918928.5      196.14575      196.14575      196.14575      10.331384    
    373000   400.1858      -4918900.4      196.13453      196.13453      196.13453      103.1904     
    374000   400.35883     -4918884.9      196.13642      196.13642      196.13642     -95.442932    
    375000   400.3394      -4918882.1      196.14766      196.14766      196.14766     -53.831516    
    376000   398.81619     -4919003.4      196.14092      196.14092      196.14092     -5.6350016    
    377000   400.65283     -4918928.7      196.13782      196.13782      196.13782     -1.5562756    
    378000   399.34814     -4918989        196.13437      196.13437      196.13437     -59.776947    
    379000   399.90646     -4918904.2      196.13883      196.13883      196.13883      7.4897662    
    380000   400.37845     -4918903.2      196.12725      196.12725      196.12725      69.541405    
    381000   400.47435     -4918962        196.14095      196.14095      196.14095     -8.1804644    
    382000   399.29112     -4919006.9      196.11631      196.11631      196.11631      126.22388    
    383000   399.40339     -4918965.7      196.12775      196.12775      196.12775      74.648926    
    384000   400.12658     -4918936.9      196.1147       196.1147       196.1147       123.39232    
    385000   400.12601     -4918911.5      196.12364      196.12364      196.12364      3.559372     
    386000   399.61319     -4918970.7      196.12459      196.12459      196.12459      12.506066    
    387000   399.58393     -4918960.9      196.1321       196.1321       196.1321      -35.308672    
    388000   400.52186     -4918849.6      196.13307      196.13307      196.13307      80.965431    
    389000   399.37273     -4918968.8      196.14304      196.14304      196.14304     -94.466197    
    390000   400.18161     -4918940.4      196.13019      196.13019      196.13019      105.5393     
    391000   400.10584     -4918905.9      196.13789      196.13789      196.13789     -2.2161462    
    392000   399.43615     -4918960.7      196.15093      196.15093      196.15093     -16.472317    
    393000   400.67123     -4918921.2      196.12942      196.12942      196.12942      100.33747    
    394000   400.12111     -4918916.1      196.12759      196.12759      196.12759      113.75259    
    395000   400.4138      -4918915.4      196.1486       196.1486       196.1486      -6.1291145    
    396000   399.91225     -4918898.9      196.14094      196.14094      196.14094      6.8035521    
    397000   400.38188     -4918953.1      196.13595      196.13595      196.13595     -96.883924    
    398000   399.81273     -4918956.7      196.14456      196.14456      196.14456     -66.597275    
    399000   401.30996     -4918889.2      196.13717      196.13717      196.13717     -33.119372    
    400000   400.6322      -4918915.1      196.1278       196.1278       196.1278      -19.526494    
    401000   399.99165     -4918948.3      196.12479      196.12479      196.12479      2.6960414    
    402000   400.80098     -4918862.5      196.13315      196.13315      196.13315     -56.502962    
    403000   399.8538      -4918937.9      196.11206      196.11206      196.11206      179.84441    
    404000   399.57257     -4918962.7      196.1327       196.1327       196.1327      -66.470901    
    405000   399.80368     -4918983.1      196.13711      196.13711      196.13711     -32.324337    
    406000   399.832       -4919023.9      196.1292       196.1292       196.1292       97.757424    
    407000   399.46236     -4919004.7      196.13068      196.13068      196.13068      98.675018    
    408000   400.45762     -4918917.1      196.13464      196.13464      196.13464      29.09004     
    409000   399.59923     -4918997.8      196.13006      196.13006      196.13006     -29.330494    
    410000   401.28679     -4918879.8      196.12044      196.12044      196.12044      56.359714    
    411000   399.77825     -4918994.2      196.12235      196.12235      196.12235      58.860005    
    412000   400.09443     -4918924.3      196.12271      196.12271      196.12271     -14.869976    
    413000   399.72506     -4918997.4      196.13168      196.13168      196.13168     -39.051612    
    414000   399.89646     -4919007.6      196.11507      196.11507      196.11507     -41.431416    
    415000   400.35222     -4918949.7      196.12303      196.12303      196.12303      10.792115    
    416000   400.23106     -4918932.3      196.09894      196.09894      196.09894      160.30121    
    417000   400.50604     -4918943.6      196.1165       196.1165       196.1165       135.16348    
    418000   400.36306     -4918962.8      196.1308       196.1308       196.1308      -27.560868    
    419000   399.52057     -4919003.7      196.13874      196.13874      196.13874     -54.333391    
    420000   400.1057      -4918923.6      196.15637      196.15637      196.15637     -77.838837    
    421000   399.85927     -4918981.1      196.15192      196.15192      196.15192     -130.82633    
    422000   399.57048     -4918967.8      196.15382      196.15382      196.15382     -30.128037    
    423000   400.30967     -4918920        196.14016      196.14016      196.14016     -65.852887    
    424000   398.82149     -4918953.7      196.12993      196.12993      196.12993     -12.689119    
    425000   400.2428      -4918921.2      196.12612      196.12612      196.12612      82.226561    
    426000   399.99293     -4918939.7      196.12119      196.12119      196.12119      32.68065     
    427000   399.5812      -4919015.3      196.12226      196.12226      196.12226      44.772421    
    428000   400.29242     -4918941.7      196.13585      196.13585      196.13585     -80.578207    
    429000   399.17585     -4919034.2      196.12969      196.12969      196.12969     -5.9800206    
    430000   400.82115     -4918928.5      196.11875      196.11875      196.11875      34.685254    
    431000   400.41082     -4918969.6      196.10717      196.10717      196.10717      225.32499    
    432000   399.70559     -4918957.5      196.11938      196.11938      196.11938      60.643609    
    433000   400.91742     -4918954        196.11501      196.11501      196.11501      109.38686    
    434000   399.49367     -4918996.4      196.13037      196.13037      196.13037     -20.31102     
    435000   400.63793     -4918938.7      196.13129      196.13129      196.13129     -11.548562    
    436000   399.58174     -4918971        196.13853      196.13853      196.13853     -42.42794     
    437000   400.09943     -4918966.5      196.12704      196.12704      196.12704      88.779597    
    438000   399.71786     -4918982        196.15356      196.15356      196.15356     -154.54017    
    439000   400.39444     -4918936        196.14621      196.14621      196.14621     -125.08128    
    440000   398.6409      -4919066.4      196.1278       196.1278       196.1278       96.19912     
    441000   400.05399     -4918976        196.14072      196.14072      196.14072     -38.95267     
    442000   399.46824     -4918988.4      196.13941      196.13941      196.13941      10.256476    
    443000   399.82251     -4919036.9      196.1445       196.1445       196.1445      -8.330354     
    444000   400.22559     -4919037        196.1285       196.1285       196.1285       26.043192    
    445000   398.99259     -4919074.3      196.10833      196.10833      196.10833      134.66705    
    446000   399.28814     -4918968        196.12708      196.12708      196.12708      8.7784928    
    447000   400.74584     -4918947.5      196.12532      196.12532      196.12532      27.327593    
    448000   399.85784     -4918944.2      196.12593      196.12593      196.12593      86.752974    
    449000   400.19732     -4919055.3      196.11875      196.11875      196.11875      107.90901    
    450000   399.21872     -4919042.5      196.12254      196.12254      196.12254     -29.732336    
    451000   400.16655     -4918965.3      196.11883      196.11883      196.11883      185.08726    
    452000   399.1828      -4919080.5      196.12823      196.12823      196.12823     -40.10034     
    453000   399.60901     -4919007.2      196.127        196.127        196.127       -64.867986    
    454000   399.76586     -4918992        196.12377      196.12377      196.12377      78.251877    
    455000   399.91277     -4918951.7      196.12785      196.12785      196.12785      43.439397    
    456000   399.02885     -4919025.3      196.13278      196.13278      196.13278     -19.263825    
    457000   400.58426     -4918922.7      196.13982      196.13982      196.13982     -73.646806    
    458000   399.57648     -4919023        196.11265      196.11265      196.11265     -34.096551    
    459000   399.47402     -4919030        196.12393      196.12393      196.12393     -61.720932    
    460000   399.61234     -4919030.8      196.10758      196.10758      196.10758      166.42341    
    461000   400.01754     -4919004.4      196.10757      196.10757      196.10757      105.6647     
    462000   399.72523     -4918988.1      196.12128      196.12128      196.12128     -32.325156    
    463000   399.76022     -4918997.8      196.12858      196.12858      196.12858     -83.278067    
    464000   399.8076      -4919051.9      196.11584      196.11584      196.11584      55.284501    
    465000   399.50811     -4919053.4      196.12318      196.12318      196.12318     -28.84128     
    466000   399.69422     -4919027.3      196.13737      196.13737      196.13737     -84.238074    
    467000   399.6613      -4918983        196.13164      196.13164      196.13164     -79.199131    
    468000   400.46065     -4919023.3      196.12697      196.12697      196.12697     -18.363364    
    469000   399.48401     -4919060.8      196.13431      196.13431      196.13431     -72.204093    
    470000   399.84502     -4919035.6      196.12453      196.12453      196.12453     -24.909416    
    471000   399.62019     -4919015.2      196.13179      196.13179      196.13179     -65.198114    
    472000   400.17288     -4918967.3      196.12948      196.12948      196.12948      69.811651    
    473000   399.82039     -4919025.8      196.12068      196.12068      196.12068      73.917218    
    474000   399.8073      -4919008.9      196.12925      196.12925      196.12925      49.254227    
    475000   400.70294     -4918942.7      196.12426      196.12426      196.12426     -65.661063    
    476000   399.95575     -4919011.2      196.11685      196.11685      196.11685      29.358511    
    477000   399.05983     -4919039.3      196.12278      196.12278      196.12278      14.696457    
    478000   400.15028     -4918986.9      196.12604      196.12604      196.12604     -73.37482     
    479000   399.42753     -4919104.6      196.09838      196.09838      196.09838      116.84718    
    480000   400.55739     -4918957.6      196.12444      196.12444      196.12444     -87.998889    
    481000   400.17342     -4919068.5      196.12108      196.12108      196.12108     -15.002883    
    482000   400.29344     -4919005.3      196.11315      196.11315      196.11315      1.7444499    
    483000   400.40047     -4919018.9      196.10292      196.10292      196.10292      143.49885    
    484000   400.49758     -4918986.7      196.13336      196.13336      196.13336     -141.38488    
    485000   399.99498     -4919059.3      196.10903      196.10903      196.10903      138.00815    
    486000   400.27611     -4918947.5      196.14         196.14         196.14        -111.98127    
    487000   400.38591     -4919005.5      196.12325      196.12325      196.12325      5.0475094    
    488000   398.58975     -4919047.2      196.1164       196.1164       196.1164       29.850038    
    489000   399.45656     -4919069.7      196.11821      196.11821      196.11821      53.971813    
    490000   399.56692     -4919055.5      196.12476      196.12476      196.12476     -48.064139    
    491000   399.33456     -4918995.8      196.11748      196.11748      196.11748      2.6054257    
    492000   399.68657     -4919036.5      196.11738      196.11738      196.11738     -101.21533    
    493000   400.84896     -4919004.5      196.10638      196.10638      196.10638      54.353277    
    494000   399.06598     -4919084.3      196.1132       196.1132       196.1132      -19.141998    
    495000   399.58772     -4919094.1      196.12126      196.12126      196.12126      73.45278     
    496000   399.14394     -4919012.1      196.11574      196.11574      196.11574     -29.38322     
    497000   399.19748     -4919003.2      196.10718      196.10718      196.10718      121.43232    
    498000   399.89103     -4919075.4      196.12427      196.12427      196.12427     -36.770401    
    499000   400.47046     -4918980.6      196.12113      196.12113      196.12113      112.39686    
    500000   400.2643      -4919047        196.11898      196.11898      196.11898      67.89078     
    501000   399.32072     -4919037        196.12737      196.12737      196.12737     -26.418445    
    502000   400.84277     -4918917.9      196.10808      196.10808      196.10808      131.08917    
    503000   399.65027     -4919064.7      196.10389      196.10389      196.10389      138.90133    
    504000   400.10889     -4919015.8      196.13422      196.13422      196.13422     -61.184914    
    505000   400.41291     -4919004.3      196.12331      196.12331      196.12331      107.52079    
    506000   399.88723     -4919060.5      196.12495      196.12495      196.12495     -40.269463    
    507000   398.86321     -4919072.5      196.11595      196.11595      196.11595     -21.634277    
    508000   399.35866     -4919072.2      196.12316      196.12316      196.12316     -27.967851    
    509000   400.22244     -4919016.8      196.11431      196.11431      196.11431      99.369841    
    510000   399.79903     -4919074.2      196.11258      196.11258      196.11258      126.67749    
    511000   399.54279     -4919046.7      196.12309      196.12309      196.12309      24.871038    
    512000   400.19688     -4918991.5      196.13787      196.13787      196.13787     -127.66122    
    513000   399.76212     -4918952.2      196.12744      196.12744      196.12744     -67.464727    
    514000   400.71852     -4919009.2      196.11908      196.11908      196.11908      57.833559    
    515000   399.7137      -4919066.5      196.1107       196.1107       196.1107       86.552494    
    516000   399.92339     -4919043.1      196.10859      196.10859      196.10859      101.10968    
    517000   400.56741     -4918983.4      196.11643      196.11643      196.11643      31.996314    
    518000   399.78626     -4919050        196.09908      196.09908      196.09908      131.44594    
    519000   399.48169     -4919035.6      196.12228      196.12228      196.12228     -127.83448    
    520000   400.21653     -4918992.1      196.12238      196.12238      196.12238     -47.58136     
    521000   399.28363     -4919013.2      196.12077      196.12077      196.12077     -88.389036    
    522000   400.35969     -4919006.4      196.12124      196.12124      196.12124     -110.03035    
    523000   400.16011     -4919029.2      196.11643      196.11643      196.11643      27.396609    
    524000   399.85244     -4919097.2      196.13252      196.13252      196.13252     -139.86213    
    525000   399.41674     -4919087.4      196.11659      196.11659      196.11659     -149.9769     
    526000   399.96782     -4919023.7      196.12942      196.12942      196.12942     -42.364363    
    527000   399.93088     -4919058.1      196.11839      196.11839      196.11839      110.43316    
    528000   400.84414     -4919023.1      196.12204      196.12204      196.12204      0.34472695   
    529000   399.97965     -4919010        196.12552      196.12552      196.12552     -134.68867    
    530000   399.81525     -4919056.3      196.10136      196.10136      196.10136     -33.171867    
    531000   399.19694     -4919130        196.11463      196.11463      196.11463     -88.805134    
    532000   400.64947     -4918994.6      196.10157      196.10157      196.10157      92.403863    
    533000   399.71845     -4919088.6      196.09903      196.09903      196.09903      106.35281    
    534000   399.7207      -4919069        196.11272      196.11272      196.11272     -37.188855    
    535000   398.74924     -4919102.3      196.12834      196.12834      196.12834     -91.810833    
    536000   400.83182     -4918969.1      196.11678      196.11678      196.11678      22.6132      
    537000   400.08855     -4919022.2      196.09913      196.09913      196.09913      92.586186    
    538000   399.78928     -4919046        196.10181      196.10181      196.10181      128.54308    
    539000   400.3997      -4919027.4      196.11479      196.11479      196.11479     -81.089674    
    540000   400.03175     -4919024.7      196.11819      196.11819      196.11819      69.613802    
    541000   400.89291     -4919028.4      196.1091       196.1091       196.1091       85.377068    
    542000   399.4616      -4919031.1      196.11333      196.11333      196.11333      29.024708    
    543000   399.66538     -4919110.3      196.1096       196.1096       196.1096       60.023233    
    544000   400.65875     -4919045.2      196.1056       196.1056       196.1056       116.04466    
    545000   399.48136     -4919108.2      196.11329      196.11329      196.11329     -41.765904    
    546000   400.31158     -4919032.7      196.11297      196.11297      196.11297     -47.152948    
    547000   400.84663     -4919023.4      196.10573      196.10573      196.10573      67.64676     
    548000   400.14412     -4919051.5      196.12435      196.12435      196.12435     -64.679572    
    549000   400.32545     -4919045.2      196.10179      196.10179      196.10179      75.916088    
    550000   399.82577     -4919109.9      196.1277       196.1277       196.1277      -136.82857    
    551000   399.47992     -4919054.3      196.11978      196.11978      196.11978     -78.907663    
    552000   400.36004     -4919048.9      196.1148       196.1148       196.1148       84.601145    
    553000   398.99113     -4919135.7      196.11167      196.11167      196.11167      4.612822     
    554000   399.37665     -4919117.2      196.1153       196.1153       196.1153      -85.758783    
    555000   399.16407     -4919109.7      196.11467      196.11467      196.11467     -84.856048    
    556000   399.11727     -4919118.8      196.09832      196.09832      196.09832      40.163363    
    557000   399.6979      -4919093.1      196.10856      196.10856      196.10856     -65.663345    
    558000   400.69747     -4919049.9      196.11218      196.11218      196.11218     -43.669018    
    559000   399.70947     -4919114.7      196.10416      196.10416      196.10416     -67.232142    
    560000   399.39809     -4919097.8      196.10138      196.10138      196.10138      30.659095    
    561000   399.87046     -4919066.8      196.10582      196.10582      196.10582      55.208331    
    562000   400.05802     -4919029.4      196.10631      196.10631      196.10631     -10.141844    
    563000   399.66792     -4919114.4      196.10517      196.10517      196.10517      54.810204    
    564000   399.8214      -4919061.8      196.10554      196.10554      196.10554      75.352385    
    565000   399.45238     -4919099.1      196.12154      196.12154      196.12154      48.691206    
    566000   399.60025     -4919073.2      196.1258       196.1258       196.1258      -22.672861    
    567000   400.01146     -4919098.1      196.10079      196.10079      196.10079      192.20302    
    568000   399.39936     -4919111.5      196.12524      196.12524      196.12524     -106.93936    
    569000   399.94917     -4919148.4      196.1239       196.1239       196.1239      -144.08709    
    570000   399.83161     -4919082.6      196.11261      196.11261      196.11261      54.892453    
    571000   400.17734     -4919064.4      196.10491      196.10491      196.10491      51.088789    
    572000   399.66068     -4919100.5      196.11137      196.11137      196.11137     -27.19153     
    573000   400.21484     -4919044.3      196.11492      196.11492      196.11492      25.670255    
    574000   400.28861     -4919100.6      196.11494      196.11494      196.11494     -56.73942     
    575000   399.12071     -4919119.7      196.11292      196.11292      196.11292     -22.756927    
    576000   399.64801     -4919117.9      196.119        196.119        196.119       -32.942618    
    577000   400.47768     -4919061.8      196.11309      196.11309      196.11309      83.605384    
    578000   399.84565     -4919097        196.1162       196.1162       196.1162      -75.089892    
    579000   400.19709     -4919101.9      196.10642      196.10642      196.10642      41.011572    
    580000   400.08713     -4919106.5      196.11286      196.11286      196.11286      12.854503    
    581000   399.92189     -4919123.6      196.0959       196.0959       196.0959       46.18202     
    582000   399.44184     -4919112.7      196.12918      196.12918      196.12918     -88.411196    
    583000   400.37822     -4919099.2      196.12803      196.12803      196.12803     -102.38508    
    584000   399.53539     -4919136.9      196.11548      196.11548      196.11548      28.257067    
    585000   400.36772     -4919050.4      196.11483      196.11483      196.11483      105.93075    
    586000   399.43946     -4919090.3      196.11359      196.11359      196.11359      45.030909    
    587000   399.45929     -4919156.4      196.11646      196.11646      196.11646      29.13599     
    588000   400.81566     -4919074.3      196.12137      196.12137      196.12137      56.650485    
    589000   400.17951     -4919087.8      196.11484      196.11484      196.11484     -79.370801    
    590000   399.5576      -4919114.7      196.1135       196.1135       196.1135       6.8888584    
    591000   400.93002     -4919033.7      196.10415      196.10415      196.10415      148.97269    
    592000   400.97192     -4919091.3      196.10947      196.10947      196.10947      26.167422    
    593000   399.28948     -4919171        196.10956      196.10956      196.10956      17.909707    
    594000   399.98955     -4919142.4      196.09964      196.09964      196.09964      105.03387    
    595000   399.38275     -4919157.1      196.11364      196.11364      196.11364      9.4435982    
    596000   399.50665     -4919102.3      196.10682      196.10682      196.10682      77.803135    
    597000   400.23263     -4919092        196.1156       196.1156       196.1156       60.409198    
    598000   400.4823      -4919098.9      196.1242       196.1242       196.1242      -45.92539     
    599000   399.59712     -4919109.9      196.1094       196.1094       196.1094       84.048309    
    600000   399.77611     -4919100.2      196.10349      196.10349      196.10349      45.350276    
    601000   399.47773     -4919130.9      196.10018      196.10018      196.10018      47.225782    
    602000   400.67284     -4919057.4      196.11934      196.11934      196.11934     -37.319794    
    603000   399.34752     -4919103.6      196.11224      196.11224      196.11224      42.108353    
    604000   398.99268     -4919171.3      196.1184       196.1184       196.1184       51.711687    
    605000   400.14593     -4919110.3      196.11527      196.11527      196.11527      75.014155    
    606000   400.80968     -4919081.7      196.12418      196.12418      196.12418     -55.751946    
    607000   399.60675     -4919201.7      196.11368      196.11368      196.11368     -29.902861    
    608000   399.0553      -4919088.4      196.1213       196.1213       196.1213       80.760801    
    609000   400.38727     -4919060        196.13848      196.13848      196.13848     -213.15948    
    610000   399.29815     -4919111.2      196.12266      196.12266      196.12266      86.025069    
    611000   399.86371     -4919121.8      196.12119      196.12119      196.12119     -55.045702    
    612000   400.07812     -4919093.4      196.12955      196.12955      196.12955     -135.95116    
    613000   400.23974     -4919102.6      196.10931      196.10931      196.10931     -8.8169274    
    614000   400.32803     -4919121.1      196.11028      196.11028      196.11028     -9.3286878    
    615000   399.9289      -4919164.3      196.10314      196.10314      196.10314      51.941872    
    616000   399.86469     -4919086.4      196.10863      196.10863      196.10863     -0.61778913   
    617000   400.31298     -4919093.2      196.10035      196.10035      196.10035      29.855638    
    618000   399.89841     -4919143.4      196.11267      196.11267      196.11267      42.462011    
    619000   399.93482     -4919069.7      196.12093      196.12093      196.12093     -123.3305     
    620000   399.00156     -4919134        196.10731      196.10731      196.10731     -120.53388    
    621000   399.70162     -4919131        196.10266      196.10266      196.10266     -5.2756337    
    622000   400.61937     -4919042.4      196.12834      196.12834      196.12834     -26.294229    
    623000   400.5692      -4919052.9      196.10336      196.10336      196.10336      77.600202    
    624000   399.08143     -4919173.2      196.11594      196.11594      196.11594      50.611653    
    625000   399.4352      -4919158        196.12693      196.12693      196.12693     -126.88554    
    626000   399.88821     -4919096.6      196.11951      196.11951      196.11951     -6.7625892    
    627000   399.52462     -4919137.8      196.11366      196.11366      196.11366      82.622137    
    628000   400.45687     -4919033.4      196.12253      196.12253      196.12253     -104.30281    
    629000   399.63872     -4919151.3      196.10492      196.10492      196.10492      56.800543    
    630000   399.8297      -4919048.5      196.10755      196.10755      196.10755      80.196267    
    631000   400.6766      -4919041.6      196.11363      196.11363      196.11363     -78.744067    
    632000   400.06702     -4919120.8      196.11201      196.11201      196.11201     -41.87199     
    633000   400.70925     -4919075.8      196.09479      196.09479      196.09479      175.99917    
    634000   400.05788     -4919090.2      196.11242      196.11242      196.11242      29.307205    
    635000   400.11622     -4919067        196.11132      196.11132      196.11132      20.82931     
    636000   400.53711     -4919027.9      196.11575      196.11575      196.11575     -3.2349127    
    637000   399.822       -4919120.3      196.09115      196.09115      196.09115      195.28913    
    638000   401.17503     -4919071.1      196.12381      196.12381      196.12381     -6.7348259    
    639000   399.44145     -4919135.8      196.12553      196.12553      196.12553     -53.003238    
    640000   400.37967     -4919091.5      196.11727      196.11727      196.11727      46.348503    
    641000   399.86288     -4919101.7      196.10737      196.10737      196.10737      59.421794    
    642000   401.09182     -4919078.6      196.12754      196.12754      196.12754     -72.943274    
    643000   400.38608     -4919098.4      196.10215      196.10215      196.10215      113.60097    
    644000   400.41777     -4919077.1      196.09978      196.09978      196.09978      20.845161    
    645000   399.70236     -4919120.9      196.10022      196.10022      196.10022      138.33854    
    646000   399.78031     -4919120.9      196.10115      196.10115      196.10115      201.9386     
    647000   399.9287      -4919128.2      196.11022      196.11022      196.11022      60.561978    
    648000   399.55163     -4919172.2      196.104        196.104        196.104       -48.737505    
    649000   399.84472     -4919131.8      196.11752      196.11752      196.11752     -78.628767    
    650000   399.05621     -4919184.5      196.11382      196.11382      196.11382      27.501417    
    651000   400.62916     -4919086        196.10941      196.10941      196.10941     -34.529454    
    652000   399.33517     -4919154.4      196.10651      196.10651      196.10651      46.645577    
    653000   400.08947     -4919171.3      196.11032      196.11032      196.11032      74.268698    
    654000   399.56424     -4919167.8      196.11036      196.11036      196.11036      52.379839    
    655000   400.43903     -4919086.7      196.12392      196.12392      196.12392     -34.650798    
    656000   399.59231     -4919170.2      196.11854      196.11854      196.11854      62.190608    
    657000   399.78652     -4919166.7      196.13309      196.13309      196.13309     -99.044906    
    658000   400.3667      -4919091.6      196.11737      196.11737      196.11737      87.979593    
    659000   399.88295     -4919140.5      196.10454      196.10454      196.10454      51.542012    
    660000   399.91398     -4919115        196.10852      196.10852      196.10852     -83.840012    
    661000   398.55312     -4919237        196.08926      196.08926      196.08926      168.82018    
    662000   400.40028     -4919113.7      196.12553      196.12553      196.12553     -129.99661    
    663000   399.80285     -4919155.3      196.11504      196.11504      196.11504     -13.6673      
    664000   399.71451     -4919123        196.11637      196.11637      196.11637      44.204747    
    665000   400.17095     -4919114.7      196.10708      196.10708      196.10708      163.99304    
    666000   398.92102     -4919179.3      196.11027      196.11027      196.11027      42.073588    
    667000   400.05568     -4919146.1      196.1197       196.1197       196.1197      -64.43449     
    668000   399.37726     -4919231        196.11424      196.11424      196.11424     -4.3468418    
    669000   399.97611     -4919191.8      196.10382      196.10382      196.10382      74.096155    
    670000   400.71754     -4919117.7      196.10956      196.10956      196.10956     -16.218253    
    671000   400.28284     -4919114        196.11387      196.11387      196.11387     -24.661563    
    672000   399.78673     -4919159.3      196.1201       196.1201       196.1201      -60.716877    
    673000   400.35712     -4919131.5      196.13117      196.13117      196.13117     -107.20603    
    674000   399.63658     -4919198.1      196.1104       196.1104       196.1104       45.790757    
    675000   399.87146     -4919181        196.09658      196.09658      196.09658      117.14621    
    676000   399.06565     -4919156.5      196.10552      196.10552      196.10552     -22.355278    
    677000   399.2208      -4919209        196.10495      196.10495      196.10495     -38.64341     
    678000   400.33107     -4919156.1      196.1089       196.1089       196.1089      -14.792589    
    679000   400.18235     -4919114        196.10768      196.10768      196.10768      82.768032    
    680000   399.33305     -4919177.5      196.11441      196.11441      196.11441     -4.1551535    
    681000   399.82887     -4919146.4      196.10921      196.10921      196.10921     -15.990854    
    682000   399.42316     -4919206        196.1106       196.1106       196.1106       15.020843    
    683000   400.23363     -4919150.8      196.12084      196.12084      196.12084     -34.583424    
    684000   399.86871     -4919151.7      196.11952      196.11952      196.11952     -48.591255    
    685000   400.56093     -4919080.5      196.12315      196.12315      196.12315      10.047754    
    686000   400.45346     -4919183.1      196.1188       196.1188       196.1188      -19.022016    
    687000   399.85622     -4919132.3      196.10923      196.10923      196.10923      74.625628    
    688000   399.27045     -4919235.4      196.09612      196.09612      196.09612      17.804966    
    689000   401.16303     -4919082.8      196.11266      196.11266      196.11266      13.881648    
    690000   399.8565      -4919170.4      196.10654      196.10654      196.10654      93.886343    
    691000   399.80025     -4919167.1      196.10702      196.10702      196.10702      102.58449    
    692000   399.36802     -4919169        196.1186       196.1186       196.1186      -122.60605    
    693000   399.49338     -4919156.7      196.10954      196.10954      196.10954     -48.758199    
    694000   400.91204     -4919103.9      196.09777      196.09777      196.09777      71.091422    
    695000   399.56961     -4919196        196.10108      196.10108      196.10108      119.29053    
    696000   399.49882     -4919172.6      196.10185      196.10185      196.10185      75.900444    
    697000   400.84321     -4919162.2      196.10511      196.10511      196.10511     -37.931933    
    698000   399.07915     -4919168.5      196.10542      196.10542      196.10542     -84.94238     
    699000   400.15087     -4919179.5      196.10587      196.10587      196.10587      44.674398    
    700000   400.81554     -4919114.3      196.11426      196.11426      196.11426     -16.701528    
    701000   400.02199     -4919189.4      196.11333      196.11333      196.11333     -43.144695    
    702000   400.1442      -4919151.2      196.12093      196.12093      196.12093     -137.05396    
    703000   400.01727     -4919200.2      196.12823      196.12823      196.12823     -119.47359    
    704000   400.24764     -4919148.9      196.11988      196.11988      196.11988     -53.794888    
    705000   400.08376     -4919180        196.10728      196.10728      196.10728     -22.401745    
    706000   399.56921     -4919235.1      196.1098       196.1098       196.1098      -19.367906    
    707000   399.86572     -4919196.4      196.10627      196.10627      196.10627      110.53499    
    708000   399.75441     -4919218.2      196.10642      196.10642      196.10642      71.367019    
    709000   400.49569     -4919166.9      196.10107      196.10107      196.10107      75.754085    
    710000   399.53355     -4919137.5      196.11653      196.11653      196.11653     -46.826722    
    711000   399.48568     -4919198        196.11724      196.11724      196.11724      31.309666    
    712000   399.63103     -4919180.1      196.1158       196.1158       196.1158      -11.806513    
    713000   400.64765     -4919132.4      196.10457      196.10457      196.10457      88.553678    
    714000   399.30662     -4919190        196.11156      196.11156      196.11156     -15.451257    
    715000   400.80078     -4919148.2      196.10737      196.10737      196.10737     -71.302061    
    716000   399.88778     -4919138        196.11939      196.11939      196.11939     -38.51071     
    717000   400.4436      -4919121.4      196.11682      196.11682      196.11682     -2.7247943    
    718000   400.27929     -4919137        196.11223      196.11223      196.11223     -43.514701    
    719000   399.89579     -4919198.3      196.09956      196.09956      196.09956      115.29151    
    720000   398.70042     -4919246.6      196.09796      196.09796      196.09796      96.02897     
    721000   400.09342     -4919218.1      196.11538      196.11538      196.11538     -61.954181    
    722000   400.10578     -4919156.1      196.11638      196.11638      196.11638     -1.6171718    
    723000   399.11894     -4919229        196.11146      196.11146      196.11146      43.767247    
    724000   400.43685     -4919193.7      196.11078      196.11078      196.11078      106.08142    
    725000   400.13584     -4919228.3      196.12029      196.12029      196.12029     -55.942245    
    726000   399.58175     -4919216.6      196.11825      196.11825      196.11825     -28.020819    
    727000   400.23034     -4919172.2      196.11743      196.11743      196.11743     -63.791681    
    728000   400.9633      -4919141.4      196.09474      196.09474      196.09474      95.89968     
    729000   399.42679     -4919212.4      196.09832      196.09832      196.09832      149.65023    
    730000   400.28059     -4919153.8      196.11434      196.11434      196.11434     -29.087693    
    731000   400.0779      -4919148.4      196.09953      196.09953      196.09953      13.135587    
    732000   399.71816     -4919252.2      196.11218      196.11218      196.11218      4.9034309    
    733000   399.87419     -4919220.7      196.10064      196.10064      196.10064      123.70514    
    734000   399.46526     -4919242.8      196.1105       196.1105       196.1105      -13.359285    
    735000   399.93671     -4919174.1      196.10983      196.10983      196.10983      11.304665    
    736000   400.33182     -4919176.5      196.10756      196.10756      196.10756     -33.758566    
    737000   401.01975     -4919131.1      196.11794      196.11794      196.11794     -22.964811    
    738000   400.6743      -4919189.7      196.09721      196.09721      196.09721      89.575159    
    739000   400.04709     -4919216.4      196.11286      196.11286      196.11286      34.326742    
    740000   398.76501     -4919186.5      196.09985      196.09985      196.09985      144.87242    
    741000   400.43811     -4919185.2      196.10093      196.10093      196.10093      37.741957    
    742000   400.33113     -4919164.2      196.12141      196.12141      196.12141     -163.93147    
    743000   400.06289     -4919185.1      196.11535      196.11535      196.11535     -84.526151    
    744000   401.15745     -4919125.7      196.1118       196.1118       196.1118      -1.3430626    
    745000   400.72191     -4919179.7      196.09833      196.09833      196.09833      138.41089    
    746000   399.61187     -4919251.4      196.11839      196.11839      196.11839     -49.251176    
    747000   400.38558     -4919147.4      196.09703      196.09703      196.09703      135.42464    
    748000   400.26139     -4919158.8      196.11127      196.11127      196.11127     -32.257203    
    749000   399.79482     -4919220.4      196.10773      196.10773      196.10773      18.09277     
    750000   400.84007     -4919171        196.12391      196.12391      196.12391     -104.59783    
    751000   400.05468     -4919163.9      196.10442      196.10442      196.10442      24.148744    
    752000   400.01938     -4919211.6      196.10173      196.10173      196.10173      38.908797    
    753000   399.84127     -4919179.6      196.10768      196.10768      196.10768      54.126952    
    754000   399.74243     -4919240.9      196.09949      196.09949      196.09949      90.501498    
    755000   399.36318     -4919238.3      196.11875      196.11875      196.11875     -122.78344    
    756000   400.97276     -4919139.9      196.11389      196.11389      196.11389      114.58992    
    757000   399.941       -4919184.2      196.10158      196.10158      196.10158      98.204314    
    758000   399.83162     -4919199.3      196.10146      196.10146      196.10146      85.041442    
    759000   399.47255     -4919233.1      196.12918      196.12918      196.12918     -101.95904    
    760000   399.88133     -4919164.9      196.11901      196.11901      196.11901     -2.3834975    
    761000   400.36161     -4919154.8      196.11179      196.11179      196.11179     -13.656311    
    762000   399.7769      -4919197.7      196.11668      196.11668      196.11668     -73.215869    
    763000   399.34672     -4919258.5      196.11508      196.11508      196.11508     -42.908822    
    764000   399.49029     -4919231.7      196.11802      196.11802      196.11802     -102.07138    
    765000   400.42615     -4919181.4      196.1306       196.1306       196.1306      -225.94966    
    766000   399.72258     -4919185.7      196.13001      196.13001      196.13001     -46.678344    
    767000   399.96736     -4919215.9      196.09507      196.09507      196.09507      229.4955     
    768000   399.49652     -4919212.7      196.11055      196.11055      196.11055      53.637361    
    769000   400.16795     -4919249.1      196.11668      196.11668      196.11668     -172.9492     
    770000   399.73362     -4919170.3      196.0919       196.0919       196.0919       185.72724    
    771000   400.06564     -4919172.6      196.0916       196.0916       196.0916       113.20834    
    772000   399.79049     -4919194        196.10489      196.10489      196.10489     -46.163156    
    773000   400.1862      -4919152.4      196.11761      196.11761      196.11761     -45.300219    
    774000   400.79659     -4919169.7      196.08288      196.08288      196.08288      234.42237    
    775000   400.14183     -4919200.9      196.11305      196.11305      196.11305      39.448088    
    776000   400.03412     -4919184.9      196.1054       196.1054       196.1054       22.875535    
    777000   400.08599     -4919243.4      196.09506      196.09506      196.09506      111.38934    
    778000   400.95142     -4919157        196.10699      196.10699      196.10699      19.207925    
    779000   400.75887     -4919136.1      196.10385      196.10385      196.10385      36.04208     
    780000   398.71656     -4919300.7      196.10988      196.10988      196.10988     -59.24415     
    781000   398.89283     -4919228.1      196.11519      196.11519      196.11519     -50.965625    
    782000   400.33542     -4919239.6      196.10384      196.10384      196.10384     -36.506453    
    783000   400.38097     -4919151.9      196.11631      196.11631      196.11631      61.721625    
    784000   400.03134     -4919187.6      196.11334      196.11334      196.11334     -52.107836    
    785000   399.85852     -4919199        196.11295      196.11295      196.11295      21.709034    
    786000   399.94308     -4919251.9      196.12372      196.12372      196.12372     -89.06972     
    787000   400.20379     -4919193.5      196.13308      196.13308      196.13308     -172.0134     
    788000   400.65671     -4919197.1      196.0934       196.0934       196.0934       67.797449    
    789000   399.34357     -4919292.6      196.11089      196.11089      196.11089     -158.33015    
    790000   399.40133     -4919259.1      196.11076      196.11076      196.11076      6.5820787    
    791000   400.12013     -4919199.6      196.10609      196.10609      196.10609     -51.766127    
    792000   400.19663     -4919161.2      196.11322      196.11322      196.11322     -94.411012    
    793000   399.77935     -4919271.1      196.10364      196.10364      196.10364     -53.995579    
    794000   400.25442     -4919179.1      196.11762      196.11762      196.11762      15.492482    
    795000   399.75755     -4919207.9      196.10448      196.10448      196.10448     -24.252312    
    796000   399.87762     -4919178.5      196.1204       196.1204       196.1204      -93.789109    
    797000   399.54014     -4919245.3      196.10869      196.10869      196.10869      94.811761    
    798000   400.86918     -4919161.8      196.10304      196.10304      196.10304      55.49889     
    799000   399.7095      -4919226.8      196.1017       196.1017       196.1017       97.287474    
    800000   400.00743     -4919212.8      196.10467      196.10467      196.10467      79.563248    
    801000   400.23134     -4919177        196.12039      196.12039      196.12039     -109.01875    
    802000   399.87779     -4919263.4      196.11805      196.11805      196.11805      65.84336     
    803000   399.9943      -4919244.1      196.09603      196.09603      196.09603      93.945657    
    804000   399.95852     -4919162.2      196.12688      196.12688      196.12688     -168.22333    
    805000   399.6876      -4919244.3      196.12363      196.12363      196.12363     -85.729766    
    806000   399.79169     -4919274.5      196.10316      196.10316      196.10316      162.29193    
    807000   400.51419     -4919240.1      196.11422      196.11422      196.11422     -122.18481    
    808000   400.69539     -4919172.8      196.11116      196.11116      196.11116      14.878424    
    809000   399.67901     -4919218.6      196.12545      196.12545      196.12545     -83.620567    
    810000   400.83639     -4919178.3      196.09911      196.09911      196.09911      58.924186    
    811000   400.38983     -4919160.2      196.11526      196.11526      196.11526     -51.929932    
    812000   400.11542     -4919218.5      196.09153      196.09153      196.09153      150.67163    
    813000   400.90983     -4919175.2      196.09959      196.09959      196.09959      71.523493    
    814000   399.71841     -4919294.1      196.10729      196.10729      196.10729     -27.363326    
    815000   400.02341     -4919178.5      196.12547      196.12547      196.12547     -126.06887    
    816000   400.40808     -4919186        196.13059      196.13059      196.13059     -71.599817    
    817000   399.73623     -4919251.6      196.09875      196.09875      196.09875      60.707121    
    818000   400.28905     -4919218.5      196.11772      196.11772      196.11772     -137.61608    
    819000   399.09037     -4919269.7      196.11012      196.11012      196.11012      86.695275    
    820000   399.06339     -4919259.2      196.11055      196.11055      196.11055     -19.229198    
    821000   399.85807     -4919252.9      196.12358      196.12358      196.12358     -203.53671    
    822000   400.72006     -4919238.3      196.10992      196.10992      196.10992     -21.93332     
    823000   400.42194     -4919151.3      196.10764      196.10764      196.10764      72.627431    
    824000   399.56163     -4919262.1      196.10856      196.10856      196.10856      18.016871    
    825000   398.90862     -4919299.7      196.09836      196.09836      196.09836      173.98951    
    826000   400.22456     -4919221.5      196.11832      196.11832      196.11832     -29.009189    
    827000   400.58236     -4919214.4      196.10625      196.10625      196.10625      11.736197    
    828000   399.34387     -4919302.8      196.10473      196.10473      196.10473      12.927136    
    829000   399.27229     -4919292.7      196.09634      196.09634      196.09634      81.520007    
    830000   401.05045     -4919207.9      196.10409      196.10409      196.10409      11.975634    
    831000   399.7007      -4919289        196.10723      196.10723      196.10723     -161.4974     
    832000   400.06611     -4919264        196.10322      196.10322      196.10322     -0.95891997   
    833000   400.22468     -4919231.4      196.11482      196.11482      196.11482     -48.579366    
    834000   400.17328     -4919238        196.10081      196.10081      196.10081      22.602136    
    835000   399.67845     -4919223.1      196.09408      196.09408      196.09408      121.92329    
    836000   400.41442     -4919200.4      196.09895      196.09895      196.09895      118.4356     
    837000   399.31541     -4919246.9      196.11583      196.11583      196.11583     -54.3767      
    838000   400.19871     -4919211.1      196.10739      196.10739      196.10739      0.75176182   
    839000   400.25795     -4919200.3      196.11639      196.11639      196.11639     -67.772786    
    840000   400.42865     -4919188        196.11395      196.11395      196.11395     -74.410301    
    841000   399.96164     -4919257.6      196.10604      196.10604      196.10604      156.05579    
    842000   400.88937     -4919205.2      196.10219      196.10219      196.10219      57.224525    
    843000   399.76091     -4919232.1      196.1045       196.1045       196.1045      -47.743102    
    844000   399.57632     -4919246.7      196.11352      196.11352      196.11352     -10.004548    
    845000   400.26113     -4919228.6      196.10582      196.10582      196.10582      44.018475    
    846000   399.99805     -4919187.1      196.11858      196.11858      196.11858     -102.14769    
    847000   399.85333     -4919225.5      196.10007      196.10007      196.10007      51.058768    
    848000   400.66845     -4919176.5      196.09915      196.09915      196.09915      87.526561    
    849000   400.6075      -4919210.9      196.11013      196.11013      196.11013     -6.9708187    
    850000   399.8079      -4919280.8      196.09195      196.09195      196.09195      110.38092    
    851000   400.56863     -4919227.3      196.10659      196.10659      196.10659     -36.894421    
    852000   400.34026     -4919185.5      196.10003      196.10003      196.10003      62.331999    
    853000   399.99971     -4919207.7      196.09505      196.09505      196.09505     -16.832647    
    854000   400.53493     -4919240.4      196.08724      196.08724      196.08724      26.667838    
    855000   400.26077     -4919182.2      196.10037      196.10037      196.10037     -68.666639    
    856000   400.74529     -4919236.9      196.10066      196.10066      196.10066     -26.415371    
    857000   400.53488     -4919238.1      196.09856      196.09856      196.09856     -9.4337321    
    858000   399.84478     -4919264        196.1046       196.1046       196.1046       25.013939    
    859000   399.84371     -4919237.1      196.10522      196.10522      196.10522      1.7903515    
    860000   398.60495     -4919339.5      196.10871      196.10871      196.10871     -17.033813    
    861000   400.10477     -4919243.9      196.11983      196.11983      196.11983     -101.61783    
    862000   400.23389     -4919275.2      196.10484      196.10484      196.10484      10.557985    
    863000   399.97969     -4919275.2      196.10726      196.10726      196.10726      10.009127    
    864000   400.24451     -4919155.7      196.12072      196.12072      196.12072      14.155496    
    865000   399.97018     -4919243        196.10381      196.10381      196.10381     -23.205947    
    866000   399.90386     -4919245.6      196.10358      196.10358      196.10358     -8.2924936    
    867000   399.48188     -4919258.3      196.09883      196.09883      196.09883      139.28266    
    868000   399.48187     -4919255.5      196.11151      196.11151      196.11151     -80.399623    
    869000   399.79327     -4919244.6      196.0981       196.0981       196.0981      -29.005352    
    870000   399.9309      -4919210        196.10592      196.10592      196.10592      24.776498    
    871000   400.04592     -4919218.3      196.09665      196.09665      196.09665      160.83968    
    872000   400.52121     -4919193.5      196.10751      196.10751      196.10751      64.403984    
    873000   399.91447     -4919232.5      196.1145       196.1145       196.1145      -104.08589    
    874000   400.92103     -4919213.4      196.10567      196.10567      196.10567      97.765561    
    875000   399.37656     -4919275.6      196.11289      196.11289      196.11289     -77.066278    
    876000   399.83051     -4919210.3      196.12056      196.12056      196.12056     -183.67259    
    877000   399.95801     -4919244        196.11533      196.11533      196.11533     -15.447166    
    878000   400.21399     -4919205.3      196.1115       196.1115       196.1115      -50.48041     
    879000   400.51307     -4919251        196.10768      196.10768      196.10768     -57.35069     
    880000   400.1275      -4919215.8      196.10125      196.10125      196.10125      9.3514563    
    881000   400.15848     -4919294.8      196.121        196.121        196.121       -153.71967    
    882000   399.21541     -4919226.3      196.098        196.098        196.098        68.5135      
    883000   399.25429     -4919279.3      196.10836      196.10836      196.10836     -59.513761    
    884000   399.50682     -4919294.2      196.1041       196.1041       196.1041       23.971492    
    885000   400.38968     -4919154.6      196.11067      196.11067      196.11067     -24.644918    
    886000   399.48037     -4919256.3      196.08999      196.08999      196.08999      18.283015    
    887000   400.06692     -4919228.3      196.09876      196.09876      196.09876      38.634837    
    888000   400.54047     -4919203.9      196.10905      196.10905      196.10905     -27.764873    
    889000   399.97072     -4919224.9      196.10486      196.10486      196.10486      32.294822    
    890000   400.12417     -4919266.3      196.10708      196.10708      196.10708     -103.79952    
    891000   400.17903     -4919217.8      196.10343      196.10343      196.10343      0.60060219   
    892000   400.48246     -4919201.5      196.11205      196.11205      196.11205     -63.713493    
    893000   399.37591     -4919277        196.1083       196.1083       196.1083       26.473841    
    894000   400.17964     -4919232.4      196.10994      196.10994      196.10994     -87.725879    
    895000   400.47601     -4919213.1      196.08965      196.08965      196.08965     -17.37471     
    896000   399.85144     -4919219.4      196.10888      196.10888      196.10888      22.212497    
    897000   400.6652      -4919230.4      196.09941      196.09941      196.09941      94.832787    
    898000   400.26849     -4919214.2      196.1195       196.1195       196.1195      -48.828774    
    899000   400.73875     -4919230.4      196.11658      196.11658      196.11658      38.495249    
    900000   399.97242     -4919268.1      196.10657      196.10657      196.10657      75.784231    
    901000   400.38934     -4919227.6      196.11977      196.11977      196.11977      29.548337    
    902000   400.38738     -4919274.7      196.11741      196.11741      196.11741      39.517544    
    903000   399.70837     -4919263.7      196.12167      196.12167      196.12167     -49.966498    
    904000   399.26498     -4919338.2      196.11338      196.11338      196.11338     -134.32382    
    905000   400.42211     -4919229.5      196.11008      196.11008      196.11008     -66.744532    
    906000   400.1377      -4919281.6      196.11186      196.11186      196.11186     -32.983143    
    907000   400.06481     -4919238.4      196.09956      196.09956      196.09956     -89.917837    
    908000   399.91467     -4919266.9      196.09499      196.09499      196.09499      38.752385    
    909000   399.3894      -4919258        196.11541      196.11541      196.11541     -186.11178    
    910000   399.54009     -4919338.5      196.10017      196.10017      196.10017     -32.116357    
    911000   399.99049     -4919255.2      196.09291      196.09291      196.09291      20.17795     
    912000   399.90295     -4919273.9      196.10359      196.10359      196.10359     -65.008999    
    913000   399.6056      -4919249        196.10981      196.10981      196.10981      13.680125    
    914000   400.96353     -4919213        196.09461      196.09461      196.09461      115.77289    
    915000   400.52077     -4919243.9      196.10187      196.10187      196.10187     -21.447005    
    916000   400.16252     -4919239.3      196.10698      196.10698      196.10698     -72.295366    
    917000   399.38947     -4919260.2      196.1283       196.1283       196.1283      -200.77324    
    918000   399.29037     -4919340.2      196.10457      196.10457      196.10457     -67.834006    
    919000   400.31299     -4919258.3      196.0967       196.0967       196.0967       96.487829    
    920000   399.65477     -4919265.3      196.09676      196.09676      196.09676      69.010235    
    921000   400.44085     -4919275.8      196.09482      196.09482      196.09482      39.252248    
    922000   400.03967     -4919277.2      196.09725      196.09725      196.09725      30.328837    
    923000   400.76499     -4919203.6      196.09048      196.09048      196.09048      1.3282307    
    924000   400.33452     -4919232.2      196.10433      196.10433      196.10433     -5.8802965    
    925000   399.80062     -4919256.6      196.09889      196.09889      196.09889      3.5272205    
    926000   400.00939     -4919322.5      196.1002       196.1002       196.1002      -9.2433036    
    927000   400.45027     -4919210.5      196.09585      196.09585      196.09585      58.896571    
    928000   400.45635     -4919247        196.11206      196.11206      196.11206     -117.99016    
    929000   400.01286     -4919252.1      196.10613      196.10613      196.10613      53.506938    
    930000   400.47776     -4919240.3      196.10374      196.10374      196.10374     -6.2958061    
    931000   399.4773      -4919305.9      196.11036      196.11036      196.11036      0.16136622   
    932000   399.78386     -4919214.9      196.10404      196.10404      196.10404      113.08704    
    933000   399.49482     -4919265.4      196.11884      196.11884      196.11884     -33.0889      
    934000   400.91574     -4919154.4      196.10453      196.10453      196.10453     -62.139745    
    935000   400.34378     -4919185.2      196.10519      196.10519      196.10519      20.265292    
    936000   400.38649     -4919249.8      196.09568      196.09568      196.09568      78.002775    
    937000   399.90591     -4919280.1      196.10377      196.10377      196.10377      43.65528     
    938000   399.87652     -4919295.8      196.09828      196.09828      196.09828     -55.523789    
    939000   399.98592     -4919262.9      196.09872      196.09872      196.09872     -60.689358    
    940000   400.67194     -4919241.8      196.09961      196.09961      196.09961      100.80577    
    941000   399.69907     -4919329.7      196.09945      196.09945      196.09945      19.548583    
    942000   400.68759     -4919246.5      196.10728      196.10728      196.10728      56.140855    
    943000   399.85817     -4919256        196.11802      196.11802      196.11802     -10.792726    
    944000   399.84144     -4919261.1      196.1006       196.1006       196.1006       94.174837    
    945000   399.53493     -4919258.6      196.10906      196.10906      196.10906     -22.515504    
    946000   399.95693     -4919260        196.10641      196.10641      196.10641      53.922039    
    947000   399.60597     -4919314        196.10729      196.10729      196.10729     -33.68765     
    948000   399.91707     -4919216.7      196.11838      196.11838      196.11838     -94.034637    
    949000   400.06767     -4919264.3      196.10513      196.10513      196.10513      93.113899    
    950000   399.58454     -4919311.5      196.10252      196.10252      196.10252     -5.8125047    
    951000   399.68973     -4919231.4      196.10569      196.10569      196.10569     -34.140461    
    952000   399.65068     -4919279.4      196.09231      196.09231      196.09231     -2.4368469    
    953000   400.42977     -4919229        196.09015      196.09015      196.09015      65.977148    
    954000   400.28257     -4919276.6      196.09857      196.09857      196.09857     -3.2271863    
    955000   399.51344     -4919289        196.09816      196.09816      196.09816      25.590757    
    956000   399.87471     -4919250.3      196.10379      196.10379      196.10379     -99.548123    
    957000   400.52481     -4919226.4      196.1012       196.1012       196.1012       93.915843    
    958000   399.60626     -4919241.3      196.11691      196.11691      196.11691     -128.7254     
    959000   400.81383     -4919234.7      196.09307      196.09307      196.09307      109.87401    
    960000   399.36088     -4919338.7      196.10051      196.10051      196.10051      145.076      
    961000   400.67655     -4919220.8      196.09861      196.09861      196.09861      54.980033    
    962000   400.21532     -4919229.9      196.10082      196.10082      196.10082      53.94158     
    963000   399.477       -4919306.5      196.10183      196.10183      196.10183     -34.394552    
    964000   400.16016     -4919336        196.09718      196.09718      196.09718     -58.256086    
    965000   400.47347     -4919216        196.09559      196.09559      196.09559      44.877458    
    966000   399.41359     -4919308.7      196.07394      196.07394      196.07394      88.701993    
    967000   400.09421     -4919279.5      196.10167      196.10167      196.10167     -2.2860122    
    968000   399.48221     -4919358.6      196.08813      196.08813      196.08813      90.045391    
    969000   400.14691     -4919315.7      196.11485      196.11485      196.11485      25.86654     
    970000   399.17334     -4919322.3      196.10324      196.10324      196.10324      153.62771    
    971000   399.83503     -4919290.7      196.11409      196.11409      196.11409     -115.67293    
    972000   400.4505      -4919167.9      196.10625      196.10625      196.10625      15.159436    
    973000   399.02399     -4919268.2      196.11014      196.11014      196.11014      79.209447    
    974000   400.07119     -4919287.2      196.12264      196.12264      196.12264     -146.21307    
    975000   399.9353      -4919300.4      196.1043       196.1043       196.1043      -4.1702445    
    976000   400.08713     -4919295.5      196.10355      196.10355      196.10355     -63.084766    
    977000   400.19949     -4919283.7      196.09177      196.09177      196.09177     -75.252179    
    978000   400.23605     -4919280.2      196.10138      196.10138      196.10138      1.738512     
    979000   399.96204     -4919272.7      196.10857      196.10857      196.10857     -119.0018     
    980000   400.44007     -4919224.1      196.09631      196.09631      196.09631      95.933675    
    981000   400.2657      -4919263.5      196.1141       196.1141       196.1141      -207.6729     
    982000   399.24218     -4919358.8      196.09441      196.09441      196.09441      39.164356    
    983000   400.12799     -4919271.9      196.10734      196.10734      196.10734     -64.739958    
    984000   400.36996     -4919255.1      196.0935       196.0935       196.0935       63.464597    
    985000   399.54013     -4919340.3      196.09431      196.09431      196.09431      133.77267    
    986000   401.31268     -4919191.3      196.10484      196.10484      196.10484     -75.843623    
    987000   400.61051     -4919260        196.09806      196.09806      196.09806     -3.9431443    
    988000   399.26664     -4919314.2      196.10883      196.10883      196.10883      5.5394407    
    989000   400.5353      -4919256.2      196.09993      196.09993      196.09993      72.367969    
    990000   399.94477     -4919268.9      196.09688      196.09688      196.09688     -53.087084    
    991000   400.1426      -4919290.8      196.10269      196.10269      196.10269     -29.981494    
    992000   400.22914     -4919223.2      196.1032       196.1032       196.1032      -47.700118    
    993000   401.11556     -4919143.3      196.1143       196.1143       196.1143       9.9299309    
    994000   400.15372     -4919268.4      196.114        196.114        196.114       -99.375907    
    995000   400.40063     -4919264.8      196.09201      196.09201      196.09201      159.33245    
    996000   399.76292     -4919263        196.08873      196.08873      196.08873      149.12164    
    997000   399.92775     -4919247.2      196.09718      196.09718      196.09718      12.957204    
    998000   400.26571     -4919268.1      196.09867      196.09867      196.09867     -6.9960061    
    999000   400.99213     -4919232.9      196.10747      196.10747      196.10747     -23.553641    
   1000000   399.42193     -4919264.7      196.10226      196.10226      196.10226     -36.791832    
Loop time of 69540.4 on 16384 procs for 1000000 steps with 431984 atoms

Performance: 2.485 ns/day, 9.658 hours/ns, 14.380 timesteps/s, 6.212 Matom-step/s
78.3% CPU use with 128 MPI tasks x 128 OpenMP threads

MPI task timing breakdown:
Section |  min time  |  avg time  |  max time  |%varavg| %total
---------------------------------------------------------------
Pair    | 22462      | 34765      | 47889      |5248.0 | 49.99
Bond    | 0.092645   | 0.20215    | 0.37151    |  11.9 |  0.00
Kspace  | 11391      | 26019      | 39687      |6798.3 | 37.42
Neigh   | 2138.4     | 3463.7     | 4939.1     |1829.1 |  4.98
Comm    | 1231.4     | 1633.9     | 1981.4     | 585.4 |  2.35
Output  | 0.15875    | 0.1653     | 0.18954    |   0.8 |  0.00
Modify  | 2966.4     | 3390.8     | 3541.5     | 176.5 |  4.88
Other   |            | 267.7      |            |       |  0.38

Nlocal:        3374.88 ave        4336 max        2430 min
Histogram: 64 0 0 0 0 0 0 0 0 64
Nghost:        11205.6 ave       12839 max        9579 min
Histogram: 64 0 0 0 0 0 0 0 0 64
Neighs:         831364 ave 1.17658e+06 max      520459 min
Histogram: 30 34 0 0 0 0 2 28 8 26

Total # of neighbors = 1.0641457e+08
Ave neighs/atom = 246.33915
Ave special neighs/atom = 0
Neighbor list builds = 130691
Dangerous builds = 0
PPPM initialization ...
  using 12-bit tables for long-range coulomb (src/src/kspace.cpp:342)
  G vector (1/distance) = 0.27321391
  grid = 128 128 128
  stencil order = 5
  estimated absolute RMS force accuracy = 0.0019302219
  estimated relative force accuracy = 0.00013404649
  using double precision MKL FFT
  3d grid and FFT values/proc = 28749 16384
Generated 0 of 10 mixed pair_coeff terms from geometric mixing rule
Setting up Verlet run ...
  Unit style    : metal
  Current step  : 1000000
  Time step     : 0.002
Per MPI rank memory allocation (min/avg/max) = 224.7 | 260.9 | 297 Mbytes
   Step          Temp          TotEng           Lx             Ly             Lz           Press     
   1000000   399.42193     -4919265.9      196.10226      196.10226      196.10226     -38.466761    
   1001000   399.66057     -4919283.6      196.10226      196.10226      196.10226      69.35568     
   1002000   400.03221     -4919316.5      196.10226      196.10226      196.10226      44.866271    
   1003000   400.19126     -4919244.5      196.10226      196.10226      196.10226     -107.62262    
   1004000   398.85601     -4919381.6      196.10226      196.10226      196.10226      16.713445    
   1005000   400.00371     -4919298.5      196.10226      196.10226      196.10226      38.457409    
   1006000   400.22947     -4919249.5      196.10226      196.10226      196.10226     -20.766279    
   1007000   400.41354     -4919288.2      196.10226      196.10226      196.10226      24.850535    
   1008000   399.85373     -4919332.9      196.10226      196.10226      196.10226      2.4867329    
   1009000   398.93257     -4919374.6      196.10226      196.10226      196.10226      13.822163    
   1010000   399.93466     -4919319.9      196.10226      196.10226      196.10226     -65.512271    
   1011000   399.89245     -4919323.1      196.10226      196.10226      196.10226      6.2827621    
   1012000   400.4675      -4919257.6      196.10226      196.10226      196.10226      43.718064    
   1013000   399.19428     -4919327.6      196.10226      196.10226      196.10226      10.970335    
   1014000   399.99292     -4919253.7      196.10226      196.10226      196.10226      99.584171    
   1015000   400.56426     -4919274.5      196.10226      196.10226      196.10226     -103.3669     
   1016000   400.02114     -4919264.6      196.10226      196.10226      196.10226     -7.6344079    
   1017000   399.99231     -4919299.6      196.10226      196.10226      196.10226     -127.78147    
   1018000   399.94227     -4919327.1      196.10226      196.10226      196.10226     -22.460411    
   1019000   400.09114     -4919260.6      196.10226      196.10226      196.10226     -97.152333    
   1020000   399.80207     -4919318.6      196.10226      196.10226      196.10226     -2.6918979    
   1021000   399.75823     -4919357.8      196.10226      196.10226      196.10226     -27.766439    
   1022000   401.40553     -4919195.6      196.10226      196.10226      196.10226     -20.782116    
   1023000   400.76879     -4919288        196.10226      196.10226      196.10226     -94.384994    
   1024000   400.20559     -4919270.8      196.10226      196.10226      196.10226      48.984051    
   1025000   399.95101     -4919298.1      196.10226      196.10226      196.10226      197.91499    
   1026000   399.82534     -4919292.4      196.10226      196.10226      196.10226      9.844936     
   1027000   400.54482     -4919253.7      196.10226      196.10226      196.10226      17.444629    
   1028000   399.36453     -4919326.8      196.10226      196.10226      196.10226      58.555374    
   1029000   398.90241     -4919356.5      196.10226      196.10226      196.10226     -38.551558    
   1030000   400.50474     -4919308.4      196.10226      196.10226      196.10226     -24.813222    
   1031000   399.45818     -4919264.5      196.10226      196.10226      196.10226      32.118398    
   1032000   399.82107     -4919324.4      196.10226      196.10226      196.10226     -37.870352    
   1033000   400.83478     -4919227.4      196.10226      196.10226      196.10226      16.867872    
   1034000   399.44258     -4919283.5      196.10226      196.10226      196.10226     -28.73916     
   1035000   400.25555     -4919273.7      196.10226      196.10226      196.10226     -40.741217    
   1036000   400.27382     -4919227.8      196.10226      196.10226      196.10226     -67.614449    
   1037000   399.92351     -4919284.4      196.10226      196.10226      196.10226     -19.398394    
   1038000   399.96838     -4919307.9      196.10226      196.10226      196.10226      65.347257    
   1039000   400.00896     -4919318.4      196.10226      196.10226      196.10226      6.801808     
   1040000   399.91324     -4919300.6      196.10226      196.10226      196.10226      67.58633     
   1041000   399.81639     -4919308.9      196.10226      196.10226      196.10226      12.771979    
   1042000   399.89652     -4919293.5      196.10226      196.10226      196.10226      19.957413    
   1043000   399.42797     -4919340.5      196.10226      196.10226      196.10226     -75.111618    
   1044000   399.60376     -4919343.7      196.10226      196.10226      196.10226     -12.29212     
   1045000   399.29211     -4919351.8      196.10226      196.10226      196.10226      35.84231     
   1046000   399.36218     -4919343.2      196.10226      196.10226      196.10226      24.224226    
   1047000   398.82996     -4919413.4      196.10226      196.10226      196.10226     -31.318712    
   1048000   400.8367      -4919251.9      196.10226      196.10226      196.10226     -20.187588    
   1049000   398.76348     -4919348.1      196.10226      196.10226      196.10226      49.972129    
   1050000   400.13411     -4919303.3      196.10226      196.10226      196.10226     -8.1172808    
   1051000   399.89963     -4919344.3      196.10226      196.10226      196.10226      63.693878    
   1052000   400.83948     -4919233.5      196.10226      196.10226      196.10226      71.720487    
   1053000   399.6328      -4919334.6      196.10226      196.10226      196.10226      134.09998    
   1054000   400.45041     -4919284        196.10226      196.10226      196.10226      118.31242    
   1055000   399.68687     -4919349.2      196.10226      196.10226      196.10226      69.674331    
   1056000   400.17938     -4919282.2      196.10226      196.10226      196.10226      48.558361    
   1057000   400.85814     -4919224.7      196.10226      196.10226      196.10226      45.846708    
   1058000   400.38243     -4919301.4      196.10226      196.10226      196.10226     -17.518442    
   1059000   399.99285     -4919345.1      196.10226      196.10226      196.10226     -15.536588    
   1060000   400.51885     -4919286.3      196.10226      196.10226      196.10226     -30.72657     
   1061000   400.14673     -4919309.7      196.10226      196.10226      196.10226     -50.06262     
   1062000   399.38208     -4919365.4      196.10226      196.10226      196.10226     -146.1028     
   1063000   400.29793     -4919317.8      196.10226      196.10226      196.10226     -79.851809    
   1064000   400.34879     -4919299.5      196.10226      196.10226      196.10226      62.387996    
   1065000   399.56235     -4919353.7      196.10226      196.10226      196.10226      4.7162573    
   1066000   399.9103      -4919379.5      196.10226      196.10226      196.10226     -41.569367    
   1067000   400.42172     -4919277.3      196.10226      196.10226      196.10226     -17.054876    
   1068000   400.24223     -4919311        196.10226      196.10226      196.10226     -55.636315    
   1069000   400.07863     -4919300.4      196.10226      196.10226      196.10226      80.396204    
   1070000   400.31177     -4919348.7      196.10226      196.10226      196.10226      95.269705    
   1071000   399.29503     -4919373.9      196.10226      196.10226      196.10226     -52.272808    
   1072000   399.95001     -4919335.7      196.10226      196.10226      196.10226     -97.70878     
   1073000   400.38093     -4919298.2      196.10226      196.10226      196.10226     -34.277572    
   1074000   399.19288     -4919346.3      196.10226      196.10226      196.10226     -35.742008    
   1075000   399.41643     -4919346        196.10226      196.10226      196.10226      87.231296    
   1076000   399.94535     -4919300.6      196.10226      196.10226      196.10226      30.482686    
   1077000   399.89298     -4919358.3      196.10226      196.10226      196.10226      12.44413     
   1078000   400.1269      -4919318.1      196.10226      196.10226      196.10226      5.2780527    
   1079000   399.5534      -4919323.7      196.10226      196.10226      196.10226     -53.600332    
   1080000   399.30226     -4919392.3      196.10226      196.10226      196.10226      27.606958    
   1081000   399.72355     -4919356.4      196.10226      196.10226      196.10226     -3.2650667    
   1082000   400.45374     -4919317.7      196.10226      196.10226      196.10226      6.0007627    
   1083000   399.98483     -4919352        196.10226      196.10226      196.10226     -120.12932    
   1084000   400.09426     -4919328.9      196.10226      196.10226      196.10226     -36.113459    
   1085000   399.70545     -4919347.3      196.10226      196.10226      196.10226      59.131995    
   1086000   399.68545     -4919362.9      196.10226      196.10226      196.10226     -6.6347279    
   1087000   400.11281     -4919298.8      196.10226      196.10226      196.10226     -37.02102     
   1088000   399.43807     -4919377.5      196.10226      196.10226      196.10226     -22.886921    
   1089000   400.05226     -4919356.1      196.10226      196.10226      196.10226     -61.019397    
   1090000   400.43082     -4919335.3      196.10226      196.10226      196.10226     -6.4696485    
   1091000   400.24227     -4919329.5      196.10226      196.10226      196.10226      77.662432    
   1092000   399.35251     -4919374.5      196.10226      196.10226      196.10226      77.549775    
   1093000   400.48584     -4919299.5      196.10226      196.10226      196.10226      56.080417    
   1094000   399.82605     -4919344.5      196.10226      196.10226      196.10226      44.373215    
   1095000   398.99815     -4919439.4      196.10226      196.10226      196.10226     -2.6480736    
   1096000   399.96635     -4919311.4      196.10226      196.10226      196.10226      65.513625    
   1097000   399.74705     -4919313.5      196.10226      196.10226      196.10226      52.180056    
   1098000   400.03682     -4919293.3      196.10226      196.10226      196.10226     -31.295824    
   1099000   400.43149     -4919353.5      196.10226      196.10226      196.10226      55.286065    
   1100000   399.66837     -4919339.6      196.10226      196.10226      196.10226     -108.09978    
   1101000   399.80624     -4919333.8      196.10226      196.10226      196.10226     -12.752389    
   1102000   399.81333     -4919303.5      196.10226      196.10226      196.10226     -1.6935416    
   1103000   399.79064     -4919318.6      196.10226      196.10226      196.10226     -56.54677     
   1104000   400.96381     -4919314.4      196.10226      196.10226      196.10226     -75.35732     
   1105000   400.52222     -4919287.1      196.10226      196.10226      196.10226     -66.219974    
   1106000   399.88251     -4919367.4      196.10226      196.10226      196.10226     -106.28915    
   1107000   400.16783     -4919303        196.10226      196.10226      196.10226     -25.557025    
   1108000   399.85107     -4919366.9      196.10226      196.10226      196.10226     -67.137355    
   1109000   399.5343      -4919354.9      196.10226      196.10226      196.10226     -40.163007    
   1110000   400.38195     -4919250.2      196.10226      196.10226      196.10226      63.379065    
   1111000   399.93684     -4919371.9      196.10226      196.10226      196.10226      6.0147751    
   1112000   399.86788     -4919320.5      196.10226      196.10226      196.10226      8.8655296    
   1113000   399.77482     -4919375.2      196.10226      196.10226      196.10226     -72.07006     
   1114000   400.0904      -4919290.6      196.10226      196.10226      196.10226     -23.99676     
   1115000   400.30877     -4919317.8      196.10226      196.10226      196.10226      172.51628    
   1116000   400.17179     -4919317.8      196.10226      196.10226      196.10226      63.524085    
   1117000   400.59544     -4919346.3      196.10226      196.10226      196.10226      67.310379    
   1118000   400.20522     -4919314.5      196.10226      196.10226      196.10226      61.752886    
   1119000   400.72796     -4919280.2      196.10226      196.10226      196.10226     -18.711767    
   1120000   400.10286     -4919340.7      196.10226      196.10226      196.10226      49.287494    
   1121000   399.91526     -4919354.8      196.10226      196.10226      196.10226      31.534275    
   1122000   399.61822     -4919375        196.10226      196.10226      196.10226     -38.947163    
   1123000   399.77658     -4919344.9      196.10226      196.10226      196.10226      41.196708    
   1124000   400.37508     -4919295.1      196.10226      196.10226      196.10226      102.2444     
   1125000   398.99966     -4919389.8      196.10226      196.10226      196.10226     -47.70892     
   1126000   399.72093     -4919341.1      196.10226      196.10226      196.10226     -97.646237    
   1127000   399.8292      -4919331.3      196.10226      196.10226      196.10226     -34.895341    
   1128000   400.03704     -4919343.9      196.10226      196.10226      196.10226     -10.145858    
   1129000   400.60364     -4919315.8      196.10226      196.10226      196.10226     -85.492941    
   1130000   399.4164      -4919359.8      196.10226      196.10226      196.10226     -82.150353    
   1131000   400.69596     -4919258.5      196.10226      196.10226      196.10226     -93.839569    
   1132000   398.99954     -4919379.4      196.10226      196.10226      196.10226     -0.69966902   
   1133000   399.93469     -4919333.6      196.10226      196.10226      196.10226     -17.960827    
   1134000   400.44137     -4919294.1      196.10226      196.10226      196.10226      141.44611    
   1135000   399.43251     -4919412        196.10226      196.10226      196.10226     -122.82283    
   1136000   399.8214      -4919373        196.10226      196.10226      196.10226      65.726949    
   1137000   399.80905     -4919335.3      196.10226      196.10226      196.10226      12.991162    
   1138000   399.66073     -4919361.7      196.10226      196.10226      196.10226     -46.19561     
   1139000   399.89269     -4919313.8      196.10226      196.10226      196.10226      1.5222615    
   1140000   399.61906     -4919360.2      196.10226      196.10226      196.10226      62.107073    
   1141000   400.21491     -4919323.8      196.10226      196.10226      196.10226      14.968542    
   1142000   400.38803     -4919352.3      196.10226      196.10226      196.10226     -93.355734    
   1143000   399.87896     -4919341.6      196.10226      196.10226      196.10226      26.979256    
   1144000   400.04334     -4919346.4      196.10226      196.10226      196.10226     -64.677298    
   1145000   399.72186     -4919347.2      196.10226      196.10226      196.10226     -15.622048    
   1146000   399.82089     -4919377.1      196.10226      196.10226      196.10226     -37.18747     
   1147000   401.39255     -4919260.3      196.10226      196.10226      196.10226     -47.066814    
   1148000   400.11593     -4919357.8      196.10226      196.10226      196.10226     -5.2766168    
   1149000   398.85197     -4919429.6      196.10226      196.10226      196.10226     -64.663239    
   1150000   399.9622      -4919347.4      196.10226      196.10226      196.10226     -87.264796    
   1151000   399.48545     -4919361.7      196.10226      196.10226      196.10226     -68.922291    
   1152000   399.6877      -4919395.1      196.10226      196.10226      196.10226     -38.633511    
   1153000   399.89408     -4919369.1      196.10226      196.10226      196.10226      9.4640859    
   1154000   400.46772     -4919293.9      196.10226      196.10226      196.10226      52.829919    
   1155000   400.8342      -4919295.6      196.10226      196.10226      196.10226     -30.271462    
   1156000   399.22005     -4919402.3      196.10226      196.10226      196.10226      10.454339    
   1157000   399.70684     -4919419.8      196.10226      196.10226      196.10226     -54.068204    
   1158000   399.46245     -4919425.3      196.10226      196.10226      196.10226     -43.43697     
   1159000   399.74058     -4919360        196.10226      196.10226      196.10226     -69.708672    
   1160000   399.75637     -4919393.9      196.10226      196.10226      196.10226     -63.236739    
   1161000   400.26994     -4919289.1      196.10226      196.10226      196.10226      90.89943     
   1162000   399.82581     -4919394.7      196.10226      196.10226      196.10226     -99.409959    
   1163000   399.64158     -4919383.8      196.10226      196.10226      196.10226      53.376713    
   1164000   400.20489     -4919318.2      196.10226      196.10226      196.10226      69.045712    
   1165000   398.92893     -4919365.9      196.10226      196.10226      196.10226      60.741919    
   1166000   400.25996     -4919351.7      196.10226      196.10226      196.10226      53.502383    
   1167000   400.21677     -4919326        196.10226      196.10226      196.10226      81.656204    
   1168000   400.55714     -4919329.4      196.10226      196.10226      196.10226      88.08197     
   1169000   400.07665     -4919322.5      196.10226      196.10226      196.10226      11.394972    
   1170000   399.1322      -4919405.3      196.10226      196.10226      196.10226      168.36579    
   1171000   400.18116     -4919313        196.10226      196.10226      196.10226      37.836746    
   1172000   400.06703     -4919312.4      196.10226      196.10226      196.10226     -18.121091    
   1173000   400.80143     -4919311        196.10226      196.10226      196.10226     -61.47002     
   1174000   400.65337     -4919348.6      196.10226      196.10226      196.10226      2.0233147    
   1175000   399.88562     -4919330.6      196.10226      196.10226      196.10226     -93.155177    
   1176000   400.16221     -4919300.6      196.10226      196.10226      196.10226     -6.5224258    
   1177000   400.68164     -4919333.7      196.10226      196.10226      196.10226      60.434308    
   1178000   400.15106     -4919371.9      196.10226      196.10226      196.10226     -58.299457    
   1179000   399.76425     -4919368.2      196.10226      196.10226      196.10226     -82.574209    
   1180000   399.98993     -4919391.9      196.10226      196.10226      196.10226     -100.402      
   1181000   399.85402     -4919341.8      196.10226      196.10226      196.10226     -73.58925     
   1182000   400.49793     -4919286.3      196.10226      196.10226      196.10226      72.217876    
   1183000   399.48158     -4919369.8      196.10226      196.10226      196.10226      94.105418    
   1184000   400.27821     -4919302.5      196.10226      196.10226      196.10226     -14.837375    
   1185000   400.2307      -4919316.6      196.10226      196.10226      196.10226      89.160971    
   1186000   399.44812     -4919347.4      196.10226      196.10226      196.10226     -13.896224    
   1187000   400.00674     -4919392.3      196.10226      196.10226      196.10226      63.434908    
   1188000   400.17461     -4919358.8      196.10226      196.10226      196.10226      50.874638    
   1189000   399.94615     -4919381.9      196.10226      196.10226      196.10226     -13.056585    
   1190000   399.75132     -4919401.8      196.10226      196.10226      196.10226     -72.114245    
   1191000   400.28056     -4919325.5      196.10226      196.10226      196.10226     -87.23983     
   1192000   400.55125     -4919339.9      196.10226      196.10226      196.10226     -122.7546     
   1193000   399.7247      -4919366.4      196.10226      196.10226      196.10226     -50.793555    
   1194000   400.09041     -4919392.5      196.10226      196.10226      196.10226     -34.848278    
   1195000   399.52836     -4919411.9      196.10226      196.10226      196.10226      27.775902    
   1196000   401.03        -4919299.7      196.10226      196.10226      196.10226      29.301212    
   1197000   399.67576     -4919376.9      196.10226      196.10226      196.10226      127.35392    
   1198000   400.50953     -4919322.1      196.10226      196.10226      196.10226      108.89002    
   1199000   400.42428     -4919326.5      196.10226      196.10226      196.10226     -36.390715    
   1200000   400.04219     -4919388.9      196.10226      196.10226      196.10226     -75.574227    
   1201000   399.07543     -4919409.8      196.10226      196.10226      196.10226      8.9370439    
   1202000   399.52003     -4919406.5      196.10226      196.10226      196.10226     -22.601508    
   1203000   400.30419     -4919381.4      196.10226      196.10226      196.10226      31.635792    
   1204000   400.56921     -4919312        196.10226      196.10226      196.10226      126.07215    
   1205000   399.96741     -4919387.6      196.10226      196.10226      196.10226     -61.842227    
   1206000   400.53977     -4919358.2      196.10226      196.10226      196.10226     -82.293065    
   1207000   400.66459     -4919320.1      196.10226      196.10226      196.10226     -6.6340105    
   1208000   399.01248     -4919428.3      196.10226      196.10226      196.10226      49.198126    
   1209000   399.58928     -4919376.3      196.10226      196.10226      196.10226      23.249026    
   1210000   400.11382     -4919354.5      196.10226      196.10226      196.10226     -116.05746    
   1211000   400.38888     -4919401        196.10226      196.10226      196.10226     -88.863049    
   1212000   399.71622     -4919406.2      196.10226      196.10226      196.10226     -21.380271    
   1213000   400.84086     -4919315.8      196.10226      196.10226      196.10226     -4.4764796    
   1214000   400.1875      -4919355.5      196.10226      196.10226      196.10226      49.248019    
   1215000   399.34191     -4919407.1      196.10226      196.10226      196.10226     -68.120322    
   1216000   399.43441     -4919379        196.10226      196.10226      196.10226      43.967583    
   1217000   399.90874     -4919390.5      196.10226      196.10226      196.10226      6.5534446    
   1218000   400.19166     -4919411.7      196.10226      196.10226      196.10226     -23.059083    
   1219000   400.42251     -4919325        196.10226      196.10226      196.10226      57.706327    
   1220000   399.05903     -4919450.5      196.10226      196.10226      196.10226     -31.146515    
   1221000   399.12286     -4919451.5      196.10226      196.10226      196.10226     -87.622603    
   1222000   399.94052     -4919401.7      196.10226      196.10226      196.10226     -9.8368419    
   1223000   400.63068     -4919338.1      196.10226      196.10226      196.10226     -8.0120464    
   1224000   400.36586     -4919336.9      196.10226      196.10226      196.10226     -3.8195699    
   1225000   399.82131     -4919376.5      196.10226      196.10226      196.10226      9.2235847    
   1226000   399.48869     -4919421.5      196.10226      196.10226      196.10226     -84.232939    
   1227000   400.40852     -4919320.6      196.10226      196.10226      196.10226     -9.600988     
   1228000   400.5551      -4919321.3      196.10226      196.10226      196.10226     -10.79057     
   1229000   399.51778     -4919407.6      196.10226      196.10226      196.10226     -113.18167    
   1230000   399.83583     -4919356        196.10226      196.10226      196.10226     -14.146016    
   1231000   400.45489     -4919310.7      196.10226      196.10226      196.10226      34.030145    
   1232000   400.20038     -4919354.7      196.10226      196.10226      196.10226      0.8002722    
   1233000   400.1216      -4919353.1      196.10226      196.10226      196.10226      57.759749    
   1234000   400.5299      -4919314.5      196.10226      196.10226      196.10226      22.750968    
   1235000   399.30907     -4919409.7      196.10226      196.10226      196.10226     -9.2944946    
   1236000   399.92341     -4919365.2      196.10226      196.10226      196.10226     -40.466185    
   1237000   399.7995      -4919347.6      196.10226      196.10226      196.10226     -63.760648    
   1238000   400.33814     -4919296.6      196.10226      196.10226      196.10226     -62.68062     
   1239000   400.07526     -4919370.9      196.10226      196.10226      196.10226     -110.11093    
   1240000   399.31532     -4919400.8      196.10226      196.10226      196.10226     -56.921435    
   1241000   401.16318     -4919268.9      196.10226      196.10226      196.10226      13.031269    
   1242000   399.2674      -4919369.3      196.10226      196.10226      196.10226     -133.04087    
   1243000   399.60088     -4919390.7      196.10226      196.10226      196.10226      91.574625    
   1244000   400.52199     -4919257.7      196.10226      196.10226      196.10226      64.630891    
   1245000   399.85456     -4919349.1      196.10226      196.10226      196.10226     -47.623585    
   1246000   400.07622     -4919331.4      196.10226      196.10226      196.10226      83.326859    
   1247000   399.59454     -4919370.2      196.10226      196.10226      196.10226     -20.159475    
   1248000   400.54527     -4919309.7      196.10226      196.10226      196.10226      16.609704    
   1249000   399.49172     -4919362.9      196.10226      196.10226      196.10226      122.57697    
   1250000   399.76587     -4919396.5      196.10226      196.10226      196.10226      55.727423    
   1251000   400.08773     -4919375.8      196.10226      196.10226      196.10226     -72.49463     
   1252000   400.54035     -4919366.9      196.10226      196.10226      196.10226      120.90387    
   1253000   400.01998     -4919383.6      196.10226      196.10226      196.10226     -34.954764    
   1254000   400.71655     -4919311        196.10226      196.10226      196.10226      9.8222357    
   1255000   400.64422     -4919375.3      196.10226      196.10226      196.10226      21.695613    
   1256000   399.90125     -4919401.9      196.10226      196.10226      196.10226      80.569044    
   1257000   399.96142     -4919416.2      196.10226      196.10226      196.10226     -81.28435     
   1258000   399.76527     -4919392.4      196.10226      196.10226      196.10226     -107.67009    
   1259000   399.13397     -4919467        196.10226      196.10226      196.10226      40.425181    
   1260000   400.62055     -4919349.8      196.10226      196.10226      196.10226     -18.417313    
   1261000   400.24334     -4919394.6      196.10226      196.10226      196.10226     -0.99398402   
   1262000   400.29398     -4919400.7      196.10226      196.10226      196.10226     -73.7636      
   1263000   399.19691     -4919431.6      196.10226      196.10226      196.10226     -106.58858    
   1264000   400.80417     -4919305.2      196.10226      196.10226      196.10226      74.356871    
   1265000   400.13205     -4919397.5      196.10226      196.10226      196.10226      16.839236    
   1266000   400.47965     -4919349        196.10226      196.10226      196.10226      6.1766673    
   1267000   399.63801     -4919425.7      196.10226      196.10226      196.10226     -62.472173    
   1268000   400.91371     -4919363.8      196.10226      196.10226      196.10226      47.687217    
   1269000   400.03874     -4919346.7      196.10226      196.10226      196.10226     -98.301599    
   1270000   400.91391     -4919307.4      196.10226      196.10226      196.10226     -32.855786    
   1271000   399.97153     -4919347.4      196.10226      196.10226      196.10226     -31.763806    
   1272000   398.96136     -4919441.3      196.10226      196.10226      196.10226     -27.248915    
   1273000   400.69959     -4919308.4      196.10226      196.10226      196.10226     -84.489807    
   1274000   399.73352     -4919455.1      196.10226      196.10226      196.10226     -27.269845    
   1275000   400.3332      -4919323.5      196.10226      196.10226      196.10226      34.460567    
   1276000   400.08677     -4919394.7      196.10226      196.10226      196.10226      33.485483    
   1277000   399.70481     -4919373.9      196.10226      196.10226      196.10226      31.080545    
   1278000   399.62652     -4919422.8      196.10226      196.10226      196.10226     -50.114507    
   1279000   399.87763     -4919414.3      196.10226      196.10226      196.10226     -29.608657    
   1280000   399.56173     -4919396.9      196.10226      196.10226      196.10226     -23.757091    
   1281000   400.07205     -4919366.1      196.10226      196.10226      196.10226     -15.493707    
   1282000   400.05963     -4919391.6      196.10226      196.10226      196.10226      57.640328    
   1283000   399.36099     -4919424.4      196.10226      196.10226      196.10226     -45.397917    
   1284000   400.59351     -4919322.2      196.10226      196.10226      196.10226      115.6228     
   1285000   399.93427     -4919390.1      196.10226      196.10226      196.10226      141.07733    
   1286000   399.50405     -4919452.4      196.10226      196.10226      196.10226      15.527759    
   1287000   399.74799     -4919391.7      196.10226      196.10226      196.10226      13.940756    
   1288000   399.36228     -4919347.9      196.10226      196.10226      196.10226      36.176854    
   1289000   398.89639     -4919470.2      196.10226      196.10226      196.10226      50.376599    
   1290000   399.9167      -4919405.2      196.10226      196.10226      196.10226     -32.662183    
   1291000   400.72248     -4919335.2      196.10226      196.10226      196.10226      10.763107    
   1292000   400.2477      -4919360.7      196.10226      196.10226      196.10226      79.170377    
   1293000   400.71074     -4919347        196.10226      196.10226      196.10226      28.751716    
   1294000   399.79139     -4919392        196.10226      196.10226      196.10226     -68.844555    
   1295000   399.65634     -4919445        196.10226      196.10226      196.10226      81.851446    
   1296000   400.06764     -4919289        196.10226      196.10226      196.10226      127.0082     
   1297000   399.96429     -4919381        196.10226      196.10226      196.10226      34.998924    
   1298000   400.02722     -4919362        196.10226      196.10226      196.10226      49.817521    
   1299000   399.95509     -4919373.5      196.10226      196.10226      196.10226     -66.989428    
   1300000   400.24137     -4919336.7      196.10226      196.10226      196.10226      2.4594998    
   1301000   399.66295     -4919441.7      196.10226      196.10226      196.10226      60.785605    
   1302000   399.85814     -4919416.4      196.10226      196.10226      196.10226     -18.683807    
   1303000   399.52491     -4919411        196.10226      196.10226      196.10226     -51.866926    
   1304000   400.48141     -4919369.2      196.10226      196.10226      196.10226      9.6340075    
   1305000   399.95969     -4919340.7      196.10226      196.10226      196.10226     -23.230812    
   1306000   399.82084     -4919378.6      196.10226      196.10226      196.10226     -29.584142    
   1307000   400.91943     -4919312.7      196.10226      196.10226      196.10226     -48.112995    
   1308000   400.34777     -4919320.1      196.10226      196.10226      196.10226     -77.000668    
   1309000   399.85227     -4919408.2      196.10226      196.10226      196.10226     -29.914334    
   1310000   399.70955     -4919429.4      196.10226      196.10226      196.10226     -23.09965     
   1311000   400.44604     -4919399.9      196.10226      196.10226      196.10226     -14.03772     
   1312000   400.27128     -4919378.4      196.10226      196.10226      196.10226      31.955804    
   1313000   399.6346      -4919394.4      196.10226      196.10226      196.10226      1.2618537    
   1314000   400.22476     -4919347.7      196.10226      196.10226      196.10226      34.464879    
   1315000   399.1832      -4919405.4      196.10226      196.10226      196.10226     -56.593593    
   1316000   400.16067     -4919411.1      196.10226      196.10226      196.10226     -49.015177    
   1317000   399.19311     -4919425.5      196.10226      196.10226      196.10226     -10.589036    
   1318000   399.20091     -4919460        196.10226      196.10226      196.10226     -32.581139    
   1319000   400.2112      -4919437.6      196.10226      196.10226      196.10226     -60.390473    
   1320000   400.10116     -4919366.8      196.10226      196.10226      196.10226     -65.126116    
   1321000   399.71489     -4919370        196.10226      196.10226      196.10226     -66.342829    
   1322000   400.12675     -4919356        196.10226      196.10226      196.10226     -129.95647    
   1323000   400.11021     -4919412.2      196.10226      196.10226      196.10226     -55.014567    
   1324000   400.7743      -4919335.1      196.10226      196.10226      196.10226     -32.397594    
   1325000   399.21404     -4919420.1      196.10226      196.10226      196.10226     -1.7485091    
   1326000   400.20225     -4919393.6      196.10226      196.10226      196.10226     -40.572573    
   1327000   400.21273     -4919386.2      196.10226      196.10226      196.10226      48.696025    
   1328000   400.62836     -4919377.8      196.10226      196.10226      196.10226      37.366691    
   1329000   399.92091     -4919408.1      196.10226      196.10226      196.10226     -145.53818    
   1330000   400.43182     -4919360.4      196.10226      196.10226      196.10226     -92.642874    
   1331000   400.19957     -4919353.6      196.10226      196.10226      196.10226     -52.511152    
   1332000   400.88842     -4919328        196.10226      196.10226      196.10226      1.9102359    
   1333000   399.64716     -4919406.8      196.10226      196.10226      196.10226     -74.766086    
   1334000   400.70184     -4919320.4      196.10226      196.10226      196.10226     -116.87551    
   1335000   399.76867     -4919407.3      196.10226      196.10226      196.10226     -45.280285    
   1336000   400.18764     -4919409.9      196.10226      196.10226      196.10226     -65.633924    
   1337000   400.07625     -4919408.8      196.10226      196.10226      196.10226     -81.099105    
   1338000   400.58609     -4919358.7      196.10226      196.10226      196.10226      190.81073    
   1339000   399.5176      -4919447.2      196.10226      196.10226      196.10226     -20.070128    
   1340000   400.07307     -4919389        196.10226      196.10226      196.10226     -91.505221    
   1341000   399.84436     -4919394.3      196.10226      196.10226      196.10226     -142.5691     
   1342000   399.70155     -4919376        196.10226      196.10226      196.10226     -48.88455     
   1343000   399.8165      -4919355.6      196.10226      196.10226      196.10226      10.408396    
   1344000   400.3394      -4919352.1      196.10226      196.10226      196.10226     -30.860863    
   1345000   399.85594     -4919378.5      196.10226      196.10226      196.10226     -36.872305    
   1346000   399.41548     -4919380.1      196.10226      196.10226      196.10226     -62.429688    
   1347000   399.64487     -4919415.1      196.10226      196.10226      196.10226     -76.087756    
   1348000   401.22834     -4919310.8      196.10226      196.10226      196.10226     -44.97063     
   1349000   400.16233     -4919362.8      196.10226      196.10226      196.10226     -66.139564    
   1350000   400.2949      -4919393.5      196.10226      196.10226      196.10226      36.958289    
   1351000   399.86859     -4919381.1      196.10226      196.10226      196.10226      74.779892    
   1352000   400.20177     -4919370.3      196.10226      196.10226      196.10226      100.78781    
   1353000   399.5371      -4919371.8      196.10226      196.10226      196.10226      63.519877    
   1354000   400.69942     -4919330.7      196.10226      196.10226      196.10226      122.9781     
   1355000   400.33512     -4919378.1      196.10226      196.10226      196.10226      37.243956    
   1356000   400.55862     -4919352.7      196.10226      196.10226      196.10226      26.100896    
   1357000   399.44182     -4919418.5      196.10226      196.10226      196.10226     -60.680523    
   1358000   400.42807     -4919356.9      196.10226      196.10226      196.10226      104.73137    
   1359000   400.45337     -4919344.5      196.10226      196.10226      196.10226     -36.006559    
   1360000   400.31888     -4919374.6      196.10226      196.10226      196.10226     -54.060858    
   1361000   400.39798     -4919377.6      196.10226      196.10226      196.10226     -72.763726    
   1362000   399.01668     -4919454.7      196.10226      196.10226      196.10226     -122.94632    
   1363000   399.59762     -4919411.6      196.10226      196.10226      196.10226     -46.707612    
   1364000   399.8261      -4919405.7      196.10226      196.10226      196.10226     -54.154977    
   1365000   400.75488     -4919422.2      196.10226      196.10226      196.10226     -166.84557    
   1366000   400.24014     -4919388.2      196.10226      196.10226      196.10226     -44.834408    
   1367000   400.22558     -4919408.7      196.10226      196.10226      196.10226     -51.560137    
   1368000   400.48762     -4919363.1      196.10226      196.10226      196.10226      53.807055    
   1369000   399.24695     -4919487.4      196.10226      196.10226      196.10226     -33.853305    
   1370000   399.91745     -4919415.2      196.10226      196.10226      196.10226     -50.61473     
   1371000   399.6372      -4919406.7      196.10226      196.10226      196.10226     -18.751004    
   1372000   399.51631     -4919456.8      196.10226      196.10226      196.10226     -69.183298    
   1373000   400.41214     -4919414.1      196.10226      196.10226      196.10226     -33.269832    
   1374000   399.91365     -4919430.8      196.10226      196.10226      196.10226      42.438783    
   1375000   399.86037     -4919384.5      196.10226      196.10226      196.10226     -22.676289    
   1376000   399.94118     -4919428.9      196.10226      196.10226      196.10226      8.6314275    
   1377000   400.12839     -4919390.1      196.10226      196.10226      196.10226      5.6963641    
   1378000   400.31582     -4919415.6      196.10226      196.10226      196.10226     -1.3885014    
   1379000   399.81196     -4919367.1      196.10226      196.10226      196.10226     -10.119617    
   1380000   400.01684     -4919398        196.10226      196.10226      196.10226      20.731337    
   1381000   399.01087     -4919465.8      196.10226      196.10226      196.10226     -37.64151     
   1382000   399.99672     -4919438.5      196.10226      196.10226      196.10226      30.646855    
   1383000   399.87239     -4919421.5      196.10226      196.10226      196.10226     -41.252038    
   1384000   399.85095     -4919442.2      196.10226      196.10226      196.10226      17.460193    
   1385000   400.04609     -4919409.4      196.10226      196.10226      196.10226     -15.811507    
   1386000   400.04294     -4919421.5      196.10226      196.10226      196.10226      6.0375039    
   1387000   399.36248     -4919448.4      196.10226      196.10226      196.10226      73.779994    
   1388000   398.68878     -4919499.5      196.10226      196.10226      196.10226     -82.32994     
   1389000   399.66444     -4919423.1      196.10226      196.10226      196.10226      46.990874    
   1390000   399.7633      -4919414.6      196.10226      196.10226      196.10226     -48.456658    
   1391000   399.70154     -4919413.3      196.10226      196.10226      196.10226     -176.17027    
   1392000   400.53612     -4919365.8      196.10226      196.10226      196.10226     -79.734016    
   1393000   400.38332     -4919395.2      196.10226      196.10226      196.10226     -95.258412    
   1394000   399.72215     -4919469.4      196.10226      196.10226      196.10226     -155.87843    
   1395000   399.46185     -4919459.4      196.10226      196.10226      196.10226     -37.685959    
   1396000   398.72417     -4919450.9      196.10226      196.10226      196.10226     -22.360388    
   1397000   400.5083      -4919380.9      196.10226      196.10226      196.10226      25.560677    
   1398000   399.80988     -4919404.7      196.10226      196.10226      196.10226     -32.738585    
   1399000   400.45021     -4919409.2      196.10226      196.10226      196.10226      46.597427    
   1400000   400.15239     -4919412.8      196.10226      196.10226      196.10226      11.476597    
   1401000   399.78452     -4919460.1      196.10226      196.10226      196.10226     -164.93985    
   1402000   400.66207     -4919385.4      196.10226      196.10226      196.10226     -127.79824    
   1403000   400.3629      -4919384        196.10226      196.10226      196.10226     -98.635724    
   1404000   400.58621     -4919382.7      196.10226      196.10226      196.10226     -207.35784    
   1405000   400.0451      -4919439.6      196.10226      196.10226      196.10226      5.9467871    
   1406000   400.30397     -4919413.9      196.10226      196.10226      196.10226      18.484699    
   1407000   400.22341     -4919402.8      196.10226      196.10226      196.10226      12.935196    
   1408000   400.03015     -4919412.9      196.10226      196.10226      196.10226     -13.510626    
   1409000   398.74598     -4919493.3      196.10226      196.10226      196.10226      36.513689    
   1410000   399.93904     -4919381.3      196.10226      196.10226      196.10226     -54.531136    
   1411000   399.90852     -4919397.1      196.10226      196.10226      196.10226      33.02986     
   1412000   400.43443     -4919422.7      196.10226      196.10226      196.10226      16.705047    
   1413000   399.9874      -4919427.1      196.10226      196.10226      196.10226     -158.35442    
   1414000   400.73462     -4919337.3      196.10226      196.10226      196.10226     -83.464209    
   1415000   399.85499     -4919438.3      196.10226      196.10226      196.10226     -134.56097    
   1416000   400.33141     -4919421.4      196.10226      196.10226      196.10226     -106.64531    
   1417000   400.1942      -4919438.8      196.10226      196.10226      196.10226     -61.290756    
   1418000   399.58279     -4919448.5      196.10226      196.10226      196.10226      10.21285     
   1419000   400.47016     -4919393.6      196.10226      196.10226      196.10226     -36.456477    
   1420000   400.01801     -4919406.9      196.10226      196.10226      196.10226     -52.195347    
   1421000   400.1514      -4919363.1      196.10226      196.10226      196.10226     -35.924141    
   1422000   400.32074     -4919424.9      196.10226      196.10226      196.10226     -136.89255    
   1423000   400.26187     -4919425.6      196.10226      196.10226      196.10226      35.517136    
   1424000   399.989       -4919435        196.10226      196.10226      196.10226     -77.202655    
   1425000   400.88675     -4919386.8      196.10226      196.10226      196.10226     -81.393992    
   1426000   400.31396     -4919359.5      196.10226      196.10226      196.10226     -60.80744     
   1427000   399.67483     -4919440.2      196.10226      196.10226      196.10226     -97.603626    
   1428000   400.2344      -4919385.9      196.10226      196.10226      196.10226      15.361267    
   1429000   400.30402     -4919420.2      196.10226      196.10226      196.10226     -68.791277    
   1430000   399.93351     -4919420.5      196.10226      196.10226      196.10226     -76.976181    
   1431000   401.17343     -4919375.5      196.10226      196.10226      196.10226      61.404969    
   1432000   400.50735     -4919398.8      196.10226      196.10226      196.10226      41.178629    
   1433000   399.50534     -4919461.4      196.10226      196.10226      196.10226     -76.064925    
   1434000   399.57279     -4919452.8      196.10226      196.10226      196.10226     -109.13246    
   1435000   400.14104     -4919439.2      196.10226      196.10226      196.10226     -55.76044     
   1436000   399.4618      -4919463.3      196.10226      196.10226      196.10226     -19.927174    
   1437000   399.73422     -4919424.7      196.10226      196.10226      196.10226     -42.424769    
   1438000   399.52835     -4919439.6      196.10226      196.10226      196.10226     -107.20768    
   1439000   400.12979     -4919430.7      196.10226      196.10226      196.10226     -39.663442    
   1440000   399.53512     -4919466.1      196.10226      196.10226      196.10226      113.15252    
   1441000   399.78697     -4919449.1      196.10226      196.10226      196.10226     -4.1160793    
   1442000   399.66327     -4919445.6      196.10226      196.10226      196.10226     -34.188833    
   1443000   399.68792     -4919398.8      196.10226      196.10226      196.10226     -57.776575    
   1444000   400.46394     -4919350.4      196.10226      196.10226      196.10226     -32.185737    
   1445000   399.57072     -4919458.7      196.10226      196.10226      196.10226     -48.629574    
   1446000   399.89204     -4919421.4      196.10226      196.10226      196.10226     -13.138477    
   1447000   400.53623     -4919402.6      196.10226      196.10226      196.10226     -88.536051    
   1448000   399.1768      -4919430.8      196.10226      196.10226      196.10226     -74.051894    
   1449000   400.76218     -4919383.3      196.10226      196.10226      196.10226     -47.397177    
   1450000   399.9607      -4919410.1      196.10226      196.10226      196.10226     -32.987129    
   1451000   399.22791     -4919485.2      196.10226      196.10226      196.10226     -37.086042    
   1452000   399.87516     -4919472.2      196.10226      196.10226      196.10226     -72.126354    
   1453000   399.78824     -4919466.7      196.10226      196.10226      196.10226     -38.764143    
   1454000   399.84508     -4919439.3      196.10226      196.10226      196.10226      2.4043006    
   1455000   400.54734     -4919419.3      196.10226      196.10226      196.10226      26.716951    
   1456000   400.06469     -4919441.7      196.10226      196.10226      196.10226      17.039747    
   1457000   400.41475     -4919437.4      196.10226      196.10226      196.10226     -87.086445    
   1458000   399.58345     -4919427.2      196.10226      196.10226      196.10226     -90.092761    
   1459000   399.00452     -4919501.8      196.10226      196.10226      196.10226     -75.400764    
   1460000   399.83417     -4919406.7      196.10226      196.10226      196.10226     -21.160199    
   1461000   400.70758     -4919392        196.10226      196.10226      196.10226     -62.931213    
   1462000   400.0967      -4919450.6      196.10226      196.10226      196.10226     -43.304147    
   1463000   400.2073      -4919499.9      196.10226      196.10226      196.10226      52.002413    
   1464000   399.67784     -4919449.5      196.10226      196.10226      196.10226      45.020808    
   1465000   400.21802     -4919415.5      196.10226      196.10226      196.10226     -7.7663793    
   1466000   399.91003     -4919394.8      196.10226      196.10226      196.10226     -39.594335    
   1467000   399.03858     -4919494.8      196.10226      196.10226      196.10226     -69.76713     
   1468000   400.36187     -4919434.6      196.10226      196.10226      196.10226     -80.380024    
   1469000   399.90003     -4919470.4      196.10226      196.10226      196.10226      84.34556     
   1470000   400.03079     -4919425.8      196.10226      196.10226      196.10226      44.949639    
   1471000   399.26157     -4919562.5      196.10226      196.10226      196.10226     -54.995446    
   1472000   400.06065     -4919442.9      196.10226      196.10226      196.10226     -88.480698    
   1473000   400.34579     -4919405.6      196.10226      196.10226      196.10226     -91.943457    
   1474000   400.27117     -4919415.4      196.10226      196.10226      196.10226     -65.699984    
   1475000   400.0517      -4919403.7      196.10226      196.10226      196.10226     -12.626929    
   1476000   399.6376      -4919481.1      196.10226      196.10226      196.10226     -62.923361    
   1477000   400.17551     -4919425.9      196.10226      196.10226      196.10226     -6.1421727    
   1478000   400.3249      -4919434.3      196.10226      196.10226      196.10226     -21.097766    
   1479000   400.58835     -4919424        196.10226      196.10226      196.10226     -26.242982    
   1480000   399.33849     -4919456.2      196.10226      196.10226      196.10226      39.770026    
   1481000   400.18747     -4919410.8      196.10226      196.10226      196.10226      98.170911    
   1482000   399.4897      -4919384.9      196.10226      196.10226      196.10226      28.264556    
   1483000   399.9679      -4919450.8      196.10226      196.10226      196.10226     -25.450513    
   1484000   399.61236     -4919507.3      196.10226      196.10226      196.10226     -17.982819    
   1485000   399.5645      -4919480.8      196.10226      196.10226      196.10226     -57.639132    
   1486000   400.3456      -4919395.5      196.10226      196.10226      196.10226      3.3544216    
   1487000   399.33254     -4919486.8      196.10226      196.10226      196.10226     -38.97868     
   1488000   399.89698     -4919451.9      196.10226      196.10226      196.10226     -62.681255    
   1489000   400.2837      -4919467.4      196.10226      196.10226      196.10226     -99.837603    
   1490000   399.69752     -4919410.6      196.10226      196.10226      196.10226      49.516475    
   1491000   399.76967     -4919421        196.10226      196.10226      196.10226      50.742824    
   1492000   400.63538     -4919423.9      196.10226      196.10226      196.10226      133.45039    
   1493000   400.6304      -4919431.8      196.10226      196.10226      196.10226      133.01977    
   1494000   399.77806     -4919465.3      196.10226      196.10226      196.10226     -4.4435659    
   1495000   400.51753     -4919393        196.10226      196.10226      196.10226     -138.83182    
   1496000   400.48094     -4919401.8      196.10226      196.10226      196.10226     -45.518888    
   1497000   400.79421     -4919387        196.10226      196.10226      196.10226     -48.955348    
   1498000   399.21754     -4919541.2      196.10226      196.10226      196.10226      14.696138    
   1499000   400.11297     -4919465.4      196.10226      196.10226      196.10226     -34.512111    
   1500000   400.01636     -4919432.9      196.10226      196.10226      196.10226     -44.269359    
   1501000   400.81264     -4919354.8      196.10226      196.10226      196.10226      39.901113    
   1502000   399.81831     -4919479.1      196.10226      196.10226      196.10226     -42.641281    
   1503000   399.88583     -4919449.4      196.10226      196.10226      196.10226      45.520367    
   1504000   400.72109     -4919412.3      196.10226      196.10226      196.10226     -140.04919    
   1505000   400.02229     -4919477.2      196.10226      196.10226      196.10226     -73.76206     
   1506000   400.03996     -4919459.7      196.10226      196.10226      196.10226      73.448183    
   1507000   399.84486     -4919454.7      196.10226      196.10226      196.10226     -130.89563    
   1508000   400.47553     -4919388.4      196.10226      196.10226      196.10226     -4.7732658    
   1509000   400.07528     -4919433.7      196.10226      196.10226      196.10226     -40.829346    
   1510000   400.26742     -4919422.2      196.10226      196.10226      196.10226      12.46606     
   1511000   399.69598     -4919495.7      196.10226      196.10226      196.10226     -110.88363    
   1512000   399.82322     -4919497.4      196.10226      196.10226      196.10226     -56.301986    
   1513000   399.86697     -4919484.5      196.10226      196.10226      196.10226     -69.804131    
   1514000   399.42198     -4919467.6      196.10226      196.10226      196.10226     -36.632876    
   1515000   400.25796     -4919443        196.10226      196.10226      196.10226      59.600327    
   1516000   400.36283     -4919375.6      196.10226      196.10226      196.10226     -49.151956    
   1517000   400.33453     -4919416.6      196.10226      196.10226      196.10226      38.301261    
   1518000   399.99832     -4919455.7      196.10226      196.10226      196.10226     -19.321818    
   1519000   399.83686     -4919469        196.10226      196.10226      196.10226     -47.341402    
   1520000   399.79687     -4919454.6      196.10226      196.10226      196.10226      6.3953045    
   1521000   399.4518      -4919472.6      196.10226      196.10226      196.10226      0.58987426   
   1522000   399.80358     -4919457.6      196.10226      196.10226      196.10226     -8.7200901    
   1523000   400.40274     -4919428.5      196.10226      196.10226      196.10226      43.2134      
   1524000   399.76296     -4919438.5      196.10226      196.10226      196.10226     -122.33959    
   1525000   400.15687     -4919484.7      196.10226      196.10226      196.10226     -47.411806    
   1526000   399.85252     -4919440.2      196.10226      196.10226      196.10226     -125.99589    
   1527000   399.96036     -4919488.7      196.10226      196.10226      196.10226     -80.718899    
   1528000   399.99839     -4919455.9      196.10226      196.10226      196.10226      6.0611198    
   1529000   399.89781     -4919472.8      196.10226      196.10226      196.10226      70.284421    
   1530000   399.91626     -4919478.5      196.10226      196.10226      196.10226     -68.089715    
   1531000   399.76506     -4919481.2      196.10226      196.10226      196.10226     -30.363894    
   1532000   399.86        -4919547.9      196.10226      196.10226      196.10226     -38.346533    
   1533000   400.49225     -4919412.1      196.10226      196.10226      196.10226      71.494401    
   1534000   400.20861     -4919435.9      196.10226      196.10226      196.10226      64.273768    
   1535000   399.71626     -4919510.2      196.10226      196.10226      196.10226     -90.358284    
   1536000   399.76167     -4919521.4      196.10226      196.10226      196.10226      88.901339    
   1537000   399.49695     -4919468        196.10226      196.10226      196.10226      30.797427    
   1538000   400.34016     -4919429.7      196.10226      196.10226      196.10226     -2.1188468    
   1539000   400.29765     -4919441.5      196.10226      196.10226      196.10226      68.455211    
   1540000   400.30702     -4919402        196.10226      196.10226      196.10226      30.858408    
   1541000   399.95238     -4919525.2      196.10226      196.10226      196.10226     -43.639268    
   1542000   400.3632      -4919465        196.10226      196.10226      196.10226     -77.686006    
   1543000   399.3162      -4919546.6      196.10226      196.10226      196.10226     -121.61231    
   1544000   399.47351     -4919492.4      196.10226      196.10226      196.10226     -86.875993    
   1545000   399.80893     -4919484.8      196.10226      196.10226      196.10226     -21.220477    
   1546000   399.78328     -4919445.5      196.10226      196.10226      196.10226      25.296795    
   1547000   400.39938     -4919449.6      196.10226      196.10226      196.10226      47.711045    
   1548000   399.6541      -4919445.6      196.10226      196.10226      196.10226     -2.2435648    
   1549000   400.27687     -4919469.3      196.10226      196.10226      196.10226     -76.771405    
   1550000   399.95921     -4919491.9      196.10226      196.10226      196.10226     -71.827912    
   1551000   400.14837     -4919442.4      196.10226      196.10226      196.10226     -16.684883    
   1552000   400.25589     -4919458.4      196.10226      196.10226      196.10226      45.380009    
   1553000   399.97083     -4919499.9      196.10226      196.10226      196.10226     -49.205622    
   1554000   400.64788     -4919428.9      196.10226      196.10226      196.10226     -15.42029     
   1555000   399.24826     -4919513.7      196.10226      196.10226      196.10226      31.474092    
   1556000   400.58863     -4919441.9      196.10226      196.10226      196.10226      82.097757    
   1557000   400.76815     -4919431.5      196.10226      196.10226      196.10226     -32.556842    
   1558000   400.07618     -4919391.6      196.10226      196.10226      196.10226     -8.9722733    
   1559000   399.93548     -4919438.1      196.10226      196.10226      196.10226     -22.668485    
   1560000   399.81546     -4919521.1      196.10226      196.10226      196.10226     -65.905098    
   1561000   400.48188     -4919408.8      196.10226      196.10226      196.10226     -94.058381    
   1562000   399.93066     -4919524.6      196.10226      196.10226      196.10226     -84.669134    
   1563000   400.79605     -4919432.9      196.10226      196.10226      196.10226     -25.241176    
   1564000   400.45613     -4919442.7      196.10226      196.10226      196.10226     -39.767385    
   1565000   399.74873     -4919481        196.10226      196.10226      196.10226     -130.04495    
   1566000   399.65946     -4919523.2      196.10226      196.10226      196.10226     -85.534284    
   1567000   399.4096      -4919459.7      196.10226      196.10226      196.10226      76.263617    
   1568000   400.10436     -4919481.3      196.10226      196.10226      196.10226     -9.6811193    
   1569000   400.45316     -4919421.2      196.10226      196.10226      196.10226      105.11657    
   1570000   400.21678     -4919447.9      196.10226      196.10226      196.10226     -13.67751     
   1571000   399.55064     -4919481.8      196.10226      196.10226      196.10226      84.182129    
   1572000   399.99536     -4919491.5      196.10226      196.10226      196.10226     -68.523934    
   1573000   399.71644     -4919511.7      196.10226      196.10226      196.10226     -43.090586    
   1574000   399.67953     -4919517        196.10226      196.10226      196.10226     -26.481444    
   1575000   399.67507     -4919465.4      196.10226      196.10226      196.10226      57.038251    
   1576000   400.55811     -4919414.8      196.10226      196.10226      196.10226     -71.011102    
   1577000   399.92688     -4919475.1      196.10226      196.10226      196.10226     -181.21375    
   1578000   399.65012     -4919468.5      196.10226      196.10226      196.10226     -40.723154    
   1579000   399.83065     -4919479.7      196.10226      196.10226      196.10226      2.2012051    
   1580000   400.38251     -4919444.7      196.10226      196.10226      196.10226     -65.441306    
   1581000   399.6893      -4919458.8      196.10226      196.10226      196.10226     -4.2786927    
   1582000   400.19425     -4919438.3      196.10226      196.10226      196.10226     -134.42461    
   1583000   399.89936     -4919499.5      196.10226      196.10226      196.10226     -47.301072    
   1584000   400.79171     -4919435        196.10226      196.10226      196.10226      49.010628    
   1585000   399.77185     -4919412.2      196.10226      196.10226      196.10226     -73.200438    
   1586000   400.48051     -4919412.3      196.10226      196.10226      196.10226     -50.53709     
   1587000   400.31251     -4919461.5      196.10226      196.10226      196.10226     -87.138703    
   1588000   399.38694     -4919565.1      196.10226      196.10226      196.10226     -127.23601    
   1589000   400.00095     -4919450.4      196.10226      196.10226      196.10226     -6.1496004    
   1590000   399.5421      -4919487.7      196.10226      196.10226      196.10226     -13.57142     
   1591000   399.17155     -4919530.2      196.10226      196.10226      196.10226      5.67253      
   1592000   400.69619     -4919419.3      196.10226      196.10226      196.10226      37.962387    
   1593000   399.70547     -4919532.6      196.10226      196.10226      196.10226     -176.81553    
   1594000   399.83826     -4919462        196.10226      196.10226      196.10226     -86.631293    
   1595000   399.96756     -4919427.2      196.10226      196.10226      196.10226     -7.6380866    
   1596000   400.00843     -4919441.6      196.10226      196.10226      196.10226     -27.414325    
   1597000   400.56845     -4919448.3      196.10226      196.10226      196.10226      6.7919173    
   1598000   399.45767     -4919505        196.10226      196.10226      196.10226      13.378353    
   1599000   400.45851     -4919428        196.10226      196.10226      196.10226      29.33114     
   1600000   399.56799     -4919486.7      196.10226      196.10226      196.10226     -29.770342    
   1601000   400.86144     -4919437.7      196.10226      196.10226      196.10226     -131.49683    
   1602000   400.10125     -4919483.6      196.10226      196.10226      196.10226     -24.551466    
   1603000   400.15572     -4919464.6      196.10226      196.10226      196.10226      56.596361    
   1604000   399.72651     -4919493.8      196.10226      196.10226      196.10226      47.734831    
   1605000   399.49408     -4919538.8      196.10226      196.10226      196.10226     -6.3141913    
   1606000   399.67635     -4919502.8      196.10226      196.10226      196.10226     -35.22191     
   1607000   399.86657     -4919487.5      196.10226      196.10226      196.10226     -66.015126    
   1608000   401.11222     -4919440.3      196.10226      196.10226      196.10226     -78.566025    
   1609000   399.70209     -4919493.2      196.10226      196.10226      196.10226      78.683531    
   1610000   398.81922     -4919573.1      196.10226      196.10226      196.10226     -75.496789    
   1611000   401.08632     -4919431.8      196.10226      196.10226      196.10226     -21.185071    
   1612000   399.9815      -4919502.8      196.10226      196.10226      196.10226     -119.7949     
   1613000   399.4581      -4919523.6      196.10226      196.10226      196.10226     -8.9268312    
   1614000   400.37059     -4919417.8      196.10226      196.10226      196.10226      1.521424     
   1615000   400.34743     -4919492        196.10226      196.10226      196.10226     -51.965888    
   1616000   400.16199     -4919452.1      196.10226      196.10226      196.10226     -9.270273     
   1617000   400.34304     -4919454.4      196.10226      196.10226      196.10226     -117.18133    
   1618000   399.91434     -4919455.2      196.10226      196.10226      196.10226     -100.37085    
   1619000   400.66822     -4919428.3      196.10226      196.10226      196.10226      21.609836    
   1620000   399.59028     -4919600.4      196.10226      196.10226      196.10226      0.64413898   
   1621000   399.87698     -4919496.5      196.10226      196.10226      196.10226     -67.90344     
   1622000   399.57915     -4919497.3      196.10226      196.10226      196.10226      8.5496182    
   1623000   400.23837     -4919468.3      196.10226      196.10226      196.10226      105.43684    
   1624000   400.63049     -4919448.1      196.10226      196.10226      196.10226     -10.809005    
   1625000   399.47583     -4919529.2      196.10226      196.10226      196.10226     -58.682795    
   1626000   400.10362     -4919499.3      196.10226      196.10226      196.10226     -12.326073    
   1627000   399.75576     -4919440        196.10226      196.10226      196.10226     -41.374034    
   1628000   399.37043     -4919485.9      196.10226      196.10226      196.10226     -118.89178    
   1629000   399.62919     -4919510.7      196.10226      196.10226      196.10226     -97.334315    
   1630000   399.42145     -4919517.6      196.10226      196.10226      196.10226     -116.8329     
   1631000   401.13456     -4919435.4      196.10226      196.10226      196.10226     -141.68833    
   1632000   400.36202     -4919529.4      196.10226      196.10226      196.10226     -119.10258    
   1633000   400.49145     -4919475.2      196.10226      196.10226      196.10226      3.3919647    
   1634000   399.86582     -4919450.1      196.10226      196.10226      196.10226     -14.238454    
   1635000   399.94196     -4919459        196.10226      196.10226      196.10226      12.551442    
   1636000   400.1467      -4919436.4      196.10226      196.10226      196.10226      48.16015     
   1637000   399.15846     -4919544.9      196.10226      196.10226      196.10226      0.13119332   
   1638000   400.45571     -4919443.1      196.10226      196.10226      196.10226      89.10935     
   1639000   399.94819     -4919500        196.10226      196.10226      196.10226      19.041418    
   1640000   400.13604     -4919479.3      196.10226      196.10226      196.10226      86.266585    
   1641000   399.84715     -4919452.1      196.10226      196.10226      196.10226     -88.80942     
   1642000   400.10634     -4919524        196.10226      196.10226      196.10226     -182.66856    
   1643000   400.69528     -4919414.8      196.10226      196.10226      196.10226     -18.792395    
   1644000   400.86445     -4919400.7      196.10226      196.10226      196.10226     -139.41332    
   1645000   400.46645     -4919460.3      196.10226      196.10226      196.10226     -92.638567    
   1646000   399.82908     -4919487.9      196.10226      196.10226      196.10226     -200.58637    
   1647000   399.89227     -4919454.3      196.10226      196.10226      196.10226     -108.36229    
   1648000   400.01023     -4919439.8      196.10226      196.10226      196.10226     -151.29822    
   1649000   400.4175      -4919439.4      196.10226      196.10226      196.10226     -44.049282    
   1650000   399.89116     -4919512.6      196.10226      196.10226      196.10226     -39.340953    
   1651000   400.91533     -4919448.5      196.10226      196.10226      196.10226     -53.698       
   1652000   400.63724     -4919489.7      196.10226      196.10226      196.10226     -26.942722    
   1653000   399.9737      -4919484.9      196.10226      196.10226      196.10226     -29.410546    
   1654000   399.31908     -4919540.9      196.10226      196.10226      196.10226      20.978898    
   1655000   400.15732     -4919448.5      196.10226      196.10226      196.10226     -115.09319    
   1656000   400.42598     -4919504.6      196.10226      196.10226      196.10226     -64.64609     
   1657000   399.51011     -4919531.8      196.10226      196.10226      196.10226     -89.746596    
   1658000   399.8854      -4919557.8      196.10226      196.10226      196.10226     -87.756234    
   1659000   399.26021     -4919488.7      196.10226      196.10226      196.10226     -58.312911    
   1660000   399.05158     -4919557.1      196.10226      196.10226      196.10226     -129.59119    
   1661000   399.99287     -4919466.9      196.10226      196.10226      196.10226     -234.33532    
   1662000   400.02829     -4919526.1      196.10226      196.10226      196.10226     -124.56506    
   1663000   400.02195     -4919512.6      196.10226      196.10226      196.10226     -128.5482     
   1664000   399.4094      -4919511.3      196.10226      196.10226      196.10226     -118.3624     
   1665000   400.44469     -4919454.8      196.10226      196.10226      196.10226     -109.94613    
   1666000   400.05812     -4919452.7      196.10226      196.10226      196.10226      46.112617    
   1667000   400.47535     -4919497.7      196.10226      196.10226      196.10226     -5.1907862    
   1668000   399.84845     -4919507.7      196.10226      196.10226      196.10226     -120.67458    
   1669000   400.064       -4919440.4      196.10226      196.10226      196.10226     -35.260799    
   1670000   399.77352     -4919553.9      196.10226      196.10226      196.10226     -123.60621    
   1671000   400.60358     -4919468.7      196.10226      196.10226      196.10226     -139.32729    
   1672000   399.62435     -4919538.8      196.10226      196.10226      196.10226     -26.530554    
   1673000   399.82104     -4919507        196.10226      196.10226      196.10226     -108.21757    
   1674000   400.40904     -4919481.8      196.10226      196.10226      196.10226     -46.109946    
   1675000   399.24557     -4919520.8      196.10226      196.10226      196.10226     -146.04129    
   1676000   399.30996     -4919514.7      196.10226      196.10226      196.10226     -12.752712    
   1677000   399.08307     -4919534.1      196.10226      196.10226      196.10226     -106.73686    
   1678000   400.34171     -4919470        196.10226      196.10226      196.10226     -3.0976017    
   1679000   399.86286     -4919526.5      196.10226      196.10226      196.10226     -44.67284     
   1680000   399.59707     -4919509.4      196.10226      196.10226      196.10226     -134.07755    
   1681000   400.00597     -4919456.3      196.10226      196.10226      196.10226     -123.3884     
   1682000   400.86631     -4919404.3      196.10226      196.10226      196.10226      52.372131    
   1683000   399.37519     -4919526.2      196.10226      196.10226      196.10226     -156.5066     
   1684000   399.68256     -4919460.8      196.10226      196.10226      196.10226      20.707053    
   1685000   399.54113     -4919518.1      196.10226      196.10226      196.10226      6.534307     
   1686000   399.78476     -4919479        196.10226      196.10226      196.10226     -105.05462    
   1687000   400.74891     -4919433.2      196.10226      196.10226      196.10226     -81.396491    
   1688000   400.05982     -4919474.3      196.10226      196.10226      196.10226     -131.031      
   1689000   399.76248     -4919490.4      196.10226      196.10226      196.10226     -111.87575    
   1690000   400.33781     -4919476.6      196.10226      196.10226      196.10226     -26.123082    
   1691000   400.73906     -4919447.9      196.10226      196.10226      196.10226      21.864814    
   1692000   400.16019     -4919503        196.10226      196.10226      196.10226     -34.150979    
   1693000   400.20092     -4919494.8      196.10226      196.10226      196.10226     -6.7238719    
   1694000   400.08522     -4919472.7      196.10226      196.10226      196.10226     -47.945379    
   1695000   399.81529     -4919495.5      196.10226      196.10226      196.10226     -51.477917    
   1696000   399.95549     -4919507.2      196.10226      196.10226      196.10226     -24.684021    
   1697000   400.11635     -4919495.2      196.10226      196.10226      196.10226     -212.80229    
   1698000   399.53399     -4919525.3      196.10226      196.10226      196.10226     -53.891406    
   1699000   399.51601     -4919519        196.10226      196.10226      196.10226     -111.92669    
   1700000   399.73902     -4919482.1      196.10226      196.10226      196.10226     -95.928943    
   1701000   399.18749     -4919590.9      196.10226      196.10226      196.10226     -180.0081     
   1702000   400.11759     -4919502.2      196.10226      196.10226      196.10226     -19.207234    
   1703000   399.40382     -4919575.7      196.10226      196.10226      196.10226     -63.401008    
   1704000   399.0293      -4919570.2      196.10226      196.10226      196.10226     -62.561168    
   1705000   401.01169     -4919458.7      196.10226      196.10226      196.10226     -77.344431    
   1706000   400.28203     -4919481.3      196.10226      196.10226      196.10226     -54.917242    
   1707000   400.01782     -4919547        196.10226      196.10226      196.10226     -2.4526083    
   1708000   399.95252     -4919506.4      196.10226      196.10226      196.10226     -60.647043    
   1709000   400.08745     -4919476        196.10226      196.10226      196.10226     -83.078011    
   1710000   400.4336      -4919466.7      196.10226      196.10226      196.10226     -61.656823    
   1711000   401.35943     -4919427.2      196.10226      196.10226      196.10226     -29.097235    
   1712000   400.27141     -4919456.3      196.10226      196.10226      196.10226      68.142189    
   1713000   399.21372     -4919510.8      196.10226      196.10226      196.10226     -104.00717    
   1714000   400.10096     -4919463        196.10226      196.10226      196.10226     -95.694274    
   1715000   399.05677     -4919465.8      196.10226      196.10226      196.10226      44.593074    
   1716000   400.8897      -4919462.2      196.10226      196.10226      196.10226      45.429843    
   1717000   399.772       -4919541.8      196.10226      196.10226      196.10226      35.919524    
   1718000   400.29156     -4919481.5      196.10226      196.10226      196.10226     -86.072656    
   1719000   399.67439     -4919559.3      196.10226      196.10226      196.10226     -59.408564    
   1720000   400.3448      -4919523        196.10226      196.10226      196.10226      7.2445391    
   1721000   399.95184     -4919451.4      196.10226      196.10226      196.10226      11.439723    
   1722000   399.47344     -4919531.6      196.10226      196.10226      196.10226     -107.08642    
   1723000   400.4788      -4919478.3      196.10226      196.10226      196.10226     -152.04271    
   1724000   399.93993     -4919555.6      196.10226      196.10226      196.10226     -181.73262    
   1725000   399.38549     -4919525        196.10226      196.10226      196.10226     -81.917342    
   1726000   399.74383     -4919518.1      196.10226      196.10226      196.10226     -4.7369742    
   1727000   399.28072     -4919534.2      196.10226      196.10226      196.10226     -28.641508    
   1728000   398.50068     -4919566.9      196.10226      196.10226      196.10226     -44.778493    
   1729000   399.6227      -4919524.4      196.10226      196.10226      196.10226     -20.797883    
   1730000   400.75687     -4919445.5      196.10226      196.10226      196.10226      23.185828    
   1731000   400.14189     -4919523.5      196.10226      196.10226      196.10226      12.686655    
   1732000   400.09423     -4919530.7      196.10226      196.10226      196.10226      10.293675    
   1733000   399.83741     -4919526.5      196.10226      196.10226      196.10226     -16.275061    
   1734000   399.37857     -4919567.6      196.10226      196.10226      196.10226     -126.80574    
   1735000   400.31053     -4919524.9      196.10226      196.10226      196.10226     -16.223675    
   1736000   399.94025     -4919539.3      196.10226      196.10226      196.10226     -65.586156    
   1737000   399.74247     -4919468.5      196.10226      196.10226      196.10226      25.931099    
   1738000   399.45352     -4919543.2      196.10226      196.10226      196.10226     -16.208592    
   1739000   399.94467     -4919555.4      196.10226      196.10226      196.10226      79.207602    
   1740000   399.33889     -4919537.1      196.10226      196.10226      196.10226      0.10503488   
   1741000   399.68848     -4919552.5      196.10226      196.10226      196.10226      19.073358    
   1742000   399.5519      -4919541.9      196.10226      196.10226      196.10226     -57.59835     
   1743000   400.25941     -4919443.5      196.10226      196.10226      196.10226     -21.240124    
   1744000   399.34242     -4919556.4      196.10226      196.10226      196.10226     -11.092747    
   1745000   400.66535     -4919464.3      196.10226      196.10226      196.10226     -3.990133     
   1746000   400.14218     -4919505.6      196.10226      196.10226      196.10226      12.722199    
   1747000   400.39948     -4919444.7      196.10226      196.10226      196.10226      21.748589    
   1748000   400.49314     -4919480.4      196.10226      196.10226      196.10226     -35.979336    
   1749000   400.67658     -4919451        196.10226      196.10226      196.10226     -1.7387003    
   1750000   398.83922     -4919582        196.10226      196.10226      196.10226     -21.440602    
   1751000   399.53723     -4919500.3      196.10226      196.10226      196.10226     -44.606735    
   1752000   399.99922     -4919441.6      196.10226      196.10226      196.10226     -96.069942    
   1753000   400.41234     -4919464.4      196.10226      196.10226      196.10226     -60.715334    
   1754000   401.10314     -4919496.6      196.10226      196.10226      196.10226     -40.370043    
   1755000   400.05815     -4919501.6      196.10226      196.10226      196.10226      25.469624    
   1756000   399.76869     -4919571.3      196.10226      196.10226      196.10226      28.044401    
   1757000   399.51816     -4919538.6      196.10226      196.10226      196.10226     -29.951293    
   1758000   400.61565     -4919518.6      196.10226      196.10226      196.10226     -48.5083      
   1759000   399.79737     -4919609.2      196.10226      196.10226      196.10226     -40.966835    
   1760000   399.76424     -4919529        196.10226      196.10226      196.10226     -1.7273809    
   1761000   399.42317     -4919546.6      196.10226      196.10226      196.10226      24.998566    
   1762000   400.07195     -4919504        196.10226      196.10226      196.10226      15.903549    
   1763000   399.7591      -4919542.7      196.10226      196.10226      196.10226      34.51293     
   1764000   400.07377     -4919501.1      196.10226      196.10226      196.10226     -123.07404    
   1765000   400.15723     -4919476.1      196.10226      196.10226      196.10226     -7.2325165    
   1766000   400.55147     -4919468.5      196.10226      196.10226      196.10226     -20.583935    
   1767000   400.42209     -4919531.9      196.10226      196.10226      196.10226     -155.0669     
   1768000   400.1224      -4919533.3      196.10226      196.10226      196.10226     -55.374146    
   1769000   399.67502     -4919497.5      196.10226      196.10226      196.10226     -103.27781    
   1770000   399.5841      -4919530.9      196.10226      196.10226      196.10226     -21.03623     
   1771000   399.72434     -4919540.8      196.10226      196.10226      196.10226     -27.042979    
   1772000   399.52739     -4919499.4      196.10226      196.10226      196.10226     -14.142155    
   1773000   399.97671     -4919491.8      196.10226      196.10226      196.10226      71.920927    
   1774000   400.7911      -4919469.5      196.10226      196.10226      196.10226     -24.34708     
   1775000   400.53641     -4919471.2      196.10226      196.10226      196.10226     -27.443195    
   1776000   399.80871     -4919511.8      196.10226      196.10226      196.10226     -62.743595    
   1777000   399.38171     -4919550.9      196.10226      196.10226      196.10226     -60.454841    
   1778000   400.46799     -4919527.3      196.10226      196.10226      196.10226     -7.8414246    
   1779000   399.92669     -4919546        196.10226      196.10226      196.10226     -83.902114    
   1780000   400.11128     -4919482.5      196.10226      196.10226      196.10226     -131.79474    
   1781000   399.983       -4919549.2      196.10226      196.10226      196.10226     -76.837814    
   1782000   399.36162     -4919561.4      196.10226      196.10226      196.10226     -108.38983    
   1783000   400.5978      -4919504        196.10226      196.10226      196.10226     -15.016374    
   1784000   399.39086     -4919595.4      196.10226      196.10226      196.10226     -67.700337    
   1785000   399.75807     -4919514.6      196.10226      196.10226      196.10226     -99.250415    
   1786000   399.59276     -4919533.6      196.10226      196.10226      196.10226     -165.13061    
   1787000   400.32326     -4919449.7      196.10226      196.10226      196.10226     -112.57702    
   1788000   399.93406     -4919471.4      196.10226      196.10226      196.10226      44.193336    
   1789000   400.26864     -4919466.3      196.10226      196.10226      196.10226     -59.400616    
   1790000   400.67457     -4919554.7      196.10226      196.10226      196.10226     -50.976265    
   1791000   400.241       -4919479.1      196.10226      196.10226      196.10226      22.861858    
   1792000   400.07247     -4919488.7      196.10226      196.10226      196.10226     -68.836777    
   1793000   400.52418     -4919454        196.10226      196.10226      196.10226     -1.8265968    
   1794000   399.81743     -4919530        196.10226      196.10226      196.10226     -31.432119    
   1795000   399.65407     -4919541.7      196.10226      196.10226      196.10226      1.0688155    
   1796000   400.75305     -4919488.3      196.10226      196.10226      196.10226     -47.265082    
   1797000   400.23138     -4919499.9      196.10226      196.10226      196.10226      15.02509     
   1798000   399.80807     -4919525.7      196.10226      196.10226      196.10226     -76.704077    
   1799000   400.57219     -4919455.8      196.10226      196.10226      196.10226     -34.428603    
   1800000   400.54957     -4919471.3      196.10226      196.10226      196.10226     -4.4633606    
   1801000   399.90578     -4919539.9      196.10226      196.10226      196.10226     -146.23826    
   1802000   400.65878     -4919463.4      196.10226      196.10226      196.10226     -91.51712     
   1803000   400.00477     -4919555.8      196.10226      196.10226      196.10226     -194.16328    
   1804000   399.26243     -4919594.9      196.10226      196.10226      196.10226     -40.826082    
   1805000   400.37987     -4919489.4      196.10226      196.10226      196.10226      88.1185      
   1806000   399.69716     -4919546        196.10226      196.10226      196.10226      43.439261    
   1807000   400.22934     -4919522.7      196.10226      196.10226      196.10226     -79.24816     
   1808000   400.49926     -4919484.9      196.10226      196.10226      196.10226     -69.076467    
   1809000   400.05073     -4919482.6      196.10226      196.10226      196.10226     -158.99295    
   1810000   400.17737     -4919470.8      196.10226      196.10226      196.10226     -29.833478    
   1811000   399.87347     -4919551.8      196.10226      196.10226      196.10226     -65.646993    
   1812000   399.76987     -4919510.1      196.10226      196.10226      196.10226     -91.996707    
   1813000   399.50862     -4919519.2      196.10226      196.10226      196.10226     -13.564728    
   1814000   400.15023     -4919479        196.10226      196.10226      196.10226      79.511291    
   1815000   399.44191     -4919531.7      196.10226      196.10226      196.10226     -64.868873    
   1816000   400.30468     -4919477.9      196.10226      196.10226      196.10226     -10.644304    
   1817000   400.32782     -4919497.9      196.10226      196.10226      196.10226     -42.628508    
   1818000   400.30177     -4919507.4      196.10226      196.10226      196.10226     -36.590597    
   1819000   400.24313     -4919484.8      196.10226      196.10226      196.10226     -3.6669233    
   1820000   399.76727     -4919578.8      196.10226      196.10226      196.10226     -62.987726    
   1821000   400.46066     -4919518.1      196.10226      196.10226      196.10226     -97.205536    
   1822000   400.0621      -4919523.3      196.10226      196.10226      196.10226     -70.843722    
   1823000   400.08696     -4919523.1      196.10226      196.10226      196.10226     -39.934098    
   1824000   400.252       -4919553.7      196.10226      196.10226      196.10226     -43.039925    
   1825000   400.07298     -4919499.2      196.10226      196.10226      196.10226     -16.675382    
   1826000   399.2679      -4919521.2      196.10226      196.10226      196.10226      33.408       
   1827000   399.22746     -4919514.4      196.10226      196.10226      196.10226     -15.03996     
   1828000   400.43028     -4919523        196.10226      196.10226      196.10226     -66.722325    
   1829000   399.52116     -4919523.2      196.10226      196.10226      196.10226     -38.792325    
   1830000   399.14143     -4919555.4      196.10226      196.10226      196.10226     -101.1496     
   1831000   399.45473     -4919553.8      196.10226      196.10226      196.10226     -63.930657    
   1832000   399.79164     -4919545.8      196.10226      196.10226      196.10226     -27.27616     
   1833000   398.98312     -4919559.9      196.10226      196.10226      196.10226      108.08739    
   1834000   399.67759     -4919555.6      196.10226      196.10226      196.10226      30.80933     
   1835000   400.10355     -4919578.3      196.10226      196.10226      196.10226      31.124669    
   1836000   400.31908     -4919496.4      196.10226      196.10226      196.10226     -15.952208    
   1837000   400.08681     -4919464.8      196.10226      196.10226      196.10226     -124.87473    
   1838000   400.06313     -4919541.3      196.10226      196.10226      196.10226     -43.126219    
   1839000   400.85336     -4919487.8      196.10226      196.10226      196.10226     -11.222881    
   1840000   399.64596     -4919548.3      196.10226      196.10226      196.10226     -83.950079    
   1841000   399.46762     -4919565.2      196.10226      196.10226      196.10226     -24.257767    
   1842000   400.16436     -4919548.1      196.10226      196.10226      196.10226     -32.357459    
   1843000   400.05831     -4919511.2      196.10226      196.10226      196.10226     -22.492537    
   1844000   399.66105     -4919572.4      196.10226      196.10226      196.10226      102.80607    
   1845000   399.9245      -4919518.6      196.10226      196.10226      196.10226      92.434586    
   1846000   399.36205     -4919569.6      196.10226      196.10226      196.10226     -45.692471    
   1847000   399.67223     -4919509.6      196.10226      196.10226      196.10226     -0.93961439   
   1848000   400.79977     -4919457.9      196.10226      196.10226      196.10226      25.589228    
   1849000   399.71897     -4919539.3      196.10226      196.10226      196.10226      47.538541    
   1850000   400.1908      -4919514.3      196.10226      196.10226      196.10226      49.243727    
   1851000   400.86865     -4919529.9      196.10226      196.10226      196.10226     -7.7192034    
   1852000   399.11807     -4919545.1      196.10226      196.10226      196.10226      29.174402    
   1853000   400.54625     -4919497.7      196.10226      196.10226      196.10226     -8.7819933    
   1854000   399.23094     -4919615.8      196.10226      196.10226      196.10226     -21.077881    
   1855000   399.83951     -4919564.9      196.10226      196.10226      196.10226     -63.21347     
   1856000   399.85422     -4919533        196.10226      196.10226      196.10226     -69.495469    
   1857000   400.75411     -4919477.2      196.10226      196.10226      196.10226     -27.762039    
   1858000   400.03925     -4919515.7      196.10226      196.10226      196.10226      54.420457    
   1859000   400.56368     -4919489.5      196.10226      196.10226      196.10226     -7.4213996    
   1860000   399.05513     -4919596.3      196.10226      196.10226      196.10226     -42.170803    
   1861000   400.2255      -4919517.1      196.10226      196.10226      196.10226     -19.301151    
   1862000   399.96727     -4919514.8      196.10226      196.10226      196.10226     -13.574668    
   1863000   399.72107     -4919584.6      196.10226      196.10226      196.10226     -84.796471    
   1864000   399.76373     -4919512.2      196.10226      196.10226      196.10226     -80.434998    
   1865000   399.88488     -4919530.7      196.10226      196.10226      196.10226     -18.437921    
   1866000   400.87561     -4919522.2      196.10226      196.10226      196.10226     -75.502088    
   1867000   400.09382     -4919541.4      196.10226      196.10226      196.10226     -137.52013    
   1868000   399.71538     -4919564.5      196.10226      196.10226      196.10226     -67.617502    
   1869000   400.65874     -4919476.7      196.10226      196.10226      196.10226     -40.207449    
   1870000   399.66862     -4919521.9      196.10226      196.10226      196.10226      43.354815    
   1871000   399.6758      -4919528.3      196.10226      196.10226      196.10226     -91.624269    
   1872000   399.09246     -4919622.5      196.10226      196.10226      196.10226      68.230993    
   1873000   400.06465     -4919525.7      196.10226      196.10226      196.10226      41.736021    
   1874000   400.49104     -4919499.5      196.10226      196.10226      196.10226      53.036523    
   1875000   399.6064      -4919619.4      196.10226      196.10226      196.10226     -43.238847    
   1876000   400.48303     -4919543.3      196.10226      196.10226      196.10226     -59.103956    
   1877000   399.4717      -4919534.5      196.10226      196.10226      196.10226     -84.842167    
   1878000   400.75789     -4919443.9      196.10226      196.10226      196.10226      2.326895     
   1879000   399.97267     -4919527.3      196.10226      196.10226      196.10226     -89.301726    
   1880000   400.54183     -4919504.2      196.10226      196.10226      196.10226     -77.024018    
   1881000   399.6134      -4919576.5      196.10226      196.10226      196.10226     -181.9196     
   1882000   399.3937      -4919553.8      196.10226      196.10226      196.10226     -66.77183     
   1883000   400.11279     -4919500.3      196.10226      196.10226      196.10226     -76.157414    
   1884000   399.33061     -4919581.1      196.10226      196.10226      196.10226      18.41985     
   1885000   399.91152     -4919549.6      196.10226      196.10226      196.10226      86.225476    
   1886000   398.78581     -4919600        196.10226      196.10226      196.10226      8.0691326    
   1887000   400.06898     -4919501        196.10226      196.10226      196.10226      109.16305    
   1888000   400.08351     -4919481.5      196.10226      196.10226      196.10226      110.53081    
   1889000   399.67343     -4919548.8      196.10226      196.10226      196.10226     -48.128164    
   1890000   399.48817     -4919579.1      196.10226      196.10226      196.10226     -61.437006    
   1891000   400.05838     -4919460.5      196.10226      196.10226      196.10226     -18.257207    
   1892000   399.75099     -4919499.1      196.10226      196.10226      196.10226     -89.093964    
   1893000   399.91643     -4919511.1      196.10226      196.10226      196.10226     -178.96149    
   1894000   400.31662     -4919569.6      196.10226      196.10226      196.10226     -3.8973555    
   1895000   399.40172     -4919572.4      196.10226      196.10226      196.10226      28.994636    
   1896000   399.86994     -4919537        196.10226      196.10226      196.10226     -104.2049     
   1897000   398.92909     -4919600.3      196.10226      196.10226      196.10226      23.025106    
   1898000   399.83781     -4919567.3      196.10226      196.10226      196.10226      30.403838    
   1899000   400.28036     -4919546.4      196.10226      196.10226      196.10226     -86.392222    
   1900000   399.78791     -4919587.1      196.10226      196.10226      196.10226     -82.642111    
   1901000   399.51939     -4919537.8      196.10226      196.10226      196.10226     -93.546882    
   1902000   400.49359     -4919519.3      196.10226      196.10226      196.10226     -15.116357    
   1903000   399.9738      -4919512.7      196.10226      196.10226      196.10226      102.48715    
   1904000   399.24844     -4919592.1      196.10226      196.10226      196.10226     -20.273137    
   1905000   399.85443     -4919606.6      196.10226      196.10226      196.10226     -20.019639    
   1906000   399.95308     -4919547.5      196.10226      196.10226      196.10226      7.6376854    
   1907000   399.70001     -4919594        196.10226      196.10226      196.10226     -95.892341    
   1908000   399.85145     -4919549        196.10226      196.10226      196.10226     -76.434848    
   1909000   399.98159     -4919491.9      196.10226      196.10226      196.10226     -14.818029    
   1910000   400.15885     -4919495.6      196.10226      196.10226      196.10226     -90.030033    
   1911000   400.12561     -4919484.9      196.10226      196.10226      196.10226     -109.49094    
   1912000   400.20085     -4919503.7      196.10226      196.10226      196.10226     -150.67061    
   1913000   400.43133     -4919546.6      196.10226      196.10226      196.10226     -105.31784    
   1914000   399.77233     -4919571.3      196.10226      196.10226      196.10226     -149.26332    
   1915000   399.57448     -4919528        196.10226      196.10226      196.10226     -23.800375    
   1916000   399.953       -4919588.9      196.10226      196.10226      196.10226     -82.316373    
   1917000   400.46251     -4919525.2      196.10226      196.10226      196.10226     -30.041438    
   1918000   399.50706     -4919545.6      196.10226      196.10226      196.10226     -100.30132    
   1919000   400.13093     -4919536.4      196.10226      196.10226      196.10226     -119.96989    
   1920000   400.18205     -4919533.5      196.10226      196.10226      196.10226     -40.394527    
   1921000   399.75015     -4919541.9      196.10226      196.10226      196.10226      13.718497    
   1922000   400.62705     -4919461.3      196.10226      196.10226      196.10226     -190.50521    
   1923000   400.79547     -4919501.9      196.10226      196.10226      196.10226     -101.48888    
   1924000   400.17083     -4919515.6      196.10226      196.10226      196.10226     -86.637389    
   1925000   400.07639     -4919467.8      196.10226      196.10226      196.10226     -44.376752    
   1926000   399.99708     -4919535.8      196.10226      196.10226      196.10226     -13.414674    
   1927000   399.33452     -4919602.8      196.10226      196.10226      196.10226     -6.0791569    
   1928000   399.33224     -4919603.3      196.10226      196.10226      196.10226     -71.657273    
   1929000   400.02858     -4919556.1      196.10226      196.10226      196.10226     -58.672252    
   1930000   399.14753     -4919581.5      196.10226      196.10226      196.10226     -51.830235    
   1931000   399.4953      -4919616.8      196.10226      196.10226      196.10226     -118.03481    
   1932000   399.94195     -4919584.7      196.10226      196.10226      196.10226     -43.441352    
   1933000   400.17825     -4919559.7      196.10226      196.10226      196.10226     -62.777087    
   1934000   400.46243     -4919475.6      196.10226      196.10226      196.10226     -142.50855    
   1935000   399.90325     -4919539.5      196.10226      196.10226      196.10226     -110.15417    
   1936000   400.81755     -4919524.8      196.10226      196.10226      196.10226     -35.621111    
   1937000   399.60119     -4919567        196.10226      196.10226      196.10226     -95.282479    
   1938000   399.1684      -4919607        196.10226      196.10226      196.10226     -126.29461    
   1939000   399.72151     -4919576.5      196.10226      196.10226      196.10226     -112.99487    
   1940000   400.40181     -4919524.6      196.10226      196.10226      196.10226     -54.828772    
   1941000   400.18079     -4919511.8      196.10226      196.10226      196.10226     -45.916887    
   1942000   399.2724      -4919532.8      196.10226      196.10226      196.10226     -22.226016    
   1943000   399.55217     -4919570.2      196.10226      196.10226      196.10226     -143.54622    
   1944000   400.14309     -4919528.6      196.10226      196.10226      196.10226     -93.668086    
   1945000   400.06555     -4919555.9      196.10226      196.10226      196.10226     -58.350505    
   1946000   399.98209     -4919518.7      196.10226      196.10226      196.10226     -58.581247    
   1947000   400.75192     -4919502.9      196.10226      196.10226      196.10226      15.421796    
   1948000   401.02797     -4919456.2      196.10226      196.10226      196.10226     -106.84914    
   1949000   401.10096     -4919498.6      196.10226      196.10226      196.10226      9.9515345    
   1950000   399.96159     -4919552.7      196.10226      196.10226      196.10226     -42.971906    
   1951000   399.69338     -4919570.7      196.10226      196.10226      196.10226     -44.173986    
   1952000   400.09947     -4919546.8      196.10226      196.10226      196.10226     -57.262461    
   1953000   400.09687     -4919546.9      196.10226      196.10226      196.10226     -117.85494    
   1954000   400.41223     -4919517        196.10226      196.10226      196.10226     -76.792858    
   1955000   400.66834     -4919488.7      196.10226      196.10226      196.10226     -7.6337927    
   1956000   399.56814     -4919528        196.10226      196.10226      196.10226     -64.54478     
   1957000   400.79097     -4919495.6      196.10226      196.10226      196.10226     -143.10569    
   1958000   400.5055      -4919523.6      196.10226      196.10226      196.10226     -189.72595    
   1959000   399.82817     -4919545.2      196.10226      196.10226      196.10226     -167.45664    
   1960000   400.36064     -4919492.2      196.10226      196.10226      196.10226     -75.005186    
   1961000   399.26328     -4919553.2      196.10226      196.10226      196.10226     -141.0362     
   1962000   399.16952     -4919589.6      196.10226      196.10226      196.10226     -94.998605    
   1963000   399.51899     -4919541.3      196.10226      196.10226      196.10226     -52.128695    
   1964000   400.61404     -4919521.4      196.10226      196.10226      196.10226     -50.357241    
   1965000   400.25254     -4919536.3      196.10226      196.10226      196.10226     -13.71625     
   1966000   400.65057     -4919527.9      196.10226      196.10226      196.10226     -10.612246    
   1967000   400.40996     -4919486.8      196.10226      196.10226      196.10226     -77.440904    
   1968000   400.13047     -4919536.1      196.10226      196.10226      196.10226     -92.177968    
   1969000   399.9373      -4919524.1      196.10226      196.10226      196.10226     -109.10695    
   1970000   399.83053     -4919588.7      196.10226      196.10226      196.10226     -102.79182    
   1971000   400.5399      -4919554.7      196.10226      196.10226      196.10226     -173.30832    
   1972000   399.86879     -4919545.6      196.10226      196.10226      196.10226     -37.290192    
   1973000   399.74011     -4919569        196.10226      196.10226      196.10226     -164.57262    
   1974000   400.15334     -4919535.9      196.10226      196.10226      196.10226     -53.095477    
   1975000   399.99593     -4919518        196.10226      196.10226      196.10226     -15.380304    
   1976000   399.97757     -4919577.6      196.10226      196.10226      196.10226     -46.868462    
   1977000   400.35319     -4919517.9      196.10226      196.10226      196.10226     -47.984847    
   1978000   400.42154     -4919511.6      196.10226      196.10226      196.10226     -95.166445    
   1979000   399.52885     -4919561.4      196.10226      196.10226      196.10226     -80.44963     
   1980000   399.67055     -4919522        196.10226      196.10226      196.10226     -42.857212    
   1981000   400.20828     -4919545.5      196.10226      196.10226      196.10226     -124.17499    
   1982000   399.46958     -4919605.1      196.10226      196.10226      196.10226     -88.8588      
   1983000   399.81285     -4919576.6      196.10226      196.10226      196.10226     -130.80503    
   1984000   400.18309     -4919561.5      196.10226      196.10226      196.10226     -70.268081    
   1985000   400.08609     -4919553.9      196.10226      196.10226      196.10226     -56.621333    
   1986000   400.34096     -4919544.5      196.10226      196.10226      196.10226     -60.035494    
   1987000   399.89027     -4919577.3      196.10226      196.10226      196.10226     -155.39806    
   1988000   399.35556     -4919611.5      196.10226      196.10226      196.10226     -80.569167    
   1989000   400.42905     -4919512.3      196.10226      196.10226      196.10226     -122.80324    
   1990000   400.58377     -4919477.5      196.10226      196.10226      196.10226     -98.881131    
   1991000   400.18911     -4919553.8      196.10226      196.10226      196.10226     -83.963546    
   1992000   399.88392     -4919554.1      196.10226      196.10226      196.10226     -58.581777    
   1993000   400.28562     -4919513.1      196.10226      196.10226      196.10226     -103.74286    
   1994000   399.86286     -4919545        196.10226      196.10226      196.10226     -88.077892    
   1995000   399.43412     -4919605.3      196.10226      196.10226      196.10226     -104.51109    
   1996000   399.90766     -4919523.6      196.10226      196.10226      196.10226     -107.34528    
   1997000   399.29876     -4919594.3      196.10226      196.10226      196.10226     -109.97782    
   1998000   400.97628     -4919482.4      196.10226      196.10226      196.10226     -46.873378    
   1999000   399.46607     -4919584.5      196.10226      196.10226      196.10226     -147.72422    
   2000000   399.78423     -4919541        196.10226      196.10226      196.10226     -122.81671    
Loop time of 65552.3 on 16384 procs for 1000000 steps with 431984 atoms

Performance: 2.636 ns/day, 9.104 hours/ns, 15.255 timesteps/s, 6.590 Matom-step/s
77.2% CPU use with 128 MPI tasks x 128 OpenMP threads

MPI task timing breakdown:
Section |  min time  |  avg time  |  max time  |%varavg| %total
---------------------------------------------------------------
Pair    | 22542      | 34773      | 47924      |5261.6 | 53.05
Bond    | 0.085414   | 0.19322    | 0.38785    |  12.9 |  0.00
Kspace  | 10749      | 25095      | 38433      |6791.9 | 38.28
Neigh   | 2115.3     | 3416.5     | 4872.4     |1809.2 |  5.21
Comm    | 1481.9     | 1749.2     | 1918.6     | 208.0 |  2.67
Output  | 0.16208    | 0.16835    | 0.19512    |   0.8 |  0.00
Modify  | 194.85     | 363.87     | 544.24     | 678.5 |  0.56
Other   |            | 154.3      |            |       |  0.24

Nlocal:        3374.88 ave        4352 max        2439 min
Histogram: 64 0 0 0 0 0 0 0 0 64
Nghost:        11203.1 ave       12813 max        9590 min
Histogram: 64 0 0 0 0 0 0 0 0 64
Neighs:         831299 ave 1.17753e+06 max      522545 min
Histogram: 34 30 0 0 0 0 4 24 11 25

Total # of neighbors = 1.0640632e+08
Ave neighs/atom = 246.32006
Ave special neighs/atom = 0
Neighbor list builds = 129072
Dangerous builds = 0
System init for write_data ...
PPPM initialization ...
  using 12-bit tables for long-range coulomb (src/src/kspace.cpp:342)
  G vector (1/distance) = 0.27321391
  grid = 128 128 128
  stencil order = 5
  estimated absolute RMS force accuracy = 0.0019302219
  estimated relative force accuracy = 0.00013404649
  using double precision MKL FFT
  3d grid and FFT values/proc = 28749 16384
Generated 0 of 10 mixed pair_coeff terms from geometric mixing rule
Total wall time: 37:37:32
