LAMMPS (8 Feb 2023)
WARNING: Using I/O redirection is unreliable with parallel runs. Better to use the -in switch to read input files. (src/src/lammps.cpp:531)
  using 128 OpenMP thread(s) per MPI task
Reading data file ...
  orthogonal box = (-1.0065368 -1.0065368 -1.0065368) to (196.00654 196.00654 196.00654)
  4 by 4 by 8 MPI processor grid
  reading atoms ...
  431984 atoms
  reading velocities ...
  431984 velocities
Finding 1-2 1-3 1-4 neighbors ...
  special bond factors lj:    0        0        0       
  special bond factors coul:  0        0        0       
     0 = max # of 1-2 neighbors
     0 = max # of 1-3 neighbors
     0 = max # of 1-4 neighbors
     1 = max # of special neighbors
  special bonds CPU = 0.094 seconds
  read_data CPU = 2.928 seconds
114924 atoms in group Li
220572 atoms in group O
PPPM initialization ...
  using 12-bit tables for long-range coulomb (src/src/kspace.cpp:342)
  G vector (1/distance) = 0.27287244
  grid = 128 128 128
  stencil order = 5
  estimated absolute RMS force accuracy = 0.0019571758
  estimated relative force accuracy = 0.00013591834
  using double precision MKL FFT
  3d grid and FFT values/proc = 28749 16384
Generated 0 of 10 mixed pair_coeff terms from geometric mixing rule
Neighbor list info ...
  update: every = 1 steps, delay = 0 steps, check = yes
  max neighbors/atom: 5000, page size: 100000
  master list distance cutoff = 11.5
  ghost atom cutoff = 11.5
  binsize = 5.75, bins = 35 35 35
  3 neighbor lists, perpetual/occasional/extra = 3 0 0
  (1) pair buck/coul/long, perpetual
      attributes: half, newton on
      pair build: half/bin/newton
      stencil: half/bin/3d
      bin: standard
  (2) pair lennard/mdf, perpetual, skip from (3)
      attributes: half, newton on, cut 4
      pair build: skip
      stencil: none
      bin: none
  (3) neighbor class addition, perpetual, trim from (1)
      attributes: half, newton on, cut 4
      pair build: trim
      stencil: none
      bin: none
Setting up cg style minimization ...
  Unit style    : metal
  Current step  : 0
Per MPI rank memory allocation (min/avg/max) = 224.4 | 260.9 | 297.6 Mbytes
   Step          Temp          E_pair         E_mol          TotEng         Press     
         0   699.93809     -4925023.3      0             -4885940        2.176857     
       674   699.93809     -4965644.7      0             -4926561.5     -8406.7749    
Loop time of 90.6849 on 16384 procs for 674 steps with 431984 atoms

77.4% CPU use with 128 MPI tasks x 128 OpenMP threads

Minimization stats:
  Stopping criterion = linesearch alpha is zero
  Energy initial, next-to-last, final = 
      -4925023.2808458  -4965644.72865302  -4965644.72865302
  Force two-norm initial, final = 962.05901 0.28824533
  Force max component initial, final = 6.8380481 0.050446987
  Final line search alpha, max atom move = 1.1920929e-07 6.0137495e-09
  Iterations, force evaluations = 674 1222

MPI task timing breakdown:
Section |  min time  |  avg time  |  max time  |%varavg| %total
---------------------------------------------------------------
Pair    | 33.622     | 52.552     | 72.912     | 206.9 | 57.95
Bond    | 0.00011241 | 0.00023088 | 0.00044138 |   0.0 |  0.00
Kspace  | 12.953     | 34.053     | 53.667     | 267.7 | 37.55
Neigh   | 0.94126    | 1.5289     | 2.188      |  39.1 |  1.69
Comm    | 1.3357     | 1.8325     | 2.2271     |  22.0 |  2.02
Output  | 0          | 0          | 0          |   0.0 |  0.00
Modify  | 0          | 0          | 0          |   0.0 |  0.00
Other   |            | 0.7182     |            |       |  0.79

Nlocal:        3374.88 ave        4374 max        2396 min
Histogram: 64 0 0 0 0 0 0 0 0 64
Nghost:          11159 ave       12833 max        9536 min
Histogram: 64 0 0 0 0 0 0 0 0 64
Neighs:         828147 ave 1.17787e+06 max      513743 min
Histogram: 35 29 0 0 0 0 4 21 10 29

Total # of neighbors = 1.0600276e+08
Ave neighs/atom = 245.38585
Ave special neighs/atom = 0
Neighbor list builds = 59
Dangerous builds = 0
PPPM initialization ...
  using 12-bit tables for long-range coulomb (src/src/kspace.cpp:342)
  G vector (1/distance) = 0.27287244
  grid = 128 128 128
  stencil order = 5
  estimated absolute RMS force accuracy = 0.0019571758
  estimated relative force accuracy = 0.00013591834
  using double precision MKL FFT
  3d grid and FFT values/proc = 28749 16384
Generated 0 of 10 mixed pair_coeff terms from geometric mixing rule
Setting up Verlet run ...
  Unit style    : metal
  Current step  : 0
  Time step     : 0.002
Per MPI rank memory allocation (min/avg/max) = 223.3 | 259.2 | 295.3 Mbytes
   Step          Temp          TotEng           Lx             Ly             Lz           Press     
         0   699.93809     -4926561.5      197.01307      197.01307      197.01307     -8406.7749    
      1000   697.33131     -4885981.4      197.64604      197.64604      197.64604     -38.590276    
      2000   698.76737     -4886165.5      197.27198      197.27198      197.27198      109.68832    
      3000   700.39632     -4886129.6      197.02572      197.02572      197.02572      17.139059    
      4000   700.44513     -4885993.1      196.81683      196.81683      196.81683      96.761722    
      5000   698.57593     -4886048        196.70937      196.70937      196.70937      83.042741    
      6000   700.64235     -4885942.1      196.756        196.756        196.756       -20.065787    
      7000   699.38521     -4885892.2      196.84773      196.84773      196.84773     -46.245946    
      8000   700.3518      -4885903.1      196.91746      196.91746      196.91746     -27.117783    
      9000   700.36899     -4885954.8      196.96687      196.96687      196.96687      184.56009    
     10000   701.9701      -4885935.3      197.0535       197.0535       197.0535       23.350517    
Loop time of 706.852 on 16384 procs for 10000 steps with 431984 atoms

Performance: 2.445 ns/day, 9.817 hours/ns, 14.147 timesteps/s, 6.111 Matom-step/s
78.2% CPU use with 128 MPI tasks x 128 OpenMP threads

MPI task timing breakdown:
Section |  min time  |  avg time  |  max time  |%varavg| %total
---------------------------------------------------------------
Pair    | 223.26     | 344.23     | 474        | 520.3 | 48.70
Bond    | 0.00092374 | 0.0019522  | 0.0033624  |   1.2 |  0.00
Kspace  | 114.27     | 263.62     | 402.27     | 687.7 | 37.30
Neigh   | 28.184     | 45.245     | 64.298     | 208.2 |  6.40
Comm    | 13.156     | 17.131     | 20.348     |  56.8 |  2.42
Output  | 0.0013344  | 0.0014426  | 0.0016208  |   0.1 |  0.00
Modify  | 29.6       | 33.925     | 35.371     |  17.4 |  4.80
Other   |            | 2.69       |            |       |  0.38

Nlocal:        3374.88 ave        4344 max        2415 min
Histogram: 64 0 0 0 0 0 0 0 0 64
Nghost:        11124.2 ave       12740 max        9539 min
Histogram: 64 0 0 0 0 0 0 0 0 64
Neighs:         819029 ave 1.15417e+06 max      519731 min
Histogram: 37 27 0 0 0 0 2 23 9 30

Total # of neighbors = 1.0483576e+08
Ave neighs/atom = 242.68436
Ave special neighs/atom = 0
Neighbor list builds = 1703
Dangerous builds = 0
PPPM initialization ...
  using 12-bit tables for long-range coulomb (src/src/kspace.cpp:342)
  G vector (1/distance) = 0.27285727
  grid = 128 128 128
  stencil order = 5
  estimated absolute RMS force accuracy = 0.0019583794
  estimated relative force accuracy = 0.00013600192
  using double precision MKL FFT
  3d grid and FFT values/proc = 28749 16384
Generated 0 of 10 mixed pair_coeff terms from geometric mixing rule
Setting up Verlet run ...
  Unit style    : metal
  Current step  : 0
  Time step     : 0.002
Per MPI rank memory allocation (min/avg/max) = 224.7 | 260.8 | 297 Mbytes
   Step          Temp          TotEng           Lx             Ly             Lz           Press     
         0   701.9701      -4885935.3      197.0535       197.0535       197.0535       23.317114    
      1000   702.80229     -4885772        197.0535       197.0535       197.0535      -196.09463    
      2000   699.93669     -4885828.8      197.0535       197.0535       197.0535      -298.60057    
      3000   699.59574     -4885856.5      197.0535       197.0535       197.0535      -455.02625    
      4000   697.83974     -4885986.9      197.0535       197.0535       197.0535      -535.59628    
      5000   700.66641     -4885779.3      197.0535       197.0535       197.0535      -300.27377    
      6000   701.20772     -4885795.2      197.0535       197.0535       197.0535      -438.27062    
      7000   699.69323     -4885969.6      197.0535       197.0535       197.0535      -489.43966    
      8000   699.97877     -4885926.5      197.0535       197.0535       197.0535      -260.44446    
      9000   699.21876     -4885867.4      197.0535       197.0535       197.0535      -314.75191    
     10000   698.80352     -4885990.9      197.0535       197.0535       197.0535      -312.79037    
Loop time of 668.773 on 16384 procs for 10000 steps with 431984 atoms

Performance: 2.584 ns/day, 9.289 hours/ns, 14.953 timesteps/s, 6.459 Matom-step/s
77.0% CPU use with 128 MPI tasks x 128 OpenMP threads

MPI task timing breakdown:
Section |  min time  |  avg time  |  max time  |%varavg| %total
---------------------------------------------------------------
Pair    | 223.09     | 343.84     | 474.44     | 521.3 | 51.41
Bond    | 0.00077518 | 0.0018951  | 0.0036898  |   1.3 |  0.00
Kspace  | 108.76     | 255.95     | 391.79     | 684.7 | 38.27
Neigh   | 28.086     | 44.916     | 63.853     | 207.2 |  6.72
Comm    | 16.097     | 18.802     | 20.331     |  20.7 |  2.81
Output  | 0.0013516  | 0.0014628  | 0.0016845  |   0.1 |  0.00
Modify  | 2.0222     | 3.6767     | 5.5269     |  66.6 |  0.55
Other   |            | 1.581      |            |       |  0.24

Nlocal:        3374.88 ave        4347 max        2426 min
Histogram: 64 0 0 0 0 0 0 0 0 64
Nghost:        11121.2 ave       12753 max        9544 min
Histogram: 64 0 0 0 0 0 0 0 0 64
Neighs:         818576 ave 1.15451e+06 max      520577 min
Histogram: 38 26 0 0 0 0 3 22 11 28

Total # of neighbors = 1.0477774e+08
Ave neighs/atom = 242.55005
Ave special neighs/atom = 0
Neighbor list builds = 1695
Dangerous builds = 0
PPPM initialization ...
  using 12-bit tables for long-range coulomb (src/src/kspace.cpp:342)
  G vector (1/distance) = 0.27285727
  grid = 128 128 128
  stencil order = 5
  estimated absolute RMS force accuracy = 0.0019583794
  estimated relative force accuracy = 0.00013600192
  using double precision MKL FFT
  3d grid and FFT values/proc = 28749 16384
Generated 0 of 10 mixed pair_coeff terms from geometric mixing rule
Setting up Verlet run ...
  Unit style    : metal
  Current step  : 10000
  Time step     : 0.002
Per MPI rank memory allocation (min/avg/max) = 225 | 261.4 | 297.8 Mbytes
   Step          Temp          TotEng           Lx             Ly             Lz           Press     
     10000   698.80352     -4885990.9      197.0535       197.0535       197.0535      -312.79037    
     11000   699.91934     -4885878.4      197.0535       197.0535       197.0535      -313.84535    
     12000   700.30421     -4885996.1      197.0535       197.0535       197.0535      -350.14842    
     13000   699.50033     -4885969.7      197.0535       197.0535       197.0535      -255.03355    
     14000   700.89661     -4885922.4      197.0535       197.0535       197.0535      -218.97455    
     15000   700.76568     -4885768.7      197.0535       197.0535       197.0535      -227.85612    
     16000   699.6557      -4885969.9      197.0535       197.0535       197.0535      -360.44683    
     17000   699.74449     -4885861.5      197.0535       197.0535       197.0535      -248.69528    
     18000   699.67879     -4886005.5      197.0535       197.0535       197.0535      -374.33668    
     19000   699.70767     -4885895.8      197.0535       197.0535       197.0535      -318.2546     
     20000   698.63653     -4886074.6      197.0535       197.0535       197.0535      -273.27482    
     21000   701.48761     -4885863        197.0535       197.0535       197.0535      -301.80855    
     22000   700.14563     -4885973.9      197.0535       197.0535       197.0535      -323.2366     
     23000   700.89198     -4885846.8      197.0535       197.0535       197.0535      -263.79062    
     24000   700.12957     -4885959.6      197.0535       197.0535       197.0535      -276.07109    
     25000   699.40007     -4885969        197.0535       197.0535       197.0535      -135.76199    
     26000   700.29956     -4885871.2      197.0535       197.0535       197.0535      -358.71097    
     27000   698.64128     -4886002.8      197.0535       197.0535       197.0535      -388.32399    
     28000   700.50247     -4885838.2      197.0535       197.0535       197.0535      -394.21878    
     29000   699.85106     -4885845.7      197.0535       197.0535       197.0535      -408.51331    
     30000   700.0965      -4885970.9      197.0535       197.0535       197.0535      -256.28885    
     31000   699.80259     -4885894.6      197.0535       197.0535       197.0535      -295.62181    
     32000   699.79656     -4885908.1      197.0535       197.0535       197.0535      -189.43318    
     33000   700.00606     -4885961.5      197.0535       197.0535       197.0535      -340.57896    
     34000   701.05942     -4885948.3      197.0535       197.0535       197.0535      -212.8172     
     35000   701.15319     -4885916.7      197.0535       197.0535       197.0535      -202.28821    
     36000   700.94599     -4885801.6      197.0535       197.0535       197.0535      -91.478991    
     37000   700.49367     -4885887.6      197.0535       197.0535       197.0535      -282.04286    
     38000   699.57116     -4886021.5      197.0535       197.0535       197.0535      -367.83583    
     39000   699.50668     -4886005.7      197.0535       197.0535       197.0535      -360.90513    
     40000   699.30719     -4885997.6      197.0535       197.0535       197.0535      -325.87892    
     41000   699.45625     -4885893.4      197.0535       197.0535       197.0535      -249.15723    
     42000   698.04514     -4886054        197.0535       197.0535       197.0535      -308.55837    
     43000   700.78848     -4885833.1      197.0535       197.0535       197.0535      -283.58608    
     44000   698.74821     -4886003.4      197.0535       197.0535       197.0535      -421.24605    
     45000   700.34138     -4885872.3      197.0535       197.0535       197.0535      -273.24477    
     46000   701.0094      -4885880.7      197.0535       197.0535       197.0535      -297.42165    
     47000   700.37701     -4885856.3      197.0535       197.0535       197.0535      -224.29766    
     48000   697.98311     -4885883.6      197.0535       197.0535       197.0535      -243.77078    
     49000   699.14602     -4885960.4      197.0535       197.0535       197.0535      -361.04051    
     50000   700.01663     -4885896.5      197.0535       197.0535       197.0535      -345.2638     
     51000   699.81138     -4885943.4      197.0535       197.0535       197.0535      -249.41298    
     52000   700.34695     -4885905.4      197.0535       197.0535       197.0535      -283.70461    
     53000   701.19088     -4885885.4      197.0535       197.0535       197.0535      -305.9346     
     54000   698.95692     -4886006        197.0535       197.0535       197.0535      -266.00011    
     55000   699.75044     -4885844        197.0535       197.0535       197.0535      -168.04026    
     56000   700.18214     -4885894        197.0535       197.0535       197.0535      -190.06744    
     57000   699.52488     -4885927.9      197.0535       197.0535       197.0535      -321.3841     
     58000   699.93525     -4885979.5      197.0535       197.0535       197.0535      -315.8027     
     59000   700.66848     -4885853.6      197.0535       197.0535       197.0535      -295.13515    
     60000   701.49267     -4885902        197.0535       197.0535       197.0535      -233.78737    
     61000   699.86119     -4885963.9      197.0535       197.0535       197.0535      -184.92634    
     62000   698.06588     -4886033.8      197.0535       197.0535       197.0535      -188.96926    
     63000   699.79374     -4885989.9      197.0535       197.0535       197.0535      -228.63156    
     64000   700.83547     -4885854        197.0535       197.0535       197.0535      -295.8659     
     65000   700.53211     -4885973.7      197.0535       197.0535       197.0535      -112.07522    
     66000   699.80931     -4886045.1      197.0535       197.0535       197.0535      -194.19132    
     67000   701.13057     -4885905.2      197.0535       197.0535       197.0535      -229.25727    
     68000   699.41439     -4885910.1      197.0535       197.0535       197.0535      -237.5476     
     69000   701.28217     -4885813.8      197.0535       197.0535       197.0535      -233.93053    
     70000   700.78547     -4885933.4      197.0535       197.0535       197.0535      -168.95447    
     71000   699.45001     -4885876.9      197.0535       197.0535       197.0535      -314.73412    
     72000   700.31631     -4885972.2      197.0535       197.0535       197.0535      -378.10597    
     73000   699.73792     -4885947.5      197.0535       197.0535       197.0535      -342.06789    
     74000   699.49856     -4885920.6      197.0535       197.0535       197.0535      -392.26747    
     75000   700.28303     -4885865.4      197.0535       197.0535       197.0535      -218.4616     
     76000   699.61668     -4885933.6      197.0535       197.0535       197.0535      -192.83051    
     77000   699.30333     -4885941.5      197.0535       197.0535       197.0535      -402.45711    
     78000   700.86705     -4885879.4      197.0535       197.0535       197.0535      -269.33349    
     79000   701.19966     -4885874.7      197.0535       197.0535       197.0535      -122.83778    
     80000   699.79565     -4885971.6      197.0535       197.0535       197.0535      -230.28897    
     81000   698.61785     -4886094.1      197.0535       197.0535       197.0535      -353.88132    
     82000   699.07888     -4886068.8      197.0535       197.0535       197.0535      -324.35495    
     83000   699.28781     -4886053.2      197.0535       197.0535       197.0535      -338.40642    
     84000   699.60859     -4886041.4      197.0535       197.0535       197.0535      -286.34006    
     85000   699.45512     -4886023.7      197.0535       197.0535       197.0535      -236.39254    
     86000   700.26157     -4885890.5      197.0535       197.0535       197.0535      -173.12902    
     87000   700.72582     -4885835.7      197.0535       197.0535       197.0535      -312.77662    
     88000   702.90275     -4885763.2      197.0535       197.0535       197.0535      -349.77373    
     89000   699.27093     -4885874.1      197.0535       197.0535       197.0535      -364.35944    
     90000   699.88169     -4885911.5      197.0535       197.0535       197.0535      -293.28794    
     91000   700.29398     -4885920.2      197.0535       197.0535       197.0535      -293.96957    
     92000   699.04347     -4885986.8      197.0535       197.0535       197.0535      -227.21481    
     93000   700.3457      -4885841.6      197.0535       197.0535       197.0535      -327.71658    
     94000   700.86466     -4885931.7      197.0535       197.0535       197.0535      -380.77223    
     95000   700.13646     -4885955.5      197.0535       197.0535       197.0535      -157.1575     
     96000   699.10533     -4886031        197.0535       197.0535       197.0535      -389.88592    
     97000   700.86842     -4885885.1      197.0535       197.0535       197.0535      -182.52193    
     98000   699.90447     -4885831.6      197.0535       197.0535       197.0535      -77.551177    
     99000   700.78067     -4885860.8      197.0535       197.0535       197.0535      -162.76242    
    100000   697.82938     -4885989.3      197.0535       197.0535       197.0535      -197.99306    
    101000   700.76547     -4885912.5      197.0535       197.0535       197.0535      -324.47302    
    102000   699.45635     -4886059        197.0535       197.0535       197.0535      -251.96675    
    103000   699.14951     -4886012.9      197.0535       197.0535       197.0535      -296.71864    
    104000   699.44713     -4885949.4      197.0535       197.0535       197.0535      -386.89263    
    105000   698.80522     -4885939.5      197.0535       197.0535       197.0535      -179.43047    
    106000   701.13341     -4885879.9      197.0535       197.0535       197.0535      -180.57563    
    107000   701.24307     -4885877.9      197.0535       197.0535       197.0535      -213.79458    
    108000   700.97261     -4885832.4      197.0535       197.0535       197.0535      -193.03638    
    109000   700.85675     -4885983.6      197.0535       197.0535       197.0535      -205.19857    
    110000   701.58682     -4885871.2      197.0535       197.0535       197.0535      -225.27126    
    111000   700.42813     -4885873.4      197.0535       197.0535       197.0535      -307.39843    
    112000   699.42821     -4886001.3      197.0535       197.0535       197.0535      -297.35288    
    113000   699.86621     -4886018.1      197.0535       197.0535       197.0535      -231.94824    
    114000   697.58885     -4886119.4      197.0535       197.0535       197.0535      -280.64803    
    115000   699.78906     -4886001.4      197.0535       197.0535       197.0535      -310.2041     
    116000   699.4335      -4885957.9      197.0535       197.0535       197.0535      -249.30349    
    117000   698.33278     -4886181.1      197.0535       197.0535       197.0535      -407.14288    
    118000   699.45345     -4886005.5      197.0535       197.0535       197.0535      -133.60609    
    119000   700.83769     -4885866.1      197.0535       197.0535       197.0535      -305.26274    
    120000   699.0082      -4886008.9      197.0535       197.0535       197.0535      -279.27457    
    121000   700.52183     -4885918.1      197.0535       197.0535       197.0535      -276.98787    
    122000   700.81486     -4885818.4      197.0535       197.0535       197.0535      -262.50191    
    123000   700.68005     -4885919        197.0535       197.0535       197.0535      -352.62311    
    124000   700.19823     -4885934.4      197.0535       197.0535       197.0535      -129.58248    
    125000   699.88151     -4885883.2      197.0535       197.0535       197.0535      -264.03555    
    126000   698.26939     -4885976        197.0535       197.0535       197.0535      -312.59244    
    127000   700.18203     -4885930.5      197.0535       197.0535       197.0535      -301.7798     
    128000   698.97332     -4886048.6      197.0535       197.0535       197.0535      -351.17365    
    129000   699.90256     -4885913.1      197.0535       197.0535       197.0535      -226.97845    
    130000   699.96101     -4885930.4      197.0535       197.0535       197.0535      -149.87665    
    131000   699.21509     -4886009.5      197.0535       197.0535       197.0535      -201.23099    
    132000   700.61478     -4886043.6      197.0535       197.0535       197.0535      -339.43518    
    133000   698.6837      -4885993.5      197.0535       197.0535       197.0535      -154.25829    
    134000   698.24141     -4886065.3      197.0535       197.0535       197.0535      -383.5327     
    135000   699.55962     -4886062.4      197.0535       197.0535       197.0535      -334.21209    
    136000   699.72257     -4885893.5      197.0535       197.0535       197.0535      -231.64558    
    137000   700.78564     -4885894.9      197.0535       197.0535       197.0535      -249.92768    
    138000   699.42011     -4886013.2      197.0535       197.0535       197.0535      -215.4225     
    139000   700.39183     -4885966.1      197.0535       197.0535       197.0535      -111.76091    
    140000   698.90552     -4886147.7      197.0535       197.0535       197.0535      -320.09752    
    141000   699.46936     -4886003.8      197.0535       197.0535       197.0535      -227.68168    
    142000   699.07348     -4886029.4      197.0535       197.0535       197.0535      -417.49929    
    143000   700.30269     -4885947.3      197.0535       197.0535       197.0535      -179.65677    
    144000   698.87121     -4886002.8      197.0535       197.0535       197.0535      -273.94468    
    145000   700.89838     -4885887.9      197.0535       197.0535       197.0535      -152.98487    
    146000   699.55909     -4885934.5      197.0535       197.0535       197.0535      -397.69693    
    147000   700.55898     -4885959.5      197.0535       197.0535       197.0535      -209.55872    
    148000   699.56836     -4885996.4      197.0535       197.0535       197.0535      -291.84923    
    149000   700.19603     -4885936        197.0535       197.0535       197.0535      -304.05601    
    150000   699.74254     -4885913.4      197.0535       197.0535       197.0535      -220.05018    
    151000   700.0233      -4885914.8      197.0535       197.0535       197.0535      -298.54552    
    152000   699.72717     -4885986.6      197.0535       197.0535       197.0535      -356.16922    
    153000   700.16873     -4885933.2      197.0535       197.0535       197.0535      -220.18903    
    154000   700.2835      -4885897.8      197.0535       197.0535       197.0535      -301.87763    
    155000   698.42044     -4886030.6      197.0535       197.0535       197.0535      -222.76127    
    156000   700.01704     -4885924.8      197.0535       197.0535       197.0535      -204.885      
    157000   700.19627     -4886011.5      197.0535       197.0535       197.0535      -280.05938    
    158000   699.07403     -4886043.3      197.0535       197.0535       197.0535      -135.08821    
    159000   700.58793     -4885879.4      197.0535       197.0535       197.0535      -178.6604     
    160000   700.5212      -4885971.5      197.0535       197.0535       197.0535      -272.54991    
    161000   700.87612     -4885901.6      197.0535       197.0535       197.0535      -308.83475    
    162000   699.9931      -4886000.9      197.0535       197.0535       197.0535      -259.77222    
    163000   698.92137     -4885926.2      197.0535       197.0535       197.0535      -174.3018     
    164000   701.2885      -4885822.9      197.0535       197.0535       197.0535      -255.37432    
    165000   699.98008     -4885953.6      197.0535       197.0535       197.0535      -331.42435    
    166000   700.49043     -4885986.8      197.0535       197.0535       197.0535      -389.4991     
    167000   698.92464     -4885969.8      197.0535       197.0535       197.0535      -367.25298    
    168000   698.70675     -4886047.1      197.0535       197.0535       197.0535      -329.77196    
    169000   697.67347     -4886183.8      197.0535       197.0535       197.0535      -305.98296    
    170000   699.92199     -4885957.6      197.0535       197.0535       197.0535      -317.67645    
    171000   699.46969     -4885999        197.0535       197.0535       197.0535      -283.33208    
    172000   698.86887     -4886145.8      197.0535       197.0535       197.0535      -351.11193    
    173000   700.43992     -4886042.7      197.0535       197.0535       197.0535      -187.5623     
    174000   701.75206     -4885841.8      197.0535       197.0535       197.0535      -41.410743    
    175000   699.88372     -4885975        197.0535       197.0535       197.0535      -315.84951    
    176000   699.77727     -4885939.6      197.0535       197.0535       197.0535      -298.33223    
    177000   699.52973     -4885970        197.0535       197.0535       197.0535      -273.99742    
    178000   700.87986     -4885777.7      197.0535       197.0535       197.0535      -323.45369    
    179000   699.95032     -4885946.5      197.0535       197.0535       197.0535      -358.37785    
    180000   699.87877     -4885952.5      197.0535       197.0535       197.0535      -135.54981    
    181000   700.24241     -4885911.2      197.0535       197.0535       197.0535      -299.55946    
    182000   700.22869     -4885997.6      197.0535       197.0535       197.0535      -228.99929    
    183000   699.01267     -4886070        197.0535       197.0535       197.0535      -251.29135    
    184000   699.09758     -4886090.2      197.0535       197.0535       197.0535      -195.51635    
    185000   700.20636     -4886035.7      197.0535       197.0535       197.0535      -64.484169    
    186000   698.69766     -4886002.3      197.0535       197.0535       197.0535      -274.73181    
    187000   699.95483     -4885968.6      197.0535       197.0535       197.0535      -288.59961    
    188000   699.17966     -4886001.8      197.0535       197.0535       197.0535      -269.72752    
    189000   699.29877     -4885951.3      197.0535       197.0535       197.0535      -260.88356    
    190000   700.19025     -4885896        197.0535       197.0535       197.0535      -228.47315    
    191000   699.87654     -4885882.4      197.0535       197.0535       197.0535      -175.31567    
    192000   699.72744     -4886013.1      197.0535       197.0535       197.0535      -324.26191    
    193000   700.69634     -4885847.6      197.0535       197.0535       197.0535      -311.94333    
    194000   700.16543     -4886000.5      197.0535       197.0535       197.0535      -358.10837    
    195000   699.36768     -4886048.5      197.0535       197.0535       197.0535      -310.49202    
    196000   700.31645     -4886021.8      197.0535       197.0535       197.0535      -185.5842     
    197000   701.32796     -4885880.7      197.0535       197.0535       197.0535      -262.54886    
    198000   700.78946     -4885822.9      197.0535       197.0535       197.0535      -330.55034    
    199000   700.2862      -4886005.1      197.0535       197.0535       197.0535      -383.12687    
    200000   699.79592     -4885995.1      197.0535       197.0535       197.0535      -250.69204    
    201000   697.8379      -4886212        197.0535       197.0535       197.0535      -367.77544    
    202000   700.43759     -4886026.4      197.0535       197.0535       197.0535      -228.32283    
    203000   700.04281     -4885952.8      197.0535       197.0535       197.0535      -249.49127    
    204000   700.29677     -4885982.7      197.0535       197.0535       197.0535      -296.3139     
    205000   699.65385     -4886026.2      197.0535       197.0535       197.0535      -204.65611    
    206000   700.83158     -4885924        197.0535       197.0535       197.0535      -288.29036    
    207000   701.02853     -4885916.5      197.0535       197.0535       197.0535      -324.19881    
    208000   699.4836      -4885952.7      197.0535       197.0535       197.0535      -243.64993    
    209000   700.72889     -4885931.4      197.0535       197.0535       197.0535      -322.5616     
    210000   700.30026     -4885984.1      197.0535       197.0535       197.0535      -175.19432    
    211000   700.24598     -4885890.1      197.0535       197.0535       197.0535      -160.82067    
    212000   698.83342     -4885897.5      197.0535       197.0535       197.0535      -221.74549    
    213000   700.71309     -4885865.9      197.0535       197.0535       197.0535      -254.55912    
    214000   698.96024     -4886004.6      197.0535       197.0535       197.0535      -247.27231    
    215000   701.10776     -4885920.8      197.0535       197.0535       197.0535      -209.04463    
    216000   699.92044     -4885883.1      197.0535       197.0535       197.0535      -159.19193    
    217000   699.56667     -4885952.2      197.0535       197.0535       197.0535      -263.6272     
    218000   701.29772     -4885860.4      197.0535       197.0535       197.0535      -287.72013    
    219000   699.10128     -4885983.8      197.0535       197.0535       197.0535      -319.35592    
    220000   699.18199     -4886000.5      197.0535       197.0535       197.0535      -379.75201    
    221000   700.4746      -4885899.7      197.0535       197.0535       197.0535      -299.29461    
    222000   699.15296     -4886067.1      197.0535       197.0535       197.0535      -360.27139    
    223000   698.7788      -4886072.6      197.0535       197.0535       197.0535      -260.11836    
    224000   699.91734     -4885941.4      197.0535       197.0535       197.0535      -345.65774    
    225000   701.31596     -4886009.9      197.0535       197.0535       197.0535      -242.28579    
    226000   700.9499      -4885950.7      197.0535       197.0535       197.0535      -307.23286    
    227000   698.50523     -4886029.4      197.0535       197.0535       197.0535      -223.61832    
    228000   699.09323     -4885978        197.0535       197.0535       197.0535      -233.4288     
    229000   701.9961      -4885820.5      197.0535       197.0535       197.0535      -262.88626    
    230000   700.57153     -4885954.6      197.0535       197.0535       197.0535      -393.67069    
    231000   699.29749     -4885963.4      197.0535       197.0535       197.0535      -326.85958    
    232000   701.28734     -4885837.1      197.0535       197.0535       197.0535      -173.72282    
    233000   701.08135     -4885969.1      197.0535       197.0535       197.0535      -324.95759    
    234000   698.51725     -4886018.3      197.0535       197.0535       197.0535      -281.84814    
    235000   699.04786     -4885966        197.0535       197.0535       197.0535      -323.17302    
    236000   699.03262     -4885987.3      197.0535       197.0535       197.0535      -159.9211     
    237000   701.82357     -4885885.8      197.0535       197.0535       197.0535      -235.62078    
    238000   699.31592     -4885976.6      197.0535       197.0535       197.0535      -239.58701    
    239000   700.51554     -4885929        197.0535       197.0535       197.0535      -205.88388    
    240000   697.73461     -4886070.3      197.0535       197.0535       197.0535      -192.7767     
    241000   699.59574     -4885940        197.0535       197.0535       197.0535      -158.71643    
    242000   700.08564     -4885981.9      197.0535       197.0535       197.0535      -293.51605    
    243000   699.46452     -4886017.2      197.0535       197.0535       197.0535      -254.065      
    244000   699.89505     -4885924        197.0535       197.0535       197.0535      -169.11574    
    245000   700.14053     -4886009.2      197.0535       197.0535       197.0535      -257.23311    
    246000   701.10709     -4885841        197.0535       197.0535       197.0535      -127.88482    
    247000   701.04761     -4885878.9      197.0535       197.0535       197.0535      -259.21869    
    248000   699.64932     -4886040.7      197.0535       197.0535       197.0535      -264.61288    
    249000   698.02445     -4886091.7      197.0535       197.0535       197.0535      -254.59367    
    250000   698.51016     -4886125.4      197.0535       197.0535       197.0535      -243.42952    
    251000   700.64261     -4885876.5      197.0535       197.0535       197.0535      -142.37003    
    252000   699.9016      -4885933.1      197.0535       197.0535       197.0535      -309.15198    
    253000   699.44773     -4886017.6      197.0535       197.0535       197.0535      -320.10741    
    254000   699.50158     -4886084.7      197.0535       197.0535       197.0535      -338.78048    
    255000   699.41224     -4886016.6      197.0535       197.0535       197.0535      -388.45461    
    256000   699.81386     -4885990.9      197.0535       197.0535       197.0535      -234.21506    
    257000   700.47753     -4885977.6      197.0535       197.0535       197.0535      -357.1561     
    258000   699.51409     -4886071.6      197.0535       197.0535       197.0535      -486.05978    
    259000   700.64679     -4885891.6      197.0535       197.0535       197.0535      -192.58181    
    260000   700.76747     -4885969.8      197.0535       197.0535       197.0535      -291.08094    
    261000   699.49554     -4886074.8      197.0535       197.0535       197.0535      -270.95813    
    262000   699.99175     -4886006.9      197.0535       197.0535       197.0535      -452.54761    
    263000   700.58765     -4886043.1      197.0535       197.0535       197.0535      -204.58044    
    264000   699.53215     -4885930.8      197.0535       197.0535       197.0535      -272.56296    
    265000   699.67924     -4885943.2      197.0535       197.0535       197.0535      -242.54479    
    266000   699.11805     -4885921.1      197.0535       197.0535       197.0535      -243.38241    
    267000   700.91483     -4885935.6      197.0535       197.0535       197.0535      -393.36149    
    268000   698.64617     -4886027.7      197.0535       197.0535       197.0535      -285.85741    
    269000   700.51049     -4885894.3      197.0535       197.0535       197.0535      -283.66994    
    270000   700.24139     -4885979.4      197.0535       197.0535       197.0535      -328.97619    
    271000   698.66312     -4886026.2      197.0535       197.0535       197.0535      -321.18908    
    272000   700.36612     -4885924        197.0535       197.0535       197.0535      -249.45715    
    273000   699.29547     -4885949.7      197.0535       197.0535       197.0535      -333.00883    
    274000   700.45199     -4885949.7      197.0535       197.0535       197.0535      -243.54394    
    275000   699.69249     -4886024.6      197.0535       197.0535       197.0535      -469.27411    
    276000   700.64063     -4885876.1      197.0535       197.0535       197.0535      -376.38137    
    277000   698.81692     -4886060.8      197.0535       197.0535       197.0535      -171.50252    
    278000   700.12319     -4886030        197.0535       197.0535       197.0535      -330.23241    
    279000   700.24086     -4885987.4      197.0535       197.0535       197.0535      -265.16168    
    280000   698.47561     -4885993.1      197.0535       197.0535       197.0535      -393.80614    
    281000   700.51557     -4886017.2      197.0535       197.0535       197.0535      -354.35386    
    282000   699.1756      -4886005.7      197.0535       197.0535       197.0535      -265.01394    
    283000   701.99856     -4885801        197.0535       197.0535       197.0535      -170.70965    
    284000   701.19137     -4885859.3      197.0535       197.0535       197.0535      -213.96863    
    285000   698.68866     -4886144.7      197.0535       197.0535       197.0535      -371.08787    
    286000   700.29616     -4885980.5      197.0535       197.0535       197.0535      -279.9059     
    287000   701.18945     -4885987.1      197.0535       197.0535       197.0535      -379.54613    
    288000   700.94715     -4885906.9      197.0535       197.0535       197.0535      -339.96147    
    289000   700.1796      -4885954.4      197.0535       197.0535       197.0535      -304.36483    
    290000   700.69953     -4885903.1      197.0535       197.0535       197.0535      -194.12287    
    291000   700.69852     -4886027.7      197.0535       197.0535       197.0535      -290.65467    
    292000   698.86057     -4886069.9      197.0535       197.0535       197.0535      -160.34114    
    293000   697.73388     -4886045.4      197.0535       197.0535       197.0535      -145.24058    
    294000   700.01339     -4886008.6      197.0535       197.0535       197.0535      -374.03148    
    295000   699.30654     -4885992.9      197.0535       197.0535       197.0535      -284.332      
    296000   699.68458     -4885929.2      197.0535       197.0535       197.0535      -232.91967    
    297000   700.879       -4885858.8      197.0535       197.0535       197.0535      -178.04918    
    298000   700.77483     -4886002.4      197.0535       197.0535       197.0535      -219.1044     
    299000   699.60017     -4886017.4      197.0535       197.0535       197.0535      -267.06151    
    300000   700.34816     -4886039.9      197.0535       197.0535       197.0535      -357.26783    
    301000   699.58249     -4885955.4      197.0535       197.0535       197.0535      -360.37212    
    302000   700.44468     -4885881.7      197.0535       197.0535       197.0535      -241.23653    
    303000   699.93537     -4885928.3      197.0535       197.0535       197.0535      -376.03518    
    304000   699.77567     -4885964        197.0535       197.0535       197.0535      -311.63739    
    305000   698.87071     -4886017.3      197.0535       197.0535       197.0535      -329.32532    
    306000   700.31594     -4885867.3      197.0535       197.0535       197.0535      -239.14055    
    307000   699.29721     -4885996.4      197.0535       197.0535       197.0535      -197.89098    
    308000   699.39003     -4886083.2      197.0535       197.0535       197.0535      -393.80252    
    309000   699.82792     -4886000.7      197.0535       197.0535       197.0535      -266.10635    
    310000   699.45289     -4885969.1      197.0535       197.0535       197.0535      -273.83595    
    311000   700.33754     -4886028        197.0535       197.0535       197.0535      -385.30041    
    312000   700.02849     -4885909.1      197.0535       197.0535       197.0535      -117.86517    
    313000   701.04584     -4885948.5      197.0535       197.0535       197.0535      -280.97883    
    314000   700.14225     -4885957.8      197.0535       197.0535       197.0535      -322.90528    
    315000   699.82333     -4885969.1      197.0535       197.0535       197.0535      -414.44409    
    316000   699.303       -4885957.4      197.0535       197.0535       197.0535      -232.23869    
    317000   699.43106     -4885974.9      197.0535       197.0535       197.0535      -151.52066    
    318000   699.80659     -4886100.8      197.0535       197.0535       197.0535      -290.94778    
    319000   700.81046     -4885927.4      197.0535       197.0535       197.0535      -303.79357    
    320000   700.46458     -4885913.8      197.0535       197.0535       197.0535      -334.36789    
    321000   700.25686     -4885950.1      197.0535       197.0535       197.0535      -419.48101    
    322000   700.44566     -4885908.2      197.0535       197.0535       197.0535      -219.94136    
    323000   701.12991     -4885960.5      197.0535       197.0535       197.0535      -219.22947    
    324000   700.6228      -4885983.8      197.0535       197.0535       197.0535      -272.94577    
    325000   699.72982     -4885952        197.0535       197.0535       197.0535      -213.05864    
    326000   700.08227     -4885951.5      197.0535       197.0535       197.0535      -183.18771    
    327000   699.4763      -4885986.4      197.0535       197.0535       197.0535      -216.96998    
    328000   701.92383     -4885986.2      197.0535       197.0535       197.0535      -238.75416    
    329000   699.6925      -4885984.4      197.0535       197.0535       197.0535      -291.11564    
    330000   698.85911     -4886066.4      197.0535       197.0535       197.0535      -230.51392    
    331000   699.95961     -4885996.6      197.0535       197.0535       197.0535      -219.58959    
    332000   701.25116     -4885917.6      197.0535       197.0535       197.0535      -286.35616    
    333000   699.7341      -4885968.8      197.0535       197.0535       197.0535      -61.75396     
    334000   699.62106     -4885958.5      197.0535       197.0535       197.0535      -259.66436    
    335000   701.32379     -4885905.6      197.0535       197.0535       197.0535      -292.85264    
    336000   700.69385     -4886025.8      197.0535       197.0535       197.0535      -413.95341    
    337000   699.15234     -4886061.2      197.0535       197.0535       197.0535      -277.70498    
    338000   698.36268     -4886112.8      197.0535       197.0535       197.0535      -285.42612    
    339000   700.4664      -4885965.2      197.0535       197.0535       197.0535      -288.69684    
    340000   700.90213     -4885958        197.0535       197.0535       197.0535      -156.62333    
    341000   700.46669     -4886003.8      197.0535       197.0535       197.0535      -386.46172    
    342000   700.8095      -4885943.1      197.0535       197.0535       197.0535      -472.42831    
    343000   700.68523     -4885966.9      197.0535       197.0535       197.0535      -447.70782    
    344000   699.93329     -4885900        197.0535       197.0535       197.0535      -310.94895    
    345000   700.77642     -4885961.9      197.0535       197.0535       197.0535      -351.11663    
    346000   699.6623      -4886043.2      197.0535       197.0535       197.0535      -353.70622    
    347000   700.53025     -4885889.8      197.0535       197.0535       197.0535      -269.21284    
    348000   699.74155     -4885964.9      197.0535       197.0535       197.0535      -231.67287    
    349000   700.65595     -4885854.3      197.0535       197.0535       197.0535      -213.87383    
    350000   699.05768     -4885970.7      197.0535       197.0535       197.0535      -320.31259    
    351000   700.7157      -4885906        197.0535       197.0535       197.0535      -331.90845    
    352000   699.51344     -4886021        197.0535       197.0535       197.0535      -313.11459    
    353000   699.20333     -4886096.5      197.0535       197.0535       197.0535      -182.3241     
    354000   700.12381     -4886006.9      197.0535       197.0535       197.0535      -366.89438    
    355000   701.44737     -4885962.5      197.0535       197.0535       197.0535      -267.66175    
    356000   699.71864     -4885985.5      197.0535       197.0535       197.0535      -265.44005    
    357000   700.13        -4885904.7      197.0535       197.0535       197.0535      -239.81515    
    358000   699.5644      -4886006.9      197.0535       197.0535       197.0535      -220.12707    
    359000   699.05407     -4886033.5      197.0535       197.0535       197.0535      -222.60575    
    360000   700.6251      -4885861.7      197.0535       197.0535       197.0535      -386.70312    
    361000   699.92422     -4885900.2      197.0535       197.0535       197.0535      -338.89744    
    362000   699.84303     -4885976.3      197.0535       197.0535       197.0535      -363.35799    
    363000   700.89695     -4885944.1      197.0535       197.0535       197.0535      -473.17075    
    364000   700.4818      -4885893.4      197.0535       197.0535       197.0535      -369.42241    
    365000   701.35349     -4885860.8      197.0535       197.0535       197.0535      -263.16564    
    366000   701.21662     -4885856.3      197.0535       197.0535       197.0535      -172.87355    
    367000   700.04833     -4886010        197.0535       197.0535       197.0535      -360.64001    
    368000   700.65111     -4885930.2      197.0535       197.0535       197.0535      -353.64052    
    369000   700.07132     -4886045.5      197.0535       197.0535       197.0535      -219.03707    
    370000   699.61893     -4886000.7      197.0535       197.0535       197.0535      -292.15498    
    371000   697.89834     -4886013.3      197.0535       197.0535       197.0535      -269.73278    
    372000   701.84659     -4885881.8      197.0535       197.0535       197.0535      -379.91242    
    373000   699.08072     -4885980.8      197.0535       197.0535       197.0535      -161.41486    
    374000   701.03354     -4885857        197.0535       197.0535       197.0535      -249.73422    
    375000   699.33273     -4886052.1      197.0535       197.0535       197.0535      -360.37779    
    376000   701.01861     -4885891.2      197.0535       197.0535       197.0535      -347.40565    
    377000   699.31797     -4886071.6      197.0535       197.0535       197.0535      -338.89659    
    378000   698.48345     -4886071.9      197.0535       197.0535       197.0535      -301.40613    
    379000   699.75938     -4886041.4      197.0535       197.0535       197.0535      -190.88194    
    380000   699.21894     -4886157.1      197.0535       197.0535       197.0535      -333.12602    
    381000   700.16053     -4886031.2      197.0535       197.0535       197.0535      -199.55651    
    382000   700.18698     -4886093.5      197.0535       197.0535       197.0535      -360.53975    
    383000   699.41397     -4886070        197.0535       197.0535       197.0535      -285.4414     
    384000   700.41057     -4886006.3      197.0535       197.0535       197.0535      -224.39671    
    385000   699.38109     -4886009.5      197.0535       197.0535       197.0535      -307.54184    
    386000   698.04227     -4886110.3      197.0535       197.0535       197.0535      -259.2481     
    387000   700.91112     -4885929.8      197.0535       197.0535       197.0535      -367.58101    
    388000   700.33571     -4885884.1      197.0535       197.0535       197.0535      -350.021      
    389000   699.59875     -4886079.1      197.0535       197.0535       197.0535      -310.66737    
    390000   699.29045     -4885965.3      197.0535       197.0535       197.0535      -240.0653     
    391000   701.1897      -4885863.4      197.0535       197.0535       197.0535      -219.48999    
    392000   698.9972      -4885948.3      197.0535       197.0535       197.0535      -312.56897    
    393000   699.77487     -4886048.6      197.0535       197.0535       197.0535      -292.32109    
    394000   700.1844      -4885994.8      197.0535       197.0535       197.0535      -333.74795    
    395000   699.70545     -4885929.7      197.0535       197.0535       197.0535      -318.06039    
    396000   700.00355     -4885946        197.0535       197.0535       197.0535      -243.69867    
    397000   698.22331     -4886183.1      197.0535       197.0535       197.0535      -316.11207    
    398000   698.56856     -4886069.3      197.0535       197.0535       197.0535      -205.43109    
    399000   699.49296     -4885997        197.0535       197.0535       197.0535      -391.77454    
    400000   700.82753     -4885892.6      197.0535       197.0535       197.0535      -434.47557    
    401000   700.27014     -4885990.7      197.0535       197.0535       197.0535      -325.01823    
    402000   700.5876      -4885945.3      197.0535       197.0535       197.0535      -259.23811    
    403000   698.45852     -4886053.2      197.0535       197.0535       197.0535      -290.16482    
    404000   700.01999     -4885928.3      197.0535       197.0535       197.0535      -273.63723    
    405000   699.73296     -4886022.8      197.0535       197.0535       197.0535      -215.05283    
    406000   699.83116     -4885890        197.0535       197.0535       197.0535      -209.73982    
    407000   699.52927     -4886004.6      197.0535       197.0535       197.0535      -375.237      
    408000   701.39517     -4885836.7      197.0535       197.0535       197.0535      -131.42643    
    409000   699.52112     -4885993.3      197.0535       197.0535       197.0535      -225.97649    
    410000   700.82005     -4885934.8      197.0535       197.0535       197.0535      -243.53928    
    411000   699.17626     -4886038.6      197.0535       197.0535       197.0535      -215.9886     
    412000   700.07781     -4885958.9      197.0535       197.0535       197.0535      -242.80185    
    413000   701.37103     -4885909.6      197.0535       197.0535       197.0535      -211.6184     
    414000   701.24418     -4885979.6      197.0535       197.0535       197.0535      -256.55298    
    415000   700.24414     -4885890.7      197.0535       197.0535       197.0535      -220.23888    
    416000   700.09656     -4885951.1      197.0535       197.0535       197.0535      -230.35515    
    417000   698.79772     -4886067.3      197.0535       197.0535       197.0535      -289.10773    
    418000   699.89885     -4885990.2      197.0535       197.0535       197.0535      -249.67377    
    419000   697.00845     -4886078.3      197.0535       197.0535       197.0535      -276.99655    
    420000   700.9215      -4885897.7      197.0535       197.0535       197.0535      -409.82244    
    421000   700.3219      -4885902.3      197.0535       197.0535       197.0535      -345.31792    
    422000   702.20391     -4885866.4      197.0535       197.0535       197.0535      -286.76595    
    423000   700.62356     -4885994.1      197.0535       197.0535       197.0535      -434.88453    
    424000   699.48139     -4886052.2      197.0535       197.0535       197.0535      -512.97205    
    425000   697.87704     -4886073.4      197.0535       197.0535       197.0535      -392.60511    
    426000   700.08629     -4885973.9      197.0535       197.0535       197.0535      -309.04668    
    427000   699.82546     -4885931.9      197.0535       197.0535       197.0535      -374.1793     
    428000   700.24874     -4885991.1      197.0535       197.0535       197.0535      -298.73615    
    429000   700.17087     -4886028.9      197.0535       197.0535       197.0535      -321.03219    
    430000   699.54248     -4885959.7      197.0535       197.0535       197.0535      -226.47336    
    431000   698.74977     -4886084.9      197.0535       197.0535       197.0535      -129.65519    
    432000   700.83367     -4885920.9      197.0535       197.0535       197.0535      -337.04737    
    433000   700.01781     -4885986.3      197.0535       197.0535       197.0535      -320.44315    
    434000   698.67806     -4886120        197.0535       197.0535       197.0535      -186.48179    
    435000   699.37881     -4885993.1      197.0535       197.0535       197.0535      -271.91347    
    436000   699.46257     -4886016.7      197.0535       197.0535       197.0535      -284.90254    
    437000   700.13869     -4885992.2      197.0535       197.0535       197.0535      -273.18363    
    438000   699.99233     -4886037.6      197.0535       197.0535       197.0535      -332.61622    
    439000   700.3768      -4886030.1      197.0535       197.0535       197.0535      -296.44599    
    440000   699.73891     -4886066.1      197.0535       197.0535       197.0535      -364.40611    
    441000   700.67961     -4885960.8      197.0535       197.0535       197.0535      -303.05848    
    442000   700.45877     -4885892.6      197.0535       197.0535       197.0535      -210.804      
    443000   699.71298     -4885977.2      197.0535       197.0535       197.0535      -228.19232    
    444000   700.05182     -4885978.3      197.0535       197.0535       197.0535      -230.39545    
    445000   698.63271     -4886120.9      197.0535       197.0535       197.0535      -164.50296    
    446000   699.09862     -4886038.2      197.0535       197.0535       197.0535      -300.69388    
    447000   700.95152     -4885873.2      197.0535       197.0535       197.0535      -268.95947    
    448000   699.75234     -4885980.3      197.0535       197.0535       197.0535      -291.87705    
    449000   699.44519     -4886011.4      197.0535       197.0535       197.0535      -326.57583    
    450000   699.26888     -4886107.6      197.0535       197.0535       197.0535      -282.06829    
    451000   699.54363     -4886069.9      197.0535       197.0535       197.0535      -329.33595    
    452000   700.08646     -4886016.9      197.0535       197.0535       197.0535      -231.26191    
    453000   699.08673     -4886056.5      197.0535       197.0535       197.0535      -401.61215    
    454000   699.54314     -4886098.1      197.0535       197.0535       197.0535      -313.68647    
    455000   700.87713     -4885984.3      197.0535       197.0535       197.0535      -365.18351    
    456000   700.12486     -4885985.3      197.0535       197.0535       197.0535      -297.45817    
    457000   698.76127     -4886108.2      197.0535       197.0535       197.0535      -357.53435    
    458000   700.10512     -4886034.5      197.0535       197.0535       197.0535      -272.85524    
    459000   699.09506     -4886012.4      197.0535       197.0535       197.0535      -175.33766    
    460000   699.93939     -4885938.7      197.0535       197.0535       197.0535      -247.53208    
    461000   700.74855     -4885978.5      197.0535       197.0535       197.0535      -240.83624    
    462000   700.2333      -4885958.5      197.0535       197.0535       197.0535      -302.49869    
    463000   699.16827     -4886004.2      197.0535       197.0535       197.0535      -196.62706    
    464000   700.35956     -4886028.1      197.0535       197.0535       197.0535      -272.32518    
    465000   698.62559     -4886103.1      197.0535       197.0535       197.0535      -292.47917    
    466000   701.23358     -4885968.5      197.0535       197.0535       197.0535      -357.04369    
    467000   699.3827      -4886047.6      197.0535       197.0535       197.0535      -416.03108    
    468000   698.69652     -4886054.5      197.0535       197.0535       197.0535      -356.35336    
    469000   699.66233     -4885925.9      197.0535       197.0535       197.0535      -348.29123    
    470000   700.97939     -4885963.6      197.0535       197.0535       197.0535      -346.03269    
    471000   698.31605     -4886086        197.0535       197.0535       197.0535      -267.80473    
    472000   700.39274     -4886033.4      197.0535       197.0535       197.0535      -285.72952    
    473000   699.36921     -4885993.9      197.0535       197.0535       197.0535      -339.25096    
    474000   700.72548     -4885855.8      197.0535       197.0535       197.0535      -401.07689    
    475000   700.18202     -4885995.7      197.0535       197.0535       197.0535      -389.17467    
    476000   699.85868     -4886060.5      197.0535       197.0535       197.0535      -523.98153    
    477000   699.6896      -4886113.8      197.0535       197.0535       197.0535      -359.3184     
    478000   699.55226     -4885968.3      197.0535       197.0535       197.0535      -303.42665    
    479000   700.59168     -4885961.3      197.0535       197.0535       197.0535      -371.3294     
    480000   700.96096     -4885954.4      197.0535       197.0535       197.0535      -384.69018    
    481000   699.83146     -4886006.6      197.0535       197.0535       197.0535      -364.62371    
    482000   700.1491      -4885997        197.0535       197.0535       197.0535      -249.77057    
    483000   701.19347     -4885880.6      197.0535       197.0535       197.0535      -347.8296     
    484000   699.72635     -4885975.9      197.0535       197.0535       197.0535      -257.73276    
    485000   700.39344     -4886073.3      197.0535       197.0535       197.0535      -423.15283    
    486000   699.94494     -4885987.9      197.0535       197.0535       197.0535      -320.08653    
    487000   699.95579     -4885959.8      197.0535       197.0535       197.0535      -206.07782    
    488000   699.3671      -4885944.4      197.0535       197.0535       197.0535      -318.06657    
    489000   700.83222     -4885922.7      197.0535       197.0535       197.0535      -422.22917    
    490000   701.09918     -4885920.9      197.0535       197.0535       197.0535      -355.14352    
    491000   699.13336     -4886065.3      197.0535       197.0535       197.0535      -427.55705    
    492000   700.2662      -4886015.3      197.0535       197.0535       197.0535      -267.30099    
    493000   699.81891     -4886016.3      197.0535       197.0535       197.0535      -301.77969    
    494000   700.81949     -4885908.7      197.0535       197.0535       197.0535      -161.74736    
    495000   699.47563     -4886018.3      197.0535       197.0535       197.0535      -178.71817    
    496000   700.43689     -4885982        197.0535       197.0535       197.0535      -169.6233     
    497000   701.14517     -4885975.2      197.0535       197.0535       197.0535      -324.04066    
    498000   700.4321      -4885958.9      197.0535       197.0535       197.0535      -86.101458    
    499000   699.06175     -4886071.1      197.0535       197.0535       197.0535      -217.2591     
    500000   700.61479     -4885978.7      197.0535       197.0535       197.0535      -243.29023    
    501000   700.17101     -4886016.3      197.0535       197.0535       197.0535      -362.10267    
    502000   699.97324     -4886028.7      197.0535       197.0535       197.0535      -282.16194    
    503000   699.13001     -4886159.9      197.0535       197.0535       197.0535      -381.38704    
    504000   699.58621     -4885970        197.0535       197.0535       197.0535      -112.20717    
    505000   700.13607     -4886082.7      197.0535       197.0535       197.0535      -466.46147    
    506000   699.3244      -4886113.1      197.0535       197.0535       197.0535      -295.53967    
    507000   698.49006     -4886111.4      197.0535       197.0535       197.0535      -276.66291    
    508000   700.37459     -4886146.7      197.0535       197.0535       197.0535      -289.81754    
    509000   700.46813     -4885955.7      197.0535       197.0535       197.0535      -105.26305    
    510000   699.75792     -4886019.5      197.0535       197.0535       197.0535      -356.49437    
    511000   699.00741     -4886095.6      197.0535       197.0535       197.0535      -340.01143    
    512000   700.73576     -4885907.6      197.0535       197.0535       197.0535      -224.91471    
    513000   698.78631     -4886120.9      197.0535       197.0535       197.0535      -361.47436    
    514000   699.33218     -4886014        197.0535       197.0535       197.0535      -252.022      
    515000   699.09767     -4886135.3      197.0535       197.0535       197.0535      -305.42205    
    516000   700.88356     -4885850.5      197.0535       197.0535       197.0535      -292.53372    
    517000   699.91333     -4885917        197.0535       197.0535       197.0535      -253.778      
    518000   700.83642     -4885886.5      197.0535       197.0535       197.0535      -214.96738    
    519000   699.53761     -4886072.3      197.0535       197.0535       197.0535      -408.44631    
    520000   699.30735     -4886074.1      197.0535       197.0535       197.0535      -226.19816    
    521000   700.68833     -4885965        197.0535       197.0535       197.0535      -220.61229    
    522000   699.44047     -4886017.7      197.0535       197.0535       197.0535      -265.64472    
    523000   701.49227     -4885909.6      197.0535       197.0535       197.0535      -222.72273    
    524000   700.08532     -4886021.2      197.0535       197.0535       197.0535      -297.19669    
    525000   700.64873     -4885962.6      197.0535       197.0535       197.0535      -319.54086    
    526000   700.03282     -4886017.3      197.0535       197.0535       197.0535      -321.39478    
    527000   700.12061     -4886006.2      197.0535       197.0535       197.0535      -346.87685    
    528000   701.59794     -4885939.2      197.0535       197.0535       197.0535      -306.82595    
    529000   699.6408      -4886075.7      197.0535       197.0535       197.0535      -455.42734    
    530000   700.78368     -4885953.4      197.0535       197.0535       197.0535      -404.62243    
    531000   699.74286     -4886004.5      197.0535       197.0535       197.0535      -350.5281     
    532000   699.96332     -4885937.8      197.0535       197.0535       197.0535      -217.12439    
    533000   701.02834     -4885949.2      197.0535       197.0535       197.0535      -122.31686    
    534000   698.80594     -4886014.4      197.0535       197.0535       197.0535      -148.51053    
    535000   700.3752      -4885999.8      197.0535       197.0535       197.0535      -310.09097    
    536000   700.10402     -4885986.4      197.0535       197.0535       197.0535      -224.56057    
    537000   700.1294      -4885964.9      197.0535       197.0535       197.0535      -307.20025    
    538000   699.67569     -4886041.4      197.0535       197.0535       197.0535      -274.33889    
    539000   701.47173     -4885912.8      197.0535       197.0535       197.0535      -302.14333    
    540000   700.92591     -4885994.1      197.0535       197.0535       197.0535      -274.06633    
    541000   700.57994     -4885953        197.0535       197.0535       197.0535      -311.01792    
    542000   700.07949     -4886011.7      197.0535       197.0535       197.0535      -298.87506    
    543000   701.44919     -4885957        197.0535       197.0535       197.0535      -248.24388    
    544000   699.96819     -4886043.8      197.0535       197.0535       197.0535      -353.74301    
    545000   699.98231     -4886022.8      197.0535       197.0535       197.0535      -346.99848    
    546000   700.45215     -4885873.5      197.0535       197.0535       197.0535      -249.57318    
    547000   698.61412     -4886125.6      197.0535       197.0535       197.0535      -331.7387     
    548000   698.4806      -4886004.2      197.0535       197.0535       197.0535      -266.88025    
    549000   701.20803     -4885924.9      197.0535       197.0535       197.0535      -473.6083     
    550000   699.14326     -4886069.9      197.0535       197.0535       197.0535      -365.79213    
    551000   700.54645     -4885962.1      197.0535       197.0535       197.0535      -370.12536    
    552000   699.33191     -4885950.1      197.0535       197.0535       197.0535      -313.42828    
    553000   700.40749     -4885903.9      197.0535       197.0535       197.0535      -148.35365    
    554000   701.33248     -4885932.6      197.0535       197.0535       197.0535      -209.09663    
    555000   699.66483     -4886063.5      197.0535       197.0535       197.0535      -194.42044    
    556000   700.03118     -4886042.9      197.0535       197.0535       197.0535      -462.02392    
    557000   699.63374     -4886004.2      197.0535       197.0535       197.0535      -179.59331    
    558000   698.70318     -4886118.3      197.0535       197.0535       197.0535      -397.35408    
    559000   700.44843     -4885981        197.0535       197.0535       197.0535      -228.41327    
    560000   699.12095     -4886042.2      197.0535       197.0535       197.0535      -330.92818    
    561000   699.21185     -4886101.1      197.0535       197.0535       197.0535      -481.59456    
    562000   700.46806     -4885942.9      197.0535       197.0535       197.0535      -270.54479    
    563000   700.52513     -4885986.8      197.0535       197.0535       197.0535      -461.89625    
    564000   700.10435     -4885971.7      197.0535       197.0535       197.0535      -335.02415    
    565000   699.79702     -4885936.8      197.0535       197.0535       197.0535      -413.82458    
    566000   700.99806     -4886052.8      197.0535       197.0535       197.0535      -509.55284    
    567000   700.26658     -4885931        197.0535       197.0535       197.0535      -303.09848    
    568000   701.01351     -4885911.9      197.0535       197.0535       197.0535      -254.84596    
    569000   700.09817     -4886003.3      197.0535       197.0535       197.0535      -260.0842     
    570000   699.68011     -4885965.3      197.0535       197.0535       197.0535      -407.4749     
    571000   701.38996     -4885941        197.0535       197.0535       197.0535      -481.79597    
    572000   698.41394     -4886105.6      197.0535       197.0535       197.0535      -410.58026    
    573000   699.27052     -4886092.3      197.0535       197.0535       197.0535      -255.95221    
    574000   700.66165     -4885958.2      197.0535       197.0535       197.0535      -357.88563    
    575000   700.00849     -4886098.7      197.0535       197.0535       197.0535      -332.30073    
    576000   699.15797     -4886163        197.0535       197.0535       197.0535      -315.01006    
    577000   699.23753     -4886026.4      197.0535       197.0535       197.0535      -244.14519    
    578000   698.74999     -4886042.6      197.0535       197.0535       197.0535      -293.85292    
    579000   699.16546     -4886094.2      197.0535       197.0535       197.0535      -317.51759    
    580000   700.62909     -4885994        197.0535       197.0535       197.0535      -299.9725     
    581000   699.19426     -4886037.8      197.0535       197.0535       197.0535      -318.03081    
    582000   701.09735     -4885932.8      197.0535       197.0535       197.0535      -278.70808    
    583000   699.1505      -4886094.2      197.0535       197.0535       197.0535      -308.7634     
    584000   700.9455      -4885961.5      197.0535       197.0535       197.0535      -312.42108    
    585000   700.52072     -4885980.9      197.0535       197.0535       197.0535      -350.92116    
    586000   699.83696     -4886037        197.0535       197.0535       197.0535      -343.03127    
    587000   699.2316      -4886100.2      197.0535       197.0535       197.0535      -328.45733    
    588000   701.38953     -4885982.5      197.0535       197.0535       197.0535      -333.96825    
    589000   699.66578     -4886085.9      197.0535       197.0535       197.0535      -287.09144    
    590000   698.65962     -4886008.4      197.0535       197.0535       197.0535      -388.14564    
    591000   700.0209      -4886001.4      197.0535       197.0535       197.0535      -214.95497    
    592000   700.36185     -4885936.6      197.0535       197.0535       197.0535      -270.78041    
    593000   699.29006     -4886002.4      197.0535       197.0535       197.0535      -263.87974    
    594000   700.71126     -4886038        197.0535       197.0535       197.0535      -269.84732    
    595000   700.70923     -4885989.9      197.0535       197.0535       197.0535      -111.02203    
    596000   700.51601     -4886034.4      197.0535       197.0535       197.0535      -276.13608    
    597000   698.97801     -4886052.3      197.0535       197.0535       197.0535      -307.544      
    598000   700.7576      -4885978.3      197.0535       197.0535       197.0535      -277.05873    
    599000   700.24487     -4886047.4      197.0535       197.0535       197.0535      -288.38809    
    600000   699.12701     -4886061.7      197.0535       197.0535       197.0535      -337.77292    
    601000   701.63232     -4885953.3      197.0535       197.0535       197.0535      -333.8751     
    602000   700.59983     -4885933.2      197.0535       197.0535       197.0535      -309.11551    
    603000   700.73189     -4885955.9      197.0535       197.0535       197.0535      -317.93209    
    604000   699.49996     -4886005.3      197.0535       197.0535       197.0535      -397.70128    
    605000   701.13841     -4885938.3      197.0535       197.0535       197.0535      -227.35418    
    606000   700.35638     -4885997.3      197.0535       197.0535       197.0535      -294.29988    
    607000   700.28262     -4885929        197.0535       197.0535       197.0535      -333.14265    
    608000   700.51433     -4885999.5      197.0535       197.0535       197.0535      -427.87074    
    609000   700.36914     -4886019.5      197.0535       197.0535       197.0535      -351.30851    
    610000   699.13777     -4886066        197.0535       197.0535       197.0535      -273.4355     
    611000   699.12661     -4886070.2      197.0535       197.0535       197.0535      -342.71969    
    612000   700.42739     -4885972.2      197.0535       197.0535       197.0535      -229.34384    
    613000   699.95912     -4886046.4      197.0535       197.0535       197.0535      -283.9109     
    614000   699.78044     -4886015.9      197.0535       197.0535       197.0535      -299.43037    
    615000   699.7268      -4886009.2      197.0535       197.0535       197.0535      -221.18176    
    616000   699.62189     -4886072.2      197.0535       197.0535       197.0535      -240.66822    
    617000   702.28351     -4885921.8      197.0535       197.0535       197.0535      -401.57486    
    618000   700.05987     -4886006.8      197.0535       197.0535       197.0535      -274.30828    
    619000   699.85852     -4886093        197.0535       197.0535       197.0535      -322.45655    
    620000   700.45589     -4885878        197.0535       197.0535       197.0535      -362.6374     
    621000   701.57457     -4885933.8      197.0535       197.0535       197.0535      -359.99283    
    622000   699.79083     -4886080.7      197.0535       197.0535       197.0535      -398.61687    
    623000   700.17096     -4886013.5      197.0535       197.0535       197.0535      -274.9187     
    624000   701.95837     -4885876        197.0535       197.0535       197.0535      -431.33715    
    625000   700.49973     -4885920.6      197.0535       197.0535       197.0535      -357.91078    
    626000   701.86562     -4885887.7      197.0535       197.0535       197.0535      -337.84626    
    627000   699.13778     -4886143.4      197.0535       197.0535       197.0535      -446.15794    
    628000   699.47731     -4886032.1      197.0535       197.0535       197.0535      -200.9529     
    629000   699.80014     -4885953.9      197.0535       197.0535       197.0535      -351.90102    
    630000   700.45724     -4886028.9      197.0535       197.0535       197.0535      -280.72223    
    631000   699.58839     -4886099.2      197.0535       197.0535       197.0535      -398.47385    
    632000   699.24743     -4886071.4      197.0535       197.0535       197.0535      -261.65232    
    633000   699.31113     -4886020.5      197.0535       197.0535       197.0535      -151.20837    
    634000   699.80551     -4886034.1      197.0535       197.0535       197.0535      -397.14476    
    635000   699.15005     -4886107.2      197.0535       197.0535       197.0535      -337.79183    
    636000   699.77889     -4886015.9      197.0535       197.0535       197.0535      -205.26423    
    637000   700.61351     -4885951.2      197.0535       197.0535       197.0535      -372.53719    
    638000   701.65303     -4885889.9      197.0535       197.0535       197.0535      -367.79292    
    639000   700.45075     -4886005.6      197.0535       197.0535       197.0535      -382.66976    
    640000   699.74278     -4886019.7      197.0535       197.0535       197.0535      -281.02958    
    641000   699.07008     -4886029.3      197.0535       197.0535       197.0535      -278.80835    
    642000   700.9493      -4885967        197.0535       197.0535       197.0535      -349.0941     
    643000   700.21586     -4885986.8      197.0535       197.0535       197.0535      -350.99747    
    644000   698.69636     -4886021.1      197.0535       197.0535       197.0535      -289.04842    
    645000   699.23551     -4886115.4      197.0535       197.0535       197.0535      -76.316517    
    646000   700.73596     -4885982.9      197.0535       197.0535       197.0535      -179.2546     
    647000   700.308       -4886032.3      197.0535       197.0535       197.0535      -191.34218    
    648000   699.47393     -4886051.4      197.0535       197.0535       197.0535      -270.24977    
    649000   699.85468     -4886112.6      197.0535       197.0535       197.0535      -235.26619    
    650000   699.40058     -4886069.6      197.0535       197.0535       197.0535      -181.78688    
    651000   699.54772     -4886102.5      197.0535       197.0535       197.0535      -201.75418    
    652000   699.13783     -4886142.3      197.0535       197.0535       197.0535      -397.20574    
    653000   698.76249     -4886104.2      197.0535       197.0535       197.0535      -363.90621    
    654000   698.67538     -4886065.1      197.0535       197.0535       197.0535      -191.68359    
    655000   701.64575     -4885976.5      197.0535       197.0535       197.0535      -316.09464    
    656000   699.75258     -4886026.7      197.0535       197.0535       197.0535      -293.07088    
    657000   700.40148     -4886042.8      197.0535       197.0535       197.0535      -180.64793    
    658000   700.95201     -4885946.7      197.0535       197.0535       197.0535      -309.22852    
    659000   699.05822     -4886102.1      197.0535       197.0535       197.0535      -283.2541     
    660000   702.06547     -4885870.9      197.0535       197.0535       197.0535      -159.46213    
    661000   699.8881      -4886011.3      197.0535       197.0535       197.0535      -50.333235    
    662000   699.24444     -4885960.7      197.0535       197.0535       197.0535      -260.27208    
    663000   700.64623     -4886031.6      197.0535       197.0535       197.0535      -382.35221    
    664000   699.56071     -4886045.3      197.0535       197.0535       197.0535      -281.64008    
    665000   699.21434     -4886006.8      197.0535       197.0535       197.0535      -121.94364    
    666000   699.679       -4885988.9      197.0535       197.0535       197.0535      -184.71237    
    667000   700.43763     -4886046.8      197.0535       197.0535       197.0535      -359.83131    
    668000   700.4947      -4885949.9      197.0535       197.0535       197.0535      -214.45165    
    669000   699.25046     -4886147.8      197.0535       197.0535       197.0535      -333.42293    
    670000   698.83312     -4886172.8      197.0535       197.0535       197.0535      -396.32053    
    671000   698.85876     -4886117.7      197.0535       197.0535       197.0535      -240.55666    
    672000   698.44474     -4886091.5      197.0535       197.0535       197.0535      -280.74011    
    673000   700.39371     -4885993.2      197.0535       197.0535       197.0535      -284.22487    
    674000   699.35199     -4886034.6      197.0535       197.0535       197.0535      -301.66775    
    675000   699.75336     -4886059.1      197.0535       197.0535       197.0535      -261.28897    
    676000   700.40708     -4886034.3      197.0535       197.0535       197.0535      -210.46306    
    677000   700.87325     -4885898.6      197.0535       197.0535       197.0535      -189.84352    
    678000   701.04489     -4886002.5      197.0535       197.0535       197.0535      -264.32835    
    679000   699.80534     -4885968.7      197.0535       197.0535       197.0535      -353.58231    
    680000   699.8994      -4886070.1      197.0535       197.0535       197.0535      -394.45031    
    681000   699.66756     -4886028.6      197.0535       197.0535       197.0535      -388.95866    
    682000   701.69659     -4885952.5      197.0535       197.0535       197.0535      -319.0706     
    683000   698.0867      -4886156.2      197.0535       197.0535       197.0535      -452.84358    
    684000   700.21218     -4886059.2      197.0535       197.0535       197.0535      -316.32396    
    685000   700.7086      -4886030.3      197.0535       197.0535       197.0535      -305.99099    
    686000   700.18482     -4886052        197.0535       197.0535       197.0535      -392.67705    
    687000   700.03186     -4885926.7      197.0535       197.0535       197.0535      -299.39228    
    688000   700.54795     -4886073.3      197.0535       197.0535       197.0535      -428.47653    
    689000   700.77385     -4885992.1      197.0535       197.0535       197.0535      -270.07385    
    690000   700.10146     -4886106        197.0535       197.0535       197.0535      -156.75823    
    691000   700.06387     -4886025.4      197.0535       197.0535       197.0535      -413.26994    
    692000   699.29379     -4886040.6      197.0535       197.0535       197.0535      -203.19819    
    693000   701.20405     -4885978.1      197.0535       197.0535       197.0535      -280.99767    
    694000   702.28587     -4885943.6      197.0535       197.0535       197.0535      -341.47709    
    695000   700.71955     -4886027.3      197.0535       197.0535       197.0535      -310.89453    
    696000   700.17417     -4886038.3      197.0535       197.0535       197.0535      -393.89544    
    697000   698.28137     -4886074.8      197.0535       197.0535       197.0535      -305.58694    
    698000   699.99336     -4886000.9      197.0535       197.0535       197.0535      -362.19901    
    699000   699.81899     -4886067.2      197.0535       197.0535       197.0535      -361.87092    
    700000   699.9729      -4885986.8      197.0535       197.0535       197.0535      -298.33258    
    701000   700.25629     -4886045.4      197.0535       197.0535       197.0535      -395.26983    
    702000   699.40603     -4886057.2      197.0535       197.0535       197.0535      -352.32385    
    703000   698.61907     -4886138.7      197.0535       197.0535       197.0535      -517.43258    
    704000   701.98032     -4885937.2      197.0535       197.0535       197.0535      -153.61207    
    705000   700.28449     -4886061.2      197.0535       197.0535       197.0535      -389.81452    
    706000   698.85464     -4886096.7      197.0535       197.0535       197.0535      -407.12778    
    707000   698.65879     -4886162        197.0535       197.0535       197.0535      -400.68044    
    708000   699.18455     -4886118.2      197.0535       197.0535       197.0535      -475.15071    
    709000   700.6472      -4886058.8      197.0535       197.0535       197.0535      -399.03791    
    710000   701.52917     -4886051.3      197.0535       197.0535       197.0535      -157.4422     
    711000   699.66528     -4886049.3      197.0535       197.0535       197.0535      -379.57901    
    712000   700.70232     -4885986.5      197.0535       197.0535       197.0535      -265.92327    
    713000   701.03253     -4885968.9      197.0535       197.0535       197.0535      -316.16096    
    714000   700.22766     -4886059.2      197.0535       197.0535       197.0535      -355.75833    
    715000   699.4051      -4886114.8      197.0535       197.0535       197.0535      -395.80715    
    716000   700.22067     -4885954.7      197.0535       197.0535       197.0535      -324.4443     
    717000   699.01235     -4886210.3      197.0535       197.0535       197.0535      -233.78262    
    718000   700.39568     -4886047.6      197.0535       197.0535       197.0535      -238.08466    
    719000   701.31402     -4885909        197.0535       197.0535       197.0535      -346.91129    
    720000   701.38624     -4885955.6      197.0535       197.0535       197.0535      -448.50924    
    721000   700.37955     -4885940.9      197.0535       197.0535       197.0535      -351.58575    
    722000   700.0695      -4885957.2      197.0535       197.0535       197.0535      -187.0045     
    723000   699.69727     -4886142.2      197.0535       197.0535       197.0535      -264.9085     
    724000   700.12321     -4885989.7      197.0535       197.0535       197.0535      -135.93636    
    725000   699.58531     -4886044.3      197.0535       197.0535       197.0535      -312.69348    
    726000   699.90416     -4886125        197.0535       197.0535       197.0535      -387.95959    
    727000   700.65638     -4885939.5      197.0535       197.0535       197.0535      -357.05139    
    728000   700.79695     -4886002.7      197.0535       197.0535       197.0535      -234.20698    
    729000   698.50275     -4886129.7      197.0535       197.0535       197.0535      -327.61869    
    730000   700.41425     -4886018        197.0535       197.0535       197.0535      -212.74383    
    731000   699.42861     -4886195.5      197.0535       197.0535       197.0535      -305.97537    
    732000   701.11102     -4885950.7      197.0535       197.0535       197.0535      -343.3516     
    733000   701.48526     -4885980.9      197.0535       197.0535       197.0535      -243.21945    
    734000   700.44628     -4885923.8      197.0535       197.0535       197.0535      -209.45086    
    735000   700.59061     -4886076.5      197.0535       197.0535       197.0535      -256.37005    
    736000   700.07495     -4886062.3      197.0535       197.0535       197.0535      -420.45782    
    737000   700.54283     -4886031.7      197.0535       197.0535       197.0535      -320.27925    
    738000   699.02641     -4886181        197.0535       197.0535       197.0535      -378.16979    
    739000   699.45058     -4885993.4      197.0535       197.0535       197.0535      -272.20042    
    740000   698.88973     -4886149        197.0535       197.0535       197.0535      -327.59921    
    741000   700.75502     -4885930.8      197.0535       197.0535       197.0535      -280.59559    
    742000   700.4327      -4886050.7      197.0535       197.0535       197.0535      -306.70445    
    743000   701.0546      -4885958.3      197.0535       197.0535       197.0535      -393.70344    
    744000   700.6153      -4886008        197.0535       197.0535       197.0535      -278.60082    
    745000   699.66374     -4886013.7      197.0535       197.0535       197.0535      -337.34604    
    746000   700.95088     -4885967.1      197.0535       197.0535       197.0535      -404.90305    
    747000   701.08566     -4885991.9      197.0535       197.0535       197.0535      -437.82394    
    748000   700.2768      -4885946.5      197.0535       197.0535       197.0535      -371.4878     
    749000   699.75387     -4885935.1      197.0535       197.0535       197.0535      -334.11148    
    750000   699.28692     -4886049        197.0535       197.0535       197.0535      -376.54033    
    751000   700.27778     -4886015.2      197.0535       197.0535       197.0535      -311.20655    
    752000   698.92592     -4886060.5      197.0535       197.0535       197.0535      -222.35527    
    753000   699.85266     -4886091.8      197.0535       197.0535       197.0535      -290.60192    
    754000   700.69602     -4885997.8      197.0535       197.0535       197.0535      -295.82767    
    755000   699.75394     -4886077.8      197.0535       197.0535       197.0535      -269.14533    
    756000   699.8262      -4886098.6      197.0535       197.0535       197.0535      -354.06711    
    757000   699.83574     -4886027        197.0535       197.0535       197.0535      -289.89635    
    758000   700.28174     -4886025        197.0535       197.0535       197.0535      -131.38617    
    759000   698.90152     -4886114.7      197.0535       197.0535       197.0535      -256.27027    
    760000   699.15569     -4886078.5      197.0535       197.0535       197.0535      -220.58211    
    761000   700.20017     -4886016.3      197.0535       197.0535       197.0535      -248.97593    
    762000   698.82894     -4886094.1      197.0535       197.0535       197.0535      -307.15275    
    763000   699.52075     -4886088.2      197.0535       197.0535       197.0535      -311.06707    
    764000   699.82031     -4886058.3      197.0535       197.0535       197.0535      -394.78115    
    765000   699.90474     -4886035.4      197.0535       197.0535       197.0535      -311.26594    
    766000   699.09753     -4886110.8      197.0535       197.0535       197.0535      -369.652      
    767000   700.76432     -4885961.3      197.0535       197.0535       197.0535      -252.28351    
    768000   699.83174     -4886060.1      197.0535       197.0535       197.0535      -318.33789    
    769000   700.63088     -4885936.2      197.0535       197.0535       197.0535      -340.34673    
    770000   699.86002     -4886031.7      197.0535       197.0535       197.0535      -293.28381    
    771000   699.20656     -4886027.1      197.0535       197.0535       197.0535      -187.3693     
    772000   700.47949     -4886041.4      197.0535       197.0535       197.0535      -233.57723    
    773000   700.29486     -4885977.3      197.0535       197.0535       197.0535      -240.96045    
    774000   700.02424     -4886090.8      197.0535       197.0535       197.0535      -288.54311    
    775000   699.31025     -4886137.8      197.0535       197.0535       197.0535      -299.34394    
    776000   700.83475     -4885972.6      197.0535       197.0535       197.0535      -336.14724    
    777000   700.79787     -4886012.6      197.0535       197.0535       197.0535      -272.99643    
    778000   700.34147     -4886017.3      197.0535       197.0535       197.0535      -266.55209    
    779000   699.43818     -4886115.8      197.0535       197.0535       197.0535      -222.42248    
    780000   699.75927     -4886023.3      197.0535       197.0535       197.0535      -194.45326    
    781000   700.38829     -4885920.4      197.0535       197.0535       197.0535      -150.7912     
    782000   699.09075     -4886169.1      197.0535       197.0535       197.0535      -361.52282    
    783000   702.34549     -4885881.3      197.0535       197.0535       197.0535      -179.71266    
    784000   700.44034     -4885996.3      197.0535       197.0535       197.0535      -203.18836    
    785000   699.39735     -4886075.4      197.0535       197.0535       197.0535      -330.32699    
    786000   700.15479     -4886119.8      197.0535       197.0535       197.0535      -314.37193    
    787000   700.60079     -4886059.8      197.0535       197.0535       197.0535      -422.23393    
    788000   700.14877     -4885944.7      197.0535       197.0535       197.0535      -344.8047     
    789000   699.8316      -4886106        197.0535       197.0535       197.0535      -206.7757     
    790000   697.66906     -4886122.6      197.0535       197.0535       197.0535      -326.47037    
    791000   699.5816      -4886080.1      197.0535       197.0535       197.0535      -313.64294    
    792000   700.19345     -4886032.1      197.0535       197.0535       197.0535      -417.44265    
    793000   701.06743     -4886056.6      197.0535       197.0535       197.0535      -354.93       
    794000   701.01904     -4885965.2      197.0535       197.0535       197.0535      -282.52674    
    795000   700.72221     -4885918        197.0535       197.0535       197.0535      -365.108      
    796000   700.99912     -4886011.8      197.0535       197.0535       197.0535      -292.81841    
    797000   698.51858     -4886132.6      197.0535       197.0535       197.0535      -175.1548     
    798000   700.01461     -4886066        197.0535       197.0535       197.0535      -378.79782    
    799000   698.38547     -4886059.7      197.0535       197.0535       197.0535      -390.49525    
    800000   699.15244     -4886073.8      197.0535       197.0535       197.0535      -224.30515    
    801000   699.00183     -4885971.6      197.0535       197.0535       197.0535      -342.63439    
    802000   701.38931     -4885862.5      197.0535       197.0535       197.0535      -348.58913    
    803000   698.58898     -4886103.5      197.0535       197.0535       197.0535      -372.18172    
    804000   700.17253     -4885969.8      197.0535       197.0535       197.0535      -429.23222    
    805000   700.87805     -4885906.2      197.0535       197.0535       197.0535      -261.34855    
    806000   699.70168     -4886059.1      197.0535       197.0535       197.0535      -400.31932    
    807000   699.9942      -4886043.6      197.0535       197.0535       197.0535      -252.27356    
    808000   699.37142     -4886125.6      197.0535       197.0535       197.0535      -291.88898    
    809000   699.81651     -4886026.5      197.0535       197.0535       197.0535      -285.41391    
    810000   699.7856      -4886069.4      197.0535       197.0535       197.0535      -220.76193    
    811000   700.59474     -4886000.8      197.0535       197.0535       197.0535      -294.32604    
    812000   698.96437     -4886121.7      197.0535       197.0535       197.0535      -312.83079    
    813000   700.89075     -4885917.3      197.0535       197.0535       197.0535      -379.7561     
    814000   701.27173     -4886006.2      197.0535       197.0535       197.0535      -440.63102    
    815000   699.63454     -4886084.4      197.0535       197.0535       197.0535      -292.24506    
    816000   699.83491     -4886108.5      197.0535       197.0535       197.0535      -326.98224    
    817000   699.34169     -4886109        197.0535       197.0535       197.0535      -346.8041     
    818000   698.97823     -4886090        197.0535       197.0535       197.0535      -382.16498    
    819000   698.59577     -4886140.6      197.0535       197.0535       197.0535      -189.26984    
    820000   699.25713     -4886105.7      197.0535       197.0535       197.0535      -366.36916    
    821000   699.32535     -4886158.1      197.0535       197.0535       197.0535      -246.08749    
    822000   701.29078     -4885915.7      197.0535       197.0535       197.0535      -293.25706    
    823000   700.80713     -4886033.8      197.0535       197.0535       197.0535      -255.22188    
    824000   699.89297     -4886045.6      197.0535       197.0535       197.0535      -108.78882    
    825000   700.67314     -4886034.7      197.0535       197.0535       197.0535      -450.3313     
    826000   699.49928     -4886109        197.0535       197.0535       197.0535      -391.01985    
    827000   699.63457     -4886006.3      197.0535       197.0535       197.0535      -291.09043    
    828000   699.91958     -4886130.6      197.0535       197.0535       197.0535      -332.56584    
    829000   698.44188     -4886196.2      197.0535       197.0535       197.0535      -423.10855    
    830000   699.65309     -4885971.6      197.0535       197.0535       197.0535      -366.82193    
    831000   700.32652     -4885965.7      197.0535       197.0535       197.0535      -325.73518    
    832000   697.90699     -4886158.8      197.0535       197.0535       197.0535      -250.70492    
    833000   700.67303     -4886186.7      197.0535       197.0535       197.0535      -360.91132    
    834000   700.40771     -4886094.4      197.0535       197.0535       197.0535      -260.20188    
    835000   700.13502     -4886040.4      197.0535       197.0535       197.0535      -408.20757    
    836000   700.12833     -4886018        197.0535       197.0535       197.0535      -385.91546    
    837000   700.68274     -4886017.5      197.0535       197.0535       197.0535      -292.36011    
    838000   699.12649     -4886100.8      197.0535       197.0535       197.0535      -413.1292     
    839000   700.16324     -4886070.3      197.0535       197.0535       197.0535      -286.40858    
    840000   701.24065     -4885994.2      197.0535       197.0535       197.0535      -330.98096    
    841000   698.94358     -4886117        197.0535       197.0535       197.0535      -291.62369    
    842000   699.08391     -4886160.4      197.0535       197.0535       197.0535      -385.45608    
    843000   700.6811      -4886005.8      197.0535       197.0535       197.0535      -333.83322    
    844000   700.80824     -4886019.8      197.0535       197.0535       197.0535      -285.21886    
    845000   700.23979     -4886077.1      197.0535       197.0535       197.0535      -278.38601    
    846000   698.90425     -4886051.9      197.0535       197.0535       197.0535      -193.21144    
    847000   699.57063     -4886079.8      197.0535       197.0535       197.0535      -307.62249    
    848000   700.18641     -4886041.7      197.0535       197.0535       197.0535      -226.83266    
    849000   699.18428     -4886059.3      197.0535       197.0535       197.0535      -258.06304    
    850000   699.76819     -4886052.5      197.0535       197.0535       197.0535      -184.13324    
    851000   700.40437     -4886044.9      197.0535       197.0535       197.0535      -318.66553    
    852000   700.07462     -4886030.3      197.0535       197.0535       197.0535      -316.66104    
    853000   700.48147     -4886054.2      197.0535       197.0535       197.0535      -305.13635    
    854000   700.09908     -4886097.1      197.0535       197.0535       197.0535      -400.08041    
    855000   700.06031     -4885964.3      197.0535       197.0535       197.0535      -245.6624     
    856000   700.10826     -4886041.6      197.0535       197.0535       197.0535      -326.41636    
    857000   700.55776     -4886052.1      197.0535       197.0535       197.0535      -449.71358    
    858000   700.63691     -4886011.3      197.0535       197.0535       197.0535      -319.59399    
    859000   700.75869     -4885868.5      197.0535       197.0535       197.0535      -281.64131    
    860000   700.13571     -4886108.3      197.0535       197.0535       197.0535      -268.03089    
    861000   701.3384      -4886026.4      197.0535       197.0535       197.0535      -169.58959    
    862000   698.01105     -4886183.8      197.0535       197.0535       197.0535      -238.45424    
    863000   700.12038     -4886037.4      197.0535       197.0535       197.0535      -281.17034    
    864000   699.84249     -4886086.3      197.0535       197.0535       197.0535      -323.38034    
    865000   700.16599     -4886085.4      197.0535       197.0535       197.0535      -287.41547    
    866000   700.5292      -4886046.4      197.0535       197.0535       197.0535      -198.54237    
    867000   698.58431     -4886164.2      197.0535       197.0535       197.0535      -228.86258    
    868000   699.9019      -4886098.2      197.0535       197.0535       197.0535      -320.77959    
    869000   700.36751     -4886001.5      197.0535       197.0535       197.0535      -137.89919    
    870000   699.78569     -4886072        197.0535       197.0535       197.0535      -294.44583    
    871000   699.92545     -4885977        197.0535       197.0535       197.0535      -252.72989    
    872000   701.41942     -4886016.1      197.0535       197.0535       197.0535      -390.09686    
    873000   700.81241     -4885969.8      197.0535       197.0535       197.0535      -108.02427    
    874000   701.65827     -4885944.2      197.0535       197.0535       197.0535      -190.38498    
    875000   700.59271     -4886064.6      197.0535       197.0535       197.0535      -272.70795    
    876000   700.43451     -4885983.8      197.0535       197.0535       197.0535      -294.28538    
    877000   699.46154     -4886058.5      197.0535       197.0535       197.0535      -285.60948    
    878000   700.99938     -4885923.2      197.0535       197.0535       197.0535      -277.31559    
    879000   700.13456     -4886010.8      197.0535       197.0535       197.0535      -232.81448    
    880000   699.73861     -4886045        197.0535       197.0535       197.0535      -407.00575    
    881000   699.67382     -4886134        197.0535       197.0535       197.0535      -387.61008    
    882000   699.00608     -4886121.1      197.0535       197.0535       197.0535      -334.15837    
    883000   700.44619     -4885935.8      197.0535       197.0535       197.0535      -276.16739    
    884000   700.39993     -4886070.2      197.0535       197.0535       197.0535      -325.04453    
    885000   701.09407     -4886048.2      197.0535       197.0535       197.0535      -411.78133    
    886000   699.20904     -4885988.6      197.0535       197.0535       197.0535      -433.12358    
    887000   698.92447     -4886160.1      197.0535       197.0535       197.0535      -300.50455    
    888000   699.82436     -4886097.1      197.0535       197.0535       197.0535      -278.20917    
    889000   700.05754     -4886098.4      197.0535       197.0535       197.0535      -239.18641    
    890000   700.1539      -4886025.6      197.0535       197.0535       197.0535      -227.89582    
    891000   700.00648     -4886146.4      197.0535       197.0535       197.0535      -355.65599    
    892000   700.89625     -4886028.6      197.0535       197.0535       197.0535      -280.67003    
    893000   699.74392     -4886084.7      197.0535       197.0535       197.0535      -296.18954    
    894000   699.33092     -4886114.8      197.0535       197.0535       197.0535      -470.92987    
    895000   699.17785     -4886126.5      197.0535       197.0535       197.0535      -342.49819    
    896000   699.46273     -4886093.8      197.0535       197.0535       197.0535      -291.14304    
    897000   698.36293     -4886090.8      197.0535       197.0535       197.0535      -347.95156    
    898000   702.11685     -4885955        197.0535       197.0535       197.0535      -315.1203     
    899000   700.36704     -4886037.8      197.0535       197.0535       197.0535      -238.87131    
    900000   701.52071     -4886052.8      197.0535       197.0535       197.0535      -296.83361    
    901000   700.50757     -4886014.1      197.0535       197.0535       197.0535      -367.63692    
    902000   699.3903      -4886097.6      197.0535       197.0535       197.0535      -320.46344    
    903000   700.47057     -4886074.9      197.0535       197.0535       197.0535      -213.42601    
    904000   700.95502     -4885976.7      197.0535       197.0535       197.0535      -312.76749    
    905000   700.98154     -4886021.3      197.0535       197.0535       197.0535      -424.35162    
    906000   699.76997     -4886088.9      197.0535       197.0535       197.0535      -276.69698    
    907000   700.53435     -4886025.8      197.0535       197.0535       197.0535      -227.75197    
    908000   700.92106     -4886078.8      197.0535       197.0535       197.0535      -245.01815    
    909000   700.84203     -4885959.1      197.0535       197.0535       197.0535      -298.49399    
    910000   699.93399     -4886131.3      197.0535       197.0535       197.0535      -368.57549    
    911000   699.68987     -4886091.9      197.0535       197.0535       197.0535      -358.13688    
    912000   701.39105     -4885993        197.0535       197.0535       197.0535      -233.12603    
    913000   700.52903     -4886057.2      197.0535       197.0535       197.0535      -361.20998    
    914000   699.88895     -4886020.2      197.0535       197.0535       197.0535      -343.27794    
    915000   700.57956     -4886165.9      197.0535       197.0535       197.0535      -329.5546     
    916000   699.68508     -4886085.8      197.0535       197.0535       197.0535      -253.43053    
    917000   699.43385     -4886149.7      197.0535       197.0535       197.0535      -399.63132    
    918000   699.99536     -4886023.7      197.0535       197.0535       197.0535      -208.94992    
    919000   698.7768      -4886167.1      197.0535       197.0535       197.0535      -310.50104    
    920000   699.28157     -4886127.6      197.0535       197.0535       197.0535      -415.74543    
    921000   697.34972     -4886351.4      197.0535       197.0535       197.0535      -371.50527    
    922000   699.7425      -4886130        197.0535       197.0535       197.0535      -293.63972    
    923000   698.69164     -4886158.1      197.0535       197.0535       197.0535      -467.06694    
    924000   699.32008     -4886066.9      197.0535       197.0535       197.0535      -299.42283    
    925000   700.3825      -4886067.3      197.0535       197.0535       197.0535      -312.84511    
    926000   700.05452     -4886025.8      197.0535       197.0535       197.0535      -324.28222    
    927000   699.79767     -4886086.1      197.0535       197.0535       197.0535      -254.81798    
    928000   700.03526     -4886111.1      197.0535       197.0535       197.0535      -465.23774    
    929000   700.11938     -4885991        197.0535       197.0535       197.0535      -281.77472    
    930000   701.19508     -4885966        197.0535       197.0535       197.0535      -309.74629    
    931000   700.33109     -4886038.6      197.0535       197.0535       197.0535      -241.60711    
    932000   700.21729     -4886090.6      197.0535       197.0535       197.0535      -323.51504    
    933000   699.81414     -4886083.7      197.0535       197.0535       197.0535      -442.80626    
    934000   700.27618     -4886118.4      197.0535       197.0535       197.0535      -434.25939    
    935000   699.44698     -4886066.9      197.0535       197.0535       197.0535      -343.80543    
    936000   699.66567     -4886097.9      197.0535       197.0535       197.0535      -340.18575    
    937000   699.77819     -4886184.9      197.0535       197.0535       197.0535      -387.01103    
    938000   699.6107      -4886164.8      197.0535       197.0535       197.0535      -477.01991    
    939000   699.02702     -4886076.7      197.0535       197.0535       197.0535      -463.41317    
    940000   699.05578     -4886097.7      197.0535       197.0535       197.0535      -344.29581    
    941000   700.26438     -4886035.1      197.0535       197.0535       197.0535      -321.40337    
    942000   698.19281     -4886174.8      197.0535       197.0535       197.0535      -455.98842    
    943000   700.17629     -4886010.5      197.0535       197.0535       197.0535      -431.55453    
    944000   699.72799     -4886090        197.0535       197.0535       197.0535      -335.08797    
    945000   700.31307     -4886001.4      197.0535       197.0535       197.0535      -286.04696    
    946000   700.12292     -4886045.5      197.0535       197.0535       197.0535      -324.67063    
    947000   700.38866     -4885979        197.0535       197.0535       197.0535      -317.77885    
    948000   699.29823     -4886132.3      197.0535       197.0535       197.0535      -389.67541    
    949000   698.73381     -4886115.1      197.0535       197.0535       197.0535      -229.33121    
    950000   700.63439     -4886100        197.0535       197.0535       197.0535      -330.57883    
    951000   700.02638     -4886034.1      197.0535       197.0535       197.0535      -284.19638    
    952000   699.0897      -4886143.2      197.0535       197.0535       197.0535      -283.68208    
    953000   700.17205     -4885925.9      197.0535       197.0535       197.0535      -334.1607     
    954000   699.48327     -4886114.6      197.0535       197.0535       197.0535      -299.326      
    955000   698.92704     -4886143.4      197.0535       197.0535       197.0535      -183.56532    
    956000   699.05953     -4886110        197.0535       197.0535       197.0535      -272.43082    
    957000   701.58124     -4885972.1      197.0535       197.0535       197.0535      -413.16609    
    958000   700.89548     -4885946        197.0535       197.0535       197.0535      -244.64941    
    959000   699.33741     -4886094.8      197.0535       197.0535       197.0535      -204.44235    
    960000   699.18819     -4886092.5      197.0535       197.0535       197.0535      -233.52913    
    961000   700.00376     -4886138.2      197.0535       197.0535       197.0535      -221.82016    
    962000   699.7387      -4886059.4      197.0535       197.0535       197.0535      -216.0234     
    963000   699.99488     -4886074.8      197.0535       197.0535       197.0535      -383.06114    
    964000   700.01848     -4885988.6      197.0535       197.0535       197.0535      -358.74028    
    965000   699.81123     -4886118.2      197.0535       197.0535       197.0535      -312.24459    
    966000   698.74854     -4886113.9      197.0535       197.0535       197.0535      -346.5111     
    967000   699.25528     -4886153.8      197.0535       197.0535       197.0535      -427.12291    
    968000   699.14498     -4886090        197.0535       197.0535       197.0535      -278.75195    
    969000   700.26603     -4886130        197.0535       197.0535       197.0535      -354.74493    
    970000   700.3606      -4886078.4      197.0535       197.0535       197.0535      -141.13996    
    971000   699.88244     -4886185.1      197.0535       197.0535       197.0535      -334.5069     
    972000   699.27583     -4886045.9      197.0535       197.0535       197.0535      -238.54068    
    973000   699.0389      -4886066.6      197.0535       197.0535       197.0535      -318.60875    
    974000   701.13855     -4886018.8      197.0535       197.0535       197.0535      -351.98494    
    975000   699.68183     -4886065.7      197.0535       197.0535       197.0535      -389.97187    
    976000   700.29856     -4886031.2      197.0535       197.0535       197.0535      -247.74212    
    977000   699.74861     -4886079.2      197.0535       197.0535       197.0535      -409.47355    
    978000   699.85287     -4886109.5      197.0535       197.0535       197.0535      -269.14037    
    979000   699.50833     -4886057.5      197.0535       197.0535       197.0535      -497.48474    
    980000   701.78311     -4885974.4      197.0535       197.0535       197.0535      -434.13645    
    981000   699.60645     -4886122.3      197.0535       197.0535       197.0535      -273.94706    
    982000   700.40019     -4886010.7      197.0535       197.0535       197.0535      -351.90345    
    983000   701.54922     -4886005.5      197.0535       197.0535       197.0535      -380.81681    
    984000   700.74484     -4885996.3      197.0535       197.0535       197.0535      -282.75835    
    985000   699.83772     -4886022.4      197.0535       197.0535       197.0535      -400.96206    
    986000   699.89933     -4886214.3      197.0535       197.0535       197.0535      -371.57483    
    987000   702.14932     -4885985.3      197.0535       197.0535       197.0535      -295.0077     
    988000   699.67385     -4886223.9      197.0535       197.0535       197.0535      -271.84022    
    989000   703.02068     -4885939.5      197.0535       197.0535       197.0535      -331.35455    
    990000   701.12075     -4886037.8      197.0535       197.0535       197.0535      -300.52039    
    991000   700.70716     -4886027.5      197.0535       197.0535       197.0535      -297.72019    
    992000   699.99302     -4886145        197.0535       197.0535       197.0535      -363.28943    
    993000   698.76446     -4886155.5      197.0535       197.0535       197.0535      -329.50795    
    994000   699.76066     -4886068.2      197.0535       197.0535       197.0535      -201.79544    
    995000   701.43675     -4886011.1      197.0535       197.0535       197.0535      -284.62499    
    996000   699.61412     -4886210.9      197.0535       197.0535       197.0535      -327.66369    
    997000   700.6275      -4886094.6      197.0535       197.0535       197.0535      -153.6213     
    998000   700.38873     -4886080.3      197.0535       197.0535       197.0535      -361.82556    
    999000   699.68107     -4886118.4      197.0535       197.0535       197.0535      -359.62448    
   1000000   700.67333     -4886008.7      197.0535       197.0535       197.0535      -363.43438    
   1001000   700.83497     -4885997.8      197.0535       197.0535       197.0535      -353.03179    
   1002000   701.34957     -4886007.1      197.0535       197.0535       197.0535      -270.22077    
   1003000   699.47738     -4886102.9      197.0535       197.0535       197.0535      -426.17261    
   1004000   698.8758      -4886137.8      197.0535       197.0535       197.0535      -198.04954    
   1005000   699.7199      -4886132.8      197.0535       197.0535       197.0535      -428.39811    
   1006000   699.50429     -4886222.7      197.0535       197.0535       197.0535      -421.54126    
   1007000   699.74983     -4886206.4      197.0535       197.0535       197.0535      -389.05972    
   1008000   699.81016     -4886047.6      197.0535       197.0535       197.0535      -357.47691    
   1009000   699.25726     -4886224.7      197.0535       197.0535       197.0535      -235.39441    
   1010000   701.16224     -4886068.1      197.0535       197.0535       197.0535      -279.5003     
   1011000   699.63997     -4886157        197.0535       197.0535       197.0535      -370.41068    
   1012000   700.74913     -4886070.1      197.0535       197.0535       197.0535      -363.704      
   1013000   700.44055     -4886107.4      197.0535       197.0535       197.0535      -454.95097    
   1014000   699.46806     -4886175.3      197.0535       197.0535       197.0535      -243.58207    
   1015000   701.14355     -4886060.2      197.0535       197.0535       197.0535      -407.5946     
   1016000   700.6337      -4886039.6      197.0535       197.0535       197.0535      -385.15052    
   1017000   699.5502      -4886084.4      197.0535       197.0535       197.0535      -215.82507    
   1018000   699.55043     -4886046.7      197.0535       197.0535       197.0535      -324.57905    
   1019000   700.45995     -4886052.1      197.0535       197.0535       197.0535      -262.03641    
   1020000   700.82939     -4886069.1      197.0535       197.0535       197.0535      -439.42089    
   1021000   699.65795     -4886077.2      197.0535       197.0535       197.0535      -408.71276    
   1022000   699.17982     -4886082.5      197.0535       197.0535       197.0535      -366.25188    
   1023000   700.06833     -4886111        197.0535       197.0535       197.0535      -382.21981    
   1024000   700.30686     -4886112.7      197.0535       197.0535       197.0535      -178.02095    
   1025000   699.9088      -4886086.6      197.0535       197.0535       197.0535      -314.15023    
   1026000   700.01238     -4886030.1      197.0535       197.0535       197.0535      -398.55965    
   1027000   698.21117     -4886229.2      197.0535       197.0535       197.0535      -262.97128    
   1028000   699.36775     -4886033.7      197.0535       197.0535       197.0535      -349.99064    
   1029000   699.4436      -4886193.8      197.0535       197.0535       197.0535      -400.44919    
   1030000   699.94366     -4886166.8      197.0535       197.0535       197.0535      -313.70112    
   1031000   699.53732     -4886156.8      197.0535       197.0535       197.0535      -328.13034    
   1032000   700.84662     -4885999.7      197.0535       197.0535       197.0535      -277.88363    
   1033000   699.62504     -4886122.6      197.0535       197.0535       197.0535      -311.75458    
   1034000   701.29986     -4886045.1      197.0535       197.0535       197.0535      -323.82557    
   1035000   700.05607     -4886178.2      197.0535       197.0535       197.0535      -229.95486    
   1036000   700.7406      -4886100.4      197.0535       197.0535       197.0535      -339.48021    
   1037000   700.2892      -4886008.1      197.0535       197.0535       197.0535      -282.53197    
   1038000   698.61806     -4886207.3      197.0535       197.0535       197.0535      -224.6048     
   1039000   700.12991     -4886046.9      197.0535       197.0535       197.0535      -382.63105    
   1040000   701.53842     -4885990.6      197.0535       197.0535       197.0535      -350.50175    
   1041000   699.20149     -4886104        197.0535       197.0535       197.0535      -314.47529    
   1042000   699.44068     -4886163.5      197.0535       197.0535       197.0535      -380.63675    
   1043000   699.3899      -4886109.8      197.0535       197.0535       197.0535      -439.32449    
   1044000   701.36949     -4886023.3      197.0535       197.0535       197.0535      -570.34997    
   1045000   700.65075     -4886010.6      197.0535       197.0535       197.0535      -498.55014    
   1046000   700.00169     -4886122.8      197.0535       197.0535       197.0535      -467.14039    
   1047000   701.68704     -4885946.6      197.0535       197.0535       197.0535      -429.77457    
   1048000   699.90436     -4886042.2      197.0535       197.0535       197.0535      -450.28585    
   1049000   699.82187     -4886048.7      197.0535       197.0535       197.0535      -417.70297    
   1050000   699.38478     -4886188.7      197.0535       197.0535       197.0535      -319.34208    
   1051000   700.24914     -4886086.3      197.0535       197.0535       197.0535      -332.08682    
   1052000   700.64176     -4886063.1      197.0535       197.0535       197.0535      -409.28256    
   1053000   699.9623      -4885997.7      197.0535       197.0535       197.0535      -293.18421    
   1054000   699.50218     -4886118.8      197.0535       197.0535       197.0535      -378.3407     
   1055000   699.97427     -4886115.9      197.0535       197.0535       197.0535      -282.10738    
   1056000   699.93812     -4886125        197.0535       197.0535       197.0535      -314.86056    
   1057000   698.78288     -4886216.8      197.0535       197.0535       197.0535      -178.42577    
   1058000   699.91101     -4886149.8      197.0535       197.0535       197.0535      -339.68505    
   1059000   700.78806     -4885991        197.0535       197.0535       197.0535      -296.86922    
   1060000   701.38329     -4885971.9      197.0535       197.0535       197.0535      -345.18431    
   1061000   700.91008     -4886068.1      197.0535       197.0535       197.0535      -192.72888    
   1062000   699.45637     -4886064.6      197.0535       197.0535       197.0535      -396.78875    
   1063000   700.17943     -4886168.5      197.0535       197.0535       197.0535      -257.62593    
   1064000   701.01363     -4886048.6      197.0535       197.0535       197.0535      -330.34388    
   1065000   701.47934     -4886000.1      197.0535       197.0535       197.0535      -121.41422    
   1066000   698.92874     -4886076.8      197.0535       197.0535       197.0535      -298.48025    
   1067000   699.56424     -4886108        197.0535       197.0535       197.0535      -330.67021    
   1068000   699.46007     -4886230.1      197.0535       197.0535       197.0535      -238.65767    
   1069000   700.75965     -4886045.6      197.0535       197.0535       197.0535      -139.65427    
   1070000   700.43333     -4886186.6      197.0535       197.0535       197.0535      -174.29774    
   1071000   698.42784     -4886155.1      197.0535       197.0535       197.0535      -407.32504    
   1072000   700.4639      -4886108.6      197.0535       197.0535       197.0535      -301.18398    
   1073000   701.07773     -4886003.3      197.0535       197.0535       197.0535      -437.02755    
   1074000   699.60881     -4886103.1      197.0535       197.0535       197.0535      -380.39964    
   1075000   700.23638     -4886031.2      197.0535       197.0535       197.0535      -342.0263     
   1076000   700.23336     -4886043.1      197.0535       197.0535       197.0535      -420.60362    
   1077000   699.64644     -4886051.6      197.0535       197.0535       197.0535      -307.7741     
   1078000   700.798       -4886056.4      197.0535       197.0535       197.0535      -388.44351    
   1079000   700.11318     -4886024        197.0535       197.0535       197.0535      -337.56833    
   1080000   700.11539     -4886068.5      197.0535       197.0535       197.0535      -456.53961    
   1081000   699.78573     -4886133.3      197.0535       197.0535       197.0535      -342.30805    
   1082000   700.77633     -4886123.1      197.0535       197.0535       197.0535      -396.89684    
   1083000   701.49804     -4886017.1      197.0535       197.0535       197.0535      -422.57944    
   1084000   699.74342     -4886114.3      197.0535       197.0535       197.0535      -437.83841    
   1085000   700.91707     -4886037.9      197.0535       197.0535       197.0535      -397.86609    
   1086000   699.43784     -4886144.5      197.0535       197.0535       197.0535      -482.72024    
   1087000   700.20201     -4886225.2      197.0535       197.0535       197.0535      -337.4833     
   1088000   700.34758     -4886096.6      197.0535       197.0535       197.0535      -266.41696    
   1089000   700.18224     -4886149.8      197.0535       197.0535       197.0535      -255.35717    
   1090000   698.73981     -4886064.1      197.0535       197.0535       197.0535      -300.29645    
   1091000   700.28625     -4886085.8      197.0535       197.0535       197.0535      -168.71466    
   1092000   700.00791     -4886070        197.0535       197.0535       197.0535      -280.24525    
   1093000   700.09063     -4886091.4      197.0535       197.0535       197.0535      -168.24577    
   1094000   699.27836     -4886269.1      197.0535       197.0535       197.0535      -154.70677    
   1095000   700.78651     -4886062.6      197.0535       197.0535       197.0535      -238.0921     
   1096000   700.16938     -4886094.7      197.0535       197.0535       197.0535      -459.00786    
   1097000   699.93213     -4886017.1      197.0535       197.0535       197.0535      -261.90695    
   1098000   701.38775     -4886061.7      197.0535       197.0535       197.0535      -262.70989    
   1099000   701.08276     -4886025.6      197.0535       197.0535       197.0535      -289.31157    
   1100000   700.36629     -4886108.6      197.0535       197.0535       197.0535      -372.54416    
   1101000   700.78898     -4886100.8      197.0535       197.0535       197.0535      -426.37463    
   1102000   701.21181     -4886066        197.0535       197.0535       197.0535      -358.92933    
   1103000   699.17513     -4886067.9      197.0535       197.0535       197.0535      -291.99816    
   1104000   700.92419     -4886135.7      197.0535       197.0535       197.0535      -432.22891    
   1105000   700.89431     -4886053.4      197.0535       197.0535       197.0535      -316.38412    
   1106000   700.44429     -4886070.2      197.0535       197.0535       197.0535      -351.55997    
   1107000   699.89643     -4886107.3      197.0535       197.0535       197.0535      -253.48346    
   1108000   701.20514     -4885998.1      197.0535       197.0535       197.0535      -378.44524    
   1109000   699.2677      -4886078.8      197.0535       197.0535       197.0535      -319.92121    
   1110000   698.48609     -4886183.8      197.0535       197.0535       197.0535      -371.9187     
   1111000   699.71333     -4886123.3      197.0535       197.0535       197.0535      -230.36997    
   1112000   699.3312      -4886202.7      197.0535       197.0535       197.0535      -378.35718    
   1113000   699.88145     -4886097.8      197.0535       197.0535       197.0535      -106.07978    
   1114000   698.64322     -4886168        197.0535       197.0535       197.0535      -279.85664    
   1115000   700.06247     -4886143.7      197.0535       197.0535       197.0535      -341.26619    
   1116000   701.11862     -4886042.9      197.0535       197.0535       197.0535      -401.4563     
   1117000   700.56574     -4886117.8      197.0535       197.0535       197.0535      -322.37958    
   1118000   698.91138     -4886197.4      197.0535       197.0535       197.0535      -327.37535    
   1119000   701.00392     -4885933.2      197.0535       197.0535       197.0535      -247.43038    
   1120000   699.80778     -4886213        197.0535       197.0535       197.0535      -387.80445    
   1121000   699.47353     -4886144.7      197.0535       197.0535       197.0535      -182.15463    
   1122000   699.48292     -4886112        197.0535       197.0535       197.0535      -358.71567    
   1123000   700.56978     -4886008.6      197.0535       197.0535       197.0535      -232.86711    
   1124000   698.63513     -4886254        197.0535       197.0535       197.0535      -306.59946    
   1125000   700.0307      -4886111.5      197.0535       197.0535       197.0535      -268.29638    
   1126000   699.54569     -4886188.7      197.0535       197.0535       197.0535      -323.94076    
   1127000   699.62994     -4886125.2      197.0535       197.0535       197.0535      -513.23896    
   1128000   700.93106     -4886070.2      197.0535       197.0535       197.0535      -347.53118    
   1129000   699.93273     -4886044.3      197.0535       197.0535       197.0535      -391.14099    
   1130000   700.3407      -4886062.7      197.0535       197.0535       197.0535      -461.30372    
   1131000   699.10009     -4886213.7      197.0535       197.0535       197.0535      -479.27798    
   1132000   700.48135     -4886084        197.0535       197.0535       197.0535      -286.99871    
   1133000   700.5752      -4886056.1      197.0535       197.0535       197.0535      -214.40713    
   1134000   699.55337     -4886085.6      197.0535       197.0535       197.0535      -314.66616    
   1135000   699.61012     -4886090.8      197.0535       197.0535       197.0535      -409.68588    
   1136000   701.5753      -4886075.2      197.0535       197.0535       197.0535      -366.52962    
   1137000   700.28223     -4886082.9      197.0535       197.0535       197.0535      -522.95259    
   1138000   699.88135     -4886178.6      197.0535       197.0535       197.0535      -273.17028    
   1139000   699.29107     -4886067.1      197.0535       197.0535       197.0535      -261.12452    
   1140000   700.83605     -4886114.7      197.0535       197.0535       197.0535      -347.99909    
   1141000   699.6297      -4886124.8      197.0535       197.0535       197.0535      -366.94158    
   1142000   699.82458     -4886101.8      197.0535       197.0535       197.0535      -328.23448    
   1143000   700.04319     -4886060.1      197.0535       197.0535       197.0535      -258.33212    
   1144000   699.9333      -4886105.9      197.0535       197.0535       197.0535      -469.11068    
   1145000   700.73677     -4886057.8      197.0535       197.0535       197.0535      -256.27711    
   1146000   699.94943     -4886071.4      197.0535       197.0535       197.0535      -264.40478    
   1147000   701.47766     -4886101.2      197.0535       197.0535       197.0535      -293.71283    
   1148000   700.48605     -4886058.7      197.0535       197.0535       197.0535      -401.89479    
   1149000   700.83457     -4886018        197.0535       197.0535       197.0535      -294.08547    
   1150000   699.33478     -4886132.6      197.0535       197.0535       197.0535      -422.16757    
   1151000   700.08768     -4886119.8      197.0535       197.0535       197.0535      -339.31274    
   1152000   700.16115     -4886144.4      197.0535       197.0535       197.0535      -495.67555    
   1153000   699.28344     -4886150.4      197.0535       197.0535       197.0535      -270.86332    
   1154000   699.7889      -4886077.4      197.0535       197.0535       197.0535      -254.27825    
   1155000   699.75986     -4886106.8      197.0535       197.0535       197.0535      -310.45754    
   1156000   699.60117     -4886101.1      197.0535       197.0535       197.0535      -528.02754    
   1157000   700.19429     -4886033        197.0535       197.0535       197.0535      -355.76505    
   1158000   700.2426      -4885956.8      197.0535       197.0535       197.0535      -241.71665    
   1159000   700.65504     -4886059.6      197.0535       197.0535       197.0535      -471.46829    
   1160000   698.15623     -4886138.8      197.0535       197.0535       197.0535      -368.04984    
   1161000   701.42647     -4885964.7      197.0535       197.0535       197.0535      -305.79207    
   1162000   699.64337     -4886132.1      197.0535       197.0535       197.0535      -330.35896    
   1163000   699.51601     -4886198.3      197.0535       197.0535       197.0535      -414.10846    
   1164000   699.2645      -4886083.2      197.0535       197.0535       197.0535      -263.33067    
   1165000   699.73529     -4886096.7      197.0535       197.0535       197.0535      -410.13914    
   1166000   699.01823     -4886241.7      197.0535       197.0535       197.0535      -357.27881    
   1167000   701.04872     -4886047.9      197.0535       197.0535       197.0535      -431.39652    
   1168000   701.85984     -4886076        197.0535       197.0535       197.0535      -281.1417     
   1169000   700.87909     -4886038.3      197.0535       197.0535       197.0535      -352.51999    
   1170000   700.4153      -4886057.9      197.0535       197.0535       197.0535      -429.56545    
   1171000   698.5995      -4886258.3      197.0535       197.0535       197.0535      -374.00625    
   1172000   700.09612     -4886112.7      197.0535       197.0535       197.0535      -434.98519    
   1173000   698.43557     -4886155        197.0535       197.0535       197.0535      -370.89118    
   1174000   699.31661     -4886072.6      197.0535       197.0535       197.0535      -392.63897    
   1175000   700.00762     -4886121.4      197.0535       197.0535       197.0535      -326.73257    
   1176000   699.38439     -4886142.9      197.0535       197.0535       197.0535      -336.86282    
   1177000   699.33586     -4886176.1      197.0535       197.0535       197.0535      -252.23758    
   1178000   699.99615     -4886114        197.0535       197.0535       197.0535      -441.07713    
   1179000   701.07446     -4886075.4      197.0535       197.0535       197.0535      -282.49753    
   1180000   700.2884      -4886119.4      197.0535       197.0535       197.0535      -175.39806    
   1181000   700.40164     -4886073.9      197.0535       197.0535       197.0535      -199.9504     
   1182000   700.11714     -4886072.1      197.0535       197.0535       197.0535      -234.73413    
   1183000   699.07218     -4886035.6      197.0535       197.0535       197.0535      -309.46927    
   1184000   699.7641      -4886065.4      197.0535       197.0535       197.0535      -342.99967    
   1185000   698.82207     -4886179        197.0535       197.0535       197.0535      -383.24956    
   1186000   701.64135     -4885978.5      197.0535       197.0535       197.0535      -429.49755    
   1187000   698.87874     -4886186.3      197.0535       197.0535       197.0535      -357.91001    
   1188000   700.73667     -4886087        197.0535       197.0535       197.0535      -417.13224    
   1189000   699.42277     -4886079.7      197.0535       197.0535       197.0535      -467.14936    
   1190000   699.1613      -4886192.2      197.0535       197.0535       197.0535      -481.30579    
   1191000   700.3043      -4886109.6      197.0535       197.0535       197.0535      -326.25232    
   1192000   699.63249     -4886090.5      197.0535       197.0535       197.0535      -354.06822    
   1193000   699.83789     -4886090.9      197.0535       197.0535       197.0535      -293.43393    
   1194000   700.63066     -4886006.1      197.0535       197.0535       197.0535      -314.37133    
   1195000   699.20279     -4886264.8      197.0535       197.0535       197.0535      -327.24531    
   1196000   700.71153     -4886018        197.0535       197.0535       197.0535      -283.68331    
   1197000   699.83041     -4886032.3      197.0535       197.0535       197.0535      -225.53912    
   1198000   699.1821      -4886201.3      197.0535       197.0535       197.0535      -434.18461    
   1199000   699.61584     -4886125.1      197.0535       197.0535       197.0535      -357.03531    
   1200000   699.83567     -4886120.3      197.0535       197.0535       197.0535      -507.36761    
   1201000   701.67537     -4885946.5      197.0535       197.0535       197.0535      -294.50089    
   1202000   700.86923     -4885984.2      197.0535       197.0535       197.0535      -227.771      
   1203000   701.34761     -4885921.4      197.0535       197.0535       197.0535      -282.58703    
   1204000   698.3654      -4886141.9      197.0535       197.0535       197.0535      -340.91801    
   1205000   698.54003     -4886200.5      197.0535       197.0535       197.0535      -289.91161    
   1206000   699.67913     -4886152.3      197.0535       197.0535       197.0535      -238.96959    
   1207000   699.16881     -4886194.4      197.0535       197.0535       197.0535      -307.68831    
   1208000   700.85301     -4886054.9      197.0535       197.0535       197.0535      -384.99204    
   1209000   699.20795     -4886046.4      197.0535       197.0535       197.0535      -330.96901    
   1210000   699.91471     -4886054.5      197.0535       197.0535       197.0535      -459.67431    
   1211000   699.36559     -4886121.7      197.0535       197.0535       197.0535      -359.2134     
   1212000   698.76516     -4886350.7      197.0535       197.0535       197.0535      -400.13662    
   1213000   700.71115     -4885976.6      197.0535       197.0535       197.0535      -326.38098    
   1214000   699.81226     -4886164.9      197.0535       197.0535       197.0535      -402.90518    
   1215000   700.08961     -4886104.7      197.0535       197.0535       197.0535      -366.9033     
   1216000   698.55156     -4886199.8      197.0535       197.0535       197.0535      -460.35912    
   1217000   700.34866     -4886148.1      197.0535       197.0535       197.0535      -301.40228    
   1218000   699.91229     -4886054.6      197.0535       197.0535       197.0535      -233.87845    
   1219000   700.72249     -4886085.1      197.0535       197.0535       197.0535      -178.39684    
   1220000   700.52441     -4886074        197.0535       197.0535       197.0535      -257.87829    
   1221000   700.47532     -4886012.5      197.0535       197.0535       197.0535      -268.4108     
   1222000   699.83241     -4886002.2      197.0535       197.0535       197.0535      -302.32893    
   1223000   699.50122     -4886184.5      197.0535       197.0535       197.0535      -315.98678    
   1224000   700.12434     -4886035.9      197.0535       197.0535       197.0535      -363.78328    
   1225000   699.48583     -4886140        197.0535       197.0535       197.0535      -463.69003    
   1226000   700.5866      -4886121.9      197.0535       197.0535       197.0535      -421.2225     
   1227000   700.92981     -4885972.4      197.0535       197.0535       197.0535      -450.51472    
   1228000   700.49163     -4885977.1      197.0535       197.0535       197.0535      -385.30099    
   1229000   699.65724     -4886002.8      197.0535       197.0535       197.0535      -339.13852    
   1230000   698.65333     -4886155.6      197.0535       197.0535       197.0535      -387.66178    
   1231000   700.60623     -4886101.7      197.0535       197.0535       197.0535      -360.87975    
   1232000   699.89384     -4886010        197.0535       197.0535       197.0535      -219.56648    
   1233000   699.28092     -4886148.8      197.0535       197.0535       197.0535      -256.95353    
   1234000   700.70458     -4886134.8      197.0535       197.0535       197.0535      -318.92402    
   1235000   700.19985     -4886144.2      197.0535       197.0535       197.0535      -435.45627    
   1236000   701.22968     -4886087.7      197.0535       197.0535       197.0535      -388.6604     
   1237000   700.21356     -4886035.9      197.0535       197.0535       197.0535      -460.21139    
   1238000   700.09318     -4886076.5      197.0535       197.0535       197.0535      -382.65898    
   1239000   699.53106     -4886112.1      197.0535       197.0535       197.0535      -402.46207    
   1240000   700.44026     -4886063.9      197.0535       197.0535       197.0535      -360.51821    
   1241000   701.29026     -4886055.2      197.0535       197.0535       197.0535      -348.55796    
   1242000   700.05138     -4886135.5      197.0535       197.0535       197.0535      -385.52585    
   1243000   701.30772     -4886092.5      197.0535       197.0535       197.0535      -446.91638    
   1244000   700.44884     -4886052.3      197.0535       197.0535       197.0535      -406.30109    
   1245000   699.30662     -4886112        197.0535       197.0535       197.0535      -428.79801    
   1246000   699.58334     -4886172.3      197.0535       197.0535       197.0535      -343.66639    
   1247000   699.55919     -4886099.5      197.0535       197.0535       197.0535      -256.26795    
   1248000   700.58153     -4886066        197.0535       197.0535       197.0535      -296.17264    
   1249000   699.06065     -4886130.3      197.0535       197.0535       197.0535      -403.31113    
   1250000   699.46556     -4886100.7      197.0535       197.0535       197.0535      -395.05522    
   1251000   698.88744     -4886211.6      197.0535       197.0535       197.0535      -475.70405    
   1252000   698.50327     -4886217.8      197.0535       197.0535       197.0535      -308.49814    
   1253000   700.70671     -4886145.3      197.0535       197.0535       197.0535      -290.35785    
   1254000   699.55295     -4886200.4      197.0535       197.0535       197.0535      -366.71707    
   1255000   700.47234     -4886058.4      197.0535       197.0535       197.0535      -301.90975    
   1256000   701.1046      -4886040.1      197.0535       197.0535       197.0535      -241.1144     
   1257000   700.25609     -4886056.6      197.0535       197.0535       197.0535      -382.73964    
   1258000   699.39304     -4886207.1      197.0535       197.0535       197.0535      -241.44182    
   1259000   702.62727     -4886000.7      197.0535       197.0535       197.0535      -312.49623    
   1260000   699.84503     -4885991.4      197.0535       197.0535       197.0535      -363.07284    
   1261000   698.66687     -4886111.3      197.0535       197.0535       197.0535      -356.54954    
   1262000   699.8201      -4886098.4      197.0535       197.0535       197.0535      -363.19885    
   1263000   702.6198      -4886030.4      197.0535       197.0535       197.0535      -278.47179    
   1264000   700.80604     -4886062.4      197.0535       197.0535       197.0535      -449.19005    
   1265000   700.11831     -4886042.9      197.0535       197.0535       197.0535      -365.84557    
   1266000   700.54099     -4885986.9      197.0535       197.0535       197.0535      -446.67286    
   1267000   699.58005     -4886074.3      197.0535       197.0535       197.0535      -378.05909    
   1268000   700.07132     -4886042.1      197.0535       197.0535       197.0535      -408.05849    
   1269000   699.68923     -4886156.8      197.0535       197.0535       197.0535      -391.18167    
   1270000   700.4349      -4886094        197.0535       197.0535       197.0535      -367.49995    
   1271000   700.4557      -4886042.2      197.0535       197.0535       197.0535      -263.75936    
   1272000   699.86565     -4886098.7      197.0535       197.0535       197.0535      -253.06025    
   1273000   699.70937     -4886133.6      197.0535       197.0535       197.0535      -369.03843    
   1274000   700.78423     -4886006.2      197.0535       197.0535       197.0535      -342.01659    
   1275000   700.20309     -4886124        197.0535       197.0535       197.0535      -309.83174    
   1276000   699.5195      -4886100.1      197.0535       197.0535       197.0535      -289.46318    
   1277000   699.73014     -4886154.6      197.0535       197.0535       197.0535      -399.56232    
   1278000   699.8888      -4886220        197.0535       197.0535       197.0535      -462.52158    
   1279000   700.5448      -4886118.4      197.0535       197.0535       197.0535      -401.62997    
   1280000   699.6936      -4886006.6      197.0535       197.0535       197.0535      -248.31631    
   1281000   699.88243     -4886093.5      197.0535       197.0535       197.0535      -351.14097    
   1282000   699.28136     -4886128.5      197.0535       197.0535       197.0535      -291.51112    
   1283000   699.12958     -4886118.3      197.0535       197.0535       197.0535      -412.7618     
   1284000   700.32993     -4886155.8      197.0535       197.0535       197.0535      -479.0512     
   1285000   700.71903     -4886056.4      197.0535       197.0535       197.0535      -268.35581    
   1286000   698.94818     -4886289        197.0535       197.0535       197.0535      -347.52059    
   1287000   702.35134     -4885973.9      197.0535       197.0535       197.0535      -365.65588    
   1288000   698.74431     -4886077.5      197.0535       197.0535       197.0535      -180.57211    
   1289000   698.2027      -4886175.3      197.0535       197.0535       197.0535      -276.29927    
   1290000   700.37937     -4886063.9      197.0535       197.0535       197.0535      -348.38618    
   1291000   699.88696     -4886092.6      197.0535       197.0535       197.0535      -406.06899    
   1292000   700.93203     -4886098.9      197.0535       197.0535       197.0535      -482.37396    
   1293000   699.8338      -4886056.5      197.0535       197.0535       197.0535      -301.72828    
   1294000   699.28144     -4886211.3      197.0535       197.0535       197.0535      -330.71749    
   1295000   701.00798     -4886129.9      197.0535       197.0535       197.0535      -221.27739    
   1296000   700.78849     -4886119.8      197.0535       197.0535       197.0535      -332.18631    
   1297000   702.07928     -4886049.6      197.0535       197.0535       197.0535      -234.24587    
   1298000   700.50897     -4886085.9      197.0535       197.0535       197.0535      -293.08989    
   1299000   699.96074     -4886155.3      197.0535       197.0535       197.0535      -318.53862    
   1300000   700.48492     -4886055.8      197.0535       197.0535       197.0535      -312.37681    
   1301000   700.75977     -4886082.6      197.0535       197.0535       197.0535      -272.76477    
   1302000   699.86943     -4886135.4      197.0535       197.0535       197.0535      -180.7047     
   1303000   700.34094     -4886089.3      197.0535       197.0535       197.0535      -368.66828    
   1304000   699.55261     -4886118.1      197.0535       197.0535       197.0535      -391.52872    
   1305000   698.89484     -4886219.7      197.0535       197.0535       197.0535      -375.83114    
   1306000   699.92947     -4886032.5      197.0535       197.0535       197.0535      -312.22473    
   1307000   700.77005     -4885983.2      197.0535       197.0535       197.0535      -376.08385    
   1308000   701.32005     -4886039.3      197.0535       197.0535       197.0535      -396.0592     
   1309000   700.24996     -4886153.5      197.0535       197.0535       197.0535      -374.14248    
   1310000   700.42094     -4886055.9      197.0535       197.0535       197.0535      -354.72804    
   1311000   699.48861     -4886101.3      197.0535       197.0535       197.0535      -401.78515    
   1312000   699.79741     -4886131.7      197.0535       197.0535       197.0535      -497.32571    
   1313000   698.76907     -4886218.5      197.0535       197.0535       197.0535      -359.52054    
   1314000   699.89402     -4886111        197.0535       197.0535       197.0535      -291.81309    
   1315000   698.94264     -4886232.9      197.0535       197.0535       197.0535      -292.7658     
   1316000   699.80419     -4886197.4      197.0535       197.0535       197.0535      -527.10098    
   1317000   699.81556     -4885988        197.0535       197.0535       197.0535      -248.15696    
   1318000   699.5809      -4886098.8      197.0535       197.0535       197.0535      -363.89037    
   1319000   699.54013     -4886104.1      197.0535       197.0535       197.0535      -326.94073    
   1320000   700.34062     -4886075.2      197.0535       197.0535       197.0535      -438.76594    
   1321000   699.75286     -4886121.3      197.0535       197.0535       197.0535      -379.85803    
   1322000   700.40263     -4886124.9      197.0535       197.0535       197.0535      -369.82516    
   1323000   700.01885     -4886138.3      197.0535       197.0535       197.0535      -381.73104    
   1324000   699.42747     -4886188.3      197.0535       197.0535       197.0535      -361.09568    
   1325000   699.5756      -4886234        197.0535       197.0535       197.0535      -366.91799    
   1326000   699.61113     -4886174.3      197.0535       197.0535       197.0535      -322.0908     
   1327000   699.61189     -4886163.8      197.0535       197.0535       197.0535      -457.88576    
   1328000   699.88161     -4886102.1      197.0535       197.0535       197.0535      -392.43758    
   1329000   700.31564     -4886088.7      197.0535       197.0535       197.0535      -378.13426    
   1330000   700.44001     -4886065.5      197.0535       197.0535       197.0535      -468.02533    
   1331000   697.70627     -4886189.6      197.0535       197.0535       197.0535      -511.83777    
   1332000   699.31612     -4886162.7      197.0535       197.0535       197.0535      -411.00436    
   1333000   700.31747     -4886082        197.0535       197.0535       197.0535      -382.9079     
   1334000   699.69041     -4886079.6      197.0535       197.0535       197.0535      -258.76845    
   1335000   699.472       -4886217.9      197.0535       197.0535       197.0535      -524.72551    
   1336000   699.08088     -4886161.8      197.0535       197.0535       197.0535      -291.12143    
   1337000   699.29509     -4886152.9      197.0535       197.0535       197.0535      -287.38406    
   1338000   700.12941     -4886159.2      197.0535       197.0535       197.0535      -285.91655    
   1339000   700.93892     -4886018.2      197.0535       197.0535       197.0535      -268.85957    
   1340000   699.49219     -4886115.4      197.0535       197.0535       197.0535      -350.45819    
   1341000   699.9659      -4886170.8      197.0535       197.0535       197.0535      -231.43387    
   1342000   700.7167      -4886070.5      197.0535       197.0535       197.0535      -296.42066    
   1343000   700.61703     -4886073.1      197.0535       197.0535       197.0535      -198.90773    
   1344000   700.58791     -4886147.8      197.0535       197.0535       197.0535      -288.26724    
   1345000   699.67332     -4886158.5      197.0535       197.0535       197.0535      -393.03004    
   1346000   700.38189     -4886147.8      197.0535       197.0535       197.0535      -410.45154    
   1347000   701.10559     -4885975.9      197.0535       197.0535       197.0535      -307.43507    
   1348000   700.0118      -4886154.7      197.0535       197.0535       197.0535      -460.46371    
   1349000   701.46824     -4886038.7      197.0535       197.0535       197.0535      -408.97899    
   1350000   700.1541      -4886098.7      197.0535       197.0535       197.0535      -357.41314    
   1351000   700.33012     -4886025.9      197.0535       197.0535       197.0535      -310.65364    
   1352000   700.46287     -4886047.5      197.0535       197.0535       197.0535      -302.36708    
   1353000   701.45361     -4885985.5      197.0535       197.0535       197.0535      -384.38209    
   1354000   699.32352     -4886195.9      197.0535       197.0535       197.0535      -337.09125    
   1355000   699.27206     -4886251.4      197.0535       197.0535       197.0535      -318.62643    
   1356000   698.38443     -4886207.9      197.0535       197.0535       197.0535      -329.4989     
   1357000   700.34515     -4886081.8      197.0535       197.0535       197.0535      -280.34736    
   1358000   699.43499     -4886169.1      197.0535       197.0535       197.0535      -230.92431    
   1359000   701.59627     -4886064.3      197.0535       197.0535       197.0535      -359.81372    
   1360000   700.01777     -4886078.1      197.0535       197.0535       197.0535      -296.28892    
   1361000   699.00827     -4886102.8      197.0535       197.0535       197.0535      -305.21771    
   1362000   700.93786     -4886032.8      197.0535       197.0535       197.0535      -390.11753    
   1363000   700.79362     -4886048.3      197.0535       197.0535       197.0535      -429.76198    
   1364000   698.78872     -4886200.6      197.0535       197.0535       197.0535      -397.51352    
   1365000   700.1009      -4886090.7      197.0535       197.0535       197.0535      -404.00452    
   1366000   702.08948     -4886005.9      197.0535       197.0535       197.0535      -398.69773    
   1367000   700.92324     -4886026.3      197.0535       197.0535       197.0535      -426.42383    
   1368000   700.36921     -4886162.7      197.0535       197.0535       197.0535      -471.43331    
   1369000   698.8679      -4886129.1      197.0535       197.0535       197.0535      -308.77543    
   1370000   698.44832     -4886270.9      197.0535       197.0535       197.0535      -271.47236    
   1371000   699.5856      -4886089.1      197.0535       197.0535       197.0535      -220.37078    
   1372000   700.14456     -4886037.4      197.0535       197.0535       197.0535      -403.03142    
   1373000   699.40641     -4886279.3      197.0535       197.0535       197.0535      -381.22457    
   1374000   699.25982     -4886226.5      197.0535       197.0535       197.0535      -283.19432    
   1375000   699.93705     -4886189.1      197.0535       197.0535       197.0535      -296.76527    
   1376000   699.04666     -4886180.4      197.0535       197.0535       197.0535      -334.98173    
   1377000   700.11936     -4886203.5      197.0535       197.0535       197.0535      -187.13836    
   1378000   699.99811     -4886107.4      197.0535       197.0535       197.0535      -310.2455     
   1379000   699.77187     -4886148.4      197.0535       197.0535       197.0535      -395.17266    
   1380000   700.50846     -4886101.5      197.0535       197.0535       197.0535      -338.84544    
   1381000   698.04603     -4886269.1      197.0535       197.0535       197.0535      -637.66279    
   1382000   699.88985     -4886153.5      197.0535       197.0535       197.0535      -423.75357    
   1383000   700.04723     -4886087.3      197.0535       197.0535       197.0535      -343.20508    
   1384000   699.6836      -4886209.7      197.0535       197.0535       197.0535      -405.24268    
   1385000   699.35933     -4886213.3      197.0535       197.0535       197.0535      -342.70887    
   1386000   701.0695      -4886030.3      197.0535       197.0535       197.0535      -340.44872    
   1387000   699.19839     -4886094.1      197.0535       197.0535       197.0535      -159.07204    
   1388000   700.59874     -4886074.8      197.0535       197.0535       197.0535      -306.52867    
   1389000   698.70014     -4886215.4      197.0535       197.0535       197.0535      -250.22296    
   1390000   699.91373     -4886102.6      197.0535       197.0535       197.0535      -240.53181    
   1391000   701.77322     -4886075        197.0535       197.0535       197.0535      -399.78503    
   1392000   700.46431     -4886073.6      197.0535       197.0535       197.0535      -303.20812    
   1393000   698.5794      -4886129.7      197.0535       197.0535       197.0535      -300.0719     
   1394000   700.82117     -4886080.6      197.0535       197.0535       197.0535      -371.90295    
   1395000   699.92983     -4886174.3      197.0535       197.0535       197.0535      -443.57902    
   1396000   700.34206     -4886044.2      197.0535       197.0535       197.0535      -437.75176    
   1397000   699.34235     -4886189.3      197.0535       197.0535       197.0535      -412.07615    
   1398000   700.78583     -4885982.6      197.0535       197.0535       197.0535      -296.39304    
   1399000   700.53655     -4886068.3      197.0535       197.0535       197.0535      -352.00942    
   1400000   700.09402     -4886112.8      197.0535       197.0535       197.0535      -418.7335     
   1401000   699.57233     -4886174.8      197.0535       197.0535       197.0535      -459.78108    
   1402000   700.14691     -4886196.2      197.0535       197.0535       197.0535      -347.87447    
   1403000   700.63556     -4886111.8      197.0535       197.0535       197.0535      -332.48626    
   1404000   701.09712     -4885867.7      197.0535       197.0535       197.0535      -254.26542    
   1405000   699.82364     -4886118.6      197.0535       197.0535       197.0535      -330.78302    
   1406000   699.63178     -4886170.4      197.0535       197.0535       197.0535      -398.72813    
   1407000   699.0042      -4886098.8      197.0535       197.0535       197.0535      -340.71377    
   1408000   700.06246     -4886116.6      197.0535       197.0535       197.0535      -393.7782     
   1409000   699.97926     -4886123.5      197.0535       197.0535       197.0535      -408.04207    
   1410000   699.07663     -4886187.1      197.0535       197.0535       197.0535      -286.37004    
   1411000   700.70923     -4886090.9      197.0535       197.0535       197.0535      -454.35371    
   1412000   701.97491     -4885992.3      197.0535       197.0535       197.0535      -440.3707     
   1413000   699.47536     -4886160.8      197.0535       197.0535       197.0535      -356.18348    
   1414000   699.5298      -4886124.9      197.0535       197.0535       197.0535      -326.15425    
   1415000   701.23493     -4886096.8      197.0535       197.0535       197.0535      -316.26003    
   1416000   698.99519     -4886161.2      197.0535       197.0535       197.0535      -343.38578    
   1417000   701.7421      -4886073        197.0535       197.0535       197.0535      -404.24128    
   1418000   699.32646     -4886186.4      197.0535       197.0535       197.0535      -298.23434    
   1419000   699.87386     -4886120.9      197.0535       197.0535       197.0535      -311.78534    
   1420000   698.81218     -4886194.1      197.0535       197.0535       197.0535      -446.66036    
   1421000   699.79502     -4886091.7      197.0535       197.0535       197.0535      -387.0991     
   1422000   699.42422     -4886060.9      197.0535       197.0535       197.0535      -337.03591    
   1423000   700.34343     -4886131.7      197.0535       197.0535       197.0535      -466.88236    
   1424000   700.87321     -4886049.9      197.0535       197.0535       197.0535      -433.81175    
   1425000   701.21161     -4886097.7      197.0535       197.0535       197.0535      -329.22033    
   1426000   700.75025     -4886060.6      197.0535       197.0535       197.0535      -311.42658    
   1427000   700.18806     -4886122.7      197.0535       197.0535       197.0535      -294.81778    
   1428000   701.11739     -4886080.1      197.0535       197.0535       197.0535      -292.7973     
   1429000   700.17193     -4886174.2      197.0535       197.0535       197.0535      -301.15118    
   1430000   700.25663     -4886175.1      197.0535       197.0535       197.0535      -377.0296     
   1431000   699.58026     -4886214.7      197.0535       197.0535       197.0535      -414.06452    
   1432000   700.17986     -4886076        197.0535       197.0535       197.0535      -367.73975    
   1433000   699.63086     -4886141.4      197.0535       197.0535       197.0535      -354.55619    
   1434000   700.39974     -4886124.5      197.0535       197.0535       197.0535      -328.6015     
   1435000   697.8184      -4886292.8      197.0535       197.0535       197.0535      -306.65188    
   1436000   700.66025     -4885982.3      197.0535       197.0535       197.0535      -311.13176    
   1437000   699.16815     -4886140.9      197.0535       197.0535       197.0535      -488.51335    
   1438000   699.39288     -4886193.7      197.0535       197.0535       197.0535      -565.48267    
   1439000   699.74513     -4886138        197.0535       197.0535       197.0535      -442.41054    
   1440000   700.27462     -4886013.6      197.0535       197.0535       197.0535      -391.03829    
   1441000   699.11025     -4886066.3      197.0535       197.0535       197.0535      -464.52955    
   1442000   700.92928     -4886061.1      197.0535       197.0535       197.0535      -353.29825    
   1443000   698.82537     -4886188.6      197.0535       197.0535       197.0535      -531.98075    
   1444000   700.41145     -4886051.1      197.0535       197.0535       197.0535      -418.03751    
   1445000   700.05028     -4886184.7      197.0535       197.0535       197.0535      -192.36497    
   1446000   700.22414     -4886214.9      197.0535       197.0535       197.0535      -247.42719    
   1447000   700.85361     -4886144.4      197.0535       197.0535       197.0535      -290.45062    
   1448000   700.21074     -4886108        197.0535       197.0535       197.0535      -444.15173    
   1449000   700.68134     -4886031        197.0535       197.0535       197.0535      -346.34334    
   1450000   699.7064      -4886059.2      197.0535       197.0535       197.0535      -254.26573    
   1451000   699.45137     -4886121.1      197.0535       197.0535       197.0535      -361.68515    
   1452000   700.16171     -4886090.2      197.0535       197.0535       197.0535      -379.86397    
   1453000   700.497       -4886031.6      197.0535       197.0535       197.0535      -349.66619    
   1454000   699.70037     -4886246.2      197.0535       197.0535       197.0535      -455.66593    
   1455000   699.56655     -4886084.8      197.0535       197.0535       197.0535      -385.26937    
   1456000   698.97636     -4886133.9      197.0535       197.0535       197.0535      -312.93528    
   1457000   698.6666      -4886122.5      197.0535       197.0535       197.0535      -325.29848    
   1458000   700.56412     -4886072.5      197.0535       197.0535       197.0535      -438.13083    
   1459000   701.0451      -4886032.1      197.0535       197.0535       197.0535      -306.12353    
   1460000   698.24989     -4886192.2      197.0535       197.0535       197.0535      -438.472      
   1461000   700.76817     -4886031.8      197.0535       197.0535       197.0535      -336.87157    
   1462000   699.57042     -4886210.7      197.0535       197.0535       197.0535      -428.91496    
   1463000   699.85011     -4886081.8      197.0535       197.0535       197.0535      -331.84657    
   1464000   698.72473     -4886191.1      197.0535       197.0535       197.0535      -341.44256    
   1465000   699.88081     -4886158.1      197.0535       197.0535       197.0535      -402.88588    
   1466000   699.61646     -4886139.4      197.0535       197.0535       197.0535      -456.43869    
   1467000   700.88405     -4886108.3      197.0535       197.0535       197.0535      -229.2042     
   1468000   700.01702     -4886110.8      197.0535       197.0535       197.0535      -352.38557    
   1469000   698.98701     -4886088.7      197.0535       197.0535       197.0535      -271.38511    
   1470000   699.87874     -4886118.2      197.0535       197.0535       197.0535      -507.86148    
   1471000   701.57524     -4885960.4      197.0535       197.0535       197.0535      -253.25707    
   1472000   700.81306     -4886097.3      197.0535       197.0535       197.0535      -420.7986     
   1473000   701.25822     -4885955.9      197.0535       197.0535       197.0535      -314.58713    
   1474000   699.98845     -4886114.3      197.0535       197.0535       197.0535      -505.90856    
   1475000   699.1419      -4886129.9      197.0535       197.0535       197.0535      -501.3746     
   1476000   700.83243     -4886031.3      197.0535       197.0535       197.0535      -445.47627    
   1477000   701.2914      -4886034.2      197.0535       197.0535       197.0535      -434.15046    
   1478000   701.78148     -4886048.7      197.0535       197.0535       197.0535      -448.32396    
   1479000   698.47427     -4886198.9      197.0535       197.0535       197.0535      -336.35383    
   1480000   700.64741     -4886043.4      197.0535       197.0535       197.0535      -254.681      
   1481000   699.58853     -4886173.8      197.0535       197.0535       197.0535      -438.62537    
   1482000   700.28588     -4886117.8      197.0535       197.0535       197.0535      -309.48577    
   1483000   701.80253     -4886064.1      197.0535       197.0535       197.0535      -350.35433    
   1484000   699.5446      -4886117.2      197.0535       197.0535       197.0535      -231.9403     
   1485000   699.77259     -4886082.6      197.0535       197.0535       197.0535      -296.77835    
   1486000   701.16861     -4886119.4      197.0535       197.0535       197.0535      -219.97591    
   1487000   699.66736     -4886139        197.0535       197.0535       197.0535      -372.38166    
   1488000   699.32498     -4886180.1      197.0535       197.0535       197.0535      -484.85326    
   1489000   699.89774     -4886109.4      197.0535       197.0535       197.0535      -596.36647    
   1490000   700.15572     -4886092.8      197.0535       197.0535       197.0535      -373.61168    
   1491000   700.34264     -4886094.9      197.0535       197.0535       197.0535      -356.34703    
   1492000   698.94755     -4886171.8      197.0535       197.0535       197.0535      -437.00787    
   1493000   699.23891     -4886152.9      197.0535       197.0535       197.0535      -393.82056    
   1494000   700.14081     -4886240.2      197.0535       197.0535       197.0535      -394.58663    
   1495000   698.97595     -4886116.3      197.0535       197.0535       197.0535      -291.01003    
   1496000   700.66754     -4886129.5      197.0535       197.0535       197.0535      -470.3129     
   1497000   701.06062     -4886002.5      197.0535       197.0535       197.0535      -390.10838    
   1498000   698.95811     -4886186.3      197.0535       197.0535       197.0535      -311.28883    
   1499000   698.6891      -4886304        197.0535       197.0535       197.0535      -485.33786    
   1500000   700.82194     -4886009.5      197.0535       197.0535       197.0535      -374.3522     
   1501000   701.37423     -4886058.7      197.0535       197.0535       197.0535      -326.2853     
   1502000   699.49295     -4886011.5      197.0535       197.0535       197.0535      -308.33058    
   1503000   700.63653     -4886094        197.0535       197.0535       197.0535      -289.80649    
   1504000   699.65642     -4886152        197.0535       197.0535       197.0535      -398.56324    
   1505000   699.4491      -4886086.7      197.0535       197.0535       197.0535      -321.31802    
   1506000   699.05165     -4886185        197.0535       197.0535       197.0535      -364.08273    
   1507000   700.77627     -4886113.8      197.0535       197.0535       197.0535      -438.33424    
   1508000   700.93976     -4886077.4      197.0535       197.0535       197.0535      -429.64891    
   1509000   700.33084     -4886188        197.0535       197.0535       197.0535      -436.44977    
   1510000   700.0957      -4886095.7      197.0535       197.0535       197.0535      -347.88277    
   1511000   701.02682     -4886035.2      197.0535       197.0535       197.0535      -327.69477    
   1512000   700.81728     -4886136.2      197.0535       197.0535       197.0535      -430.42312    
   1513000   701.11038     -4886095        197.0535       197.0535       197.0535      -413.84977    
   1514000   700.74112     -4886063.7      197.0535       197.0535       197.0535      -454.68222    
   1515000   699.20693     -4886197.7      197.0535       197.0535       197.0535      -218.99154    
   1516000   701.05216     -4886002.1      197.0535       197.0535       197.0535      -122.11904    
   1517000   699.9633      -4886050.2      197.0535       197.0535       197.0535      -440.08837    
   1518000   698.33625     -4886217.8      197.0535       197.0535       197.0535      -542.62379    
   1519000   699.21611     -4886106.7      197.0535       197.0535       197.0535      -424.94562    
   1520000   698.58129     -4886185.8      197.0535       197.0535       197.0535      -482.46637    
   1521000   698.1747      -4886204.4      197.0535       197.0535       197.0535      -439.60178    
   1522000   700.36498     -4885945.3      197.0535       197.0535       197.0535      -312.50724    
   1523000   697.80692     -4886221        197.0535       197.0535       197.0535      -441.53599    
   1524000   699.58022     -4886066.8      197.0535       197.0535       197.0535      -449.99685    
   1525000   700.74852     -4886115.6      197.0535       197.0535       197.0535      -632.44524    
   1526000   699.84221     -4886136.4      197.0535       197.0535       197.0535      -377.50658    
   1527000   700.88507     -4886038.9      197.0535       197.0535       197.0535      -326.97109    
   1528000   700.91751     -4886038.6      197.0535       197.0535       197.0535      -203.53482    
   1529000   700.7639      -4886085.4      197.0535       197.0535       197.0535      -302.62369    
   1530000   701.1596      -4886083.8      197.0535       197.0535       197.0535      -425.26966    
   1531000   700.02458     -4886047.7      197.0535       197.0535       197.0535      -261.37389    
   1532000   700.91251     -4886173.6      197.0535       197.0535       197.0535      -429.79377    
   1533000   701.06706     -4886024.4      197.0535       197.0535       197.0535      -452.45464    
   1534000   699.55255     -4886148.7      197.0535       197.0535       197.0535      -416.7799     
   1535000   700.18863     -4886164.2      197.0535       197.0535       197.0535      -246.34426    
   1536000   699.06677     -4886262        197.0535       197.0535       197.0535      -404.85631    
   1537000   699.48544     -4886258.1      197.0535       197.0535       197.0535      -273.52633    
   1538000   699.87076     -4886167.6      197.0535       197.0535       197.0535      -260.13399    
   1539000   699.73038     -4886133.1      197.0535       197.0535       197.0535      -327.06923    
   1540000   700.11219     -4886130.7      197.0535       197.0535       197.0535      -246.84039    
   1541000   701.28779     -4886019.8      197.0535       197.0535       197.0535      -236.34052    
   1542000   700.47282     -4886060.3      197.0535       197.0535       197.0535      -318.9969     
   1543000   699.92349     -4886203.8      197.0535       197.0535       197.0535      -535.48766    
   1544000   699.24046     -4886153.2      197.0535       197.0535       197.0535      -465.23476    
   1545000   699.39533     -4886151.9      197.0535       197.0535       197.0535      -321.15874    
   1546000   699.71933     -4886158.8      197.0535       197.0535       197.0535      -442.42673    
   1547000   700.09731     -4886237        197.0535       197.0535       197.0535      -466.70478    
   1548000   698.73334     -4886159.1      197.0535       197.0535       197.0535      -520.98731    
   1549000   700.60162     -4886156.5      197.0535       197.0535       197.0535      -410.53163    
   1550000   700.70447     -4886220.3      197.0535       197.0535       197.0535      -436.4274     
   1551000   700.27491     -4886081.9      197.0535       197.0535       197.0535      -403.68149    
   1552000   699.34129     -4886181.8      197.0535       197.0535       197.0535      -489.86655    
   1553000   699.98578     -4886121.2      197.0535       197.0535       197.0535      -490.57427    
   1554000   699.72091     -4886160.8      197.0535       197.0535       197.0535      -437.74013    
   1555000   700.96133     -4886039.9      197.0535       197.0535       197.0535      -345.6639     
   1556000   700.48711     -4886125.5      197.0535       197.0535       197.0535      -367.14018    
   1557000   700.72662     -4886101.7      197.0535       197.0535       197.0535      -377.68046    
   1558000   700.11587     -4886060.9      197.0535       197.0535       197.0535      -488.63122    
   1559000   699.58886     -4886121.1      197.0535       197.0535       197.0535      -436.24578    
   1560000   700.14037     -4886074.1      197.0535       197.0535       197.0535      -368.75387    
   1561000   698.1111      -4886259.4      197.0535       197.0535       197.0535      -431.98281    
   1562000   700.33036     -4886126.5      197.0535       197.0535       197.0535      -440.25915    
   1563000   701.40432     -4886086.7      197.0535       197.0535       197.0535      -388.08601    
   1564000   699.91929     -4886168.1      197.0535       197.0535       197.0535      -435.23857    
   1565000   699.53314     -4886144.9      197.0535       197.0535       197.0535      -375.51979    
   1566000   699.92945     -4886111.3      197.0535       197.0535       197.0535      -391.71419    
   1567000   700.34037     -4886161.7      197.0535       197.0535       197.0535      -325.39455    
   1568000   700.48694     -4886176.5      197.0535       197.0535       197.0535      -453.91496    
   1569000   699.29845     -4886208.5      197.0535       197.0535       197.0535      -424.38054    
   1570000   700.58558     -4886187.1      197.0535       197.0535       197.0535      -342.53514    
   1571000   700.24916     -4886057.7      197.0535       197.0535       197.0535      -206.50801    
   1572000   699.81252     -4886111.5      197.0535       197.0535       197.0535      -261.40049    
   1573000   700.2721      -4886178.4      197.0535       197.0535       197.0535      -323.88332    
   1574000   701.31988     -4886022.2      197.0535       197.0535       197.0535      -251.12672    
   1575000   699.25962     -4886125.1      197.0535       197.0535       197.0535      -265.43116    
   1576000   701.55762     -4886001.6      197.0535       197.0535       197.0535      -411.85328    
   1577000   701.13886     -4886055.2      197.0535       197.0535       197.0535      -443.30185    
   1578000   700.03159     -4886105.2      197.0535       197.0535       197.0535      -504.13737    
   1579000   700.14496     -4886208.9      197.0535       197.0535       197.0535      -375.50195    
   1580000   697.60199     -4886287.6      197.0535       197.0535       197.0535      -327.69329    
   1581000   697.89399     -4886295.3      197.0535       197.0535       197.0535      -535.58246    
   1582000   699.06313     -4886200.9      197.0535       197.0535       197.0535      -294.82095    
   1583000   700.73074     -4886155.2      197.0535       197.0535       197.0535      -373.46901    
   1584000   699.96002     -4886123.9      197.0535       197.0535       197.0535      -217.86013    
   1585000   701.21453     -4886130.1      197.0535       197.0535       197.0535      -376.98321    
   1586000   701.31421     -4886001.4      197.0535       197.0535       197.0535      -304.84189    
   1587000   701.94733     -4886085        197.0535       197.0535       197.0535      -361.39103    
   1588000   700.07883     -4886186.7      197.0535       197.0535       197.0535      -300.19492    
   1589000   699.89331     -4886125.4      197.0535       197.0535       197.0535      -249.14344    
   1590000   700.64947     -4886117.5      197.0535       197.0535       197.0535      -342.08798    
   1591000   700.67615     -4886081.7      197.0535       197.0535       197.0535      -326.05559    
   1592000   699.85964     -4886105.7      197.0535       197.0535       197.0535      -380.71092    
   1593000   700.61042     -4886149.1      197.0535       197.0535       197.0535      -344.34573    
   1594000   699.33489     -4886092.8      197.0535       197.0535       197.0535      -292.43037    
   1595000   699.22661     -4886175.9      197.0535       197.0535       197.0535      -414.5699     
   1596000   700.00798     -4886055.6      197.0535       197.0535       197.0535      -391.39903    
   1597000   699.83233     -4886148.8      197.0535       197.0535       197.0535      -472.07728    
   1598000   699.64254     -4886133.4      197.0535       197.0535       197.0535      -420.74036    
   1599000   700.16627     -4886149.2      197.0535       197.0535       197.0535      -301.76887    
   1600000   699.65664     -4886147.1      197.0535       197.0535       197.0535      -156.65098    
   1601000   698.68226     -4886165.3      197.0535       197.0535       197.0535      -268.67673    
   1602000   701.52555     -4886038.6      197.0535       197.0535       197.0535      -422.98167    
   1603000   700.87206     -4886087.5      197.0535       197.0535       197.0535      -240.6586     
   1604000   701.04008     -4886107.9      197.0535       197.0535       197.0535      -215.47663    
   1605000   701.3207      -4885968.2      197.0535       197.0535       197.0535      -281.09118    
   1606000   699.7223      -4886080        197.0535       197.0535       197.0535      -444.30048    
   1607000   700.73642     -4886092.4      197.0535       197.0535       197.0535      -338.5303     
   1608000   699.7056      -4886158.4      197.0535       197.0535       197.0535      -455.75059    
   1609000   699.84817     -4886159.9      197.0535       197.0535       197.0535      -376.77676    
   1610000   698.68704     -4886208.2      197.0535       197.0535       197.0535      -452.14935    
   1611000   698.99239     -4886134.2      197.0535       197.0535       197.0535      -532.3725     
   1612000   700.13866     -4886182.3      197.0535       197.0535       197.0535      -384.55691    
   1613000   700.51908     -4886176.3      197.0535       197.0535       197.0535      -413.48919    
   1614000   700.52017     -4886074.4      197.0535       197.0535       197.0535      -446.86108    
   1615000   698.98487     -4886285.5      197.0535       197.0535       197.0535      -309.94552    
   1616000   701.46501     -4886056        197.0535       197.0535       197.0535      -277.68103    
   1617000   700.45983     -4886103.9      197.0535       197.0535       197.0535      -339.55838    
   1618000   700.79493     -4886121.7      197.0535       197.0535       197.0535      -269.73981    
   1619000   701.66935     -4886052.7      197.0535       197.0535       197.0535      -368.92698    
   1620000   699.13684     -4886238.4      197.0535       197.0535       197.0535      -230.63058    
   1621000   700.43639     -4886180.8      197.0535       197.0535       197.0535      -422.77275    
   1622000   699.85591     -4886122.3      197.0535       197.0535       197.0535      -313.29522    
   1623000   699.9968      -4886191.2      197.0535       197.0535       197.0535      -370.89148    
   1624000   702.18184     -4886003.6      197.0535       197.0535       197.0535      -421.16865    
   1625000   698.75242     -4886189.3      197.0535       197.0535       197.0535      -347.96427    
   1626000   699.16614     -4886268.1      197.0535       197.0535       197.0535      -595.80946    
   1627000   700.78472     -4886152.3      197.0535       197.0535       197.0535      -562.98352    
   1628000   701.82747     -4885996.9      197.0535       197.0535       197.0535      -359.34145    
   1629000   700.75941     -4886098.9      197.0535       197.0535       197.0535      -525.29033    
   1630000   699.07977     -4886277.9      197.0535       197.0535       197.0535      -305.87781    
   1631000   699.52893     -4886099.6      197.0535       197.0535       197.0535      -386.26164    
   1632000   699.59068     -4886174.8      197.0535       197.0535       197.0535      -383.12185    
   1633000   700.89693     -4886119.2      197.0535       197.0535       197.0535      -302.34078    
   1634000   700.08722     -4886168.6      197.0535       197.0535       197.0535      -390.91066    
   1635000   700.05081     -4886157.8      197.0535       197.0535       197.0535      -428.74105    
   1636000   700.50229     -4886137.4      197.0535       197.0535       197.0535      -319.89212    
   1637000   700.32987     -4886244.4      197.0535       197.0535       197.0535      -385.05646    
   1638000   700.05632     -4886197.7      197.0535       197.0535       197.0535      -304.98642    
   1639000   701.44407     -4886101.7      197.0535       197.0535       197.0535      -396.45099    
   1640000   698.66985     -4886224.8      197.0535       197.0535       197.0535      -315.0314     
   1641000   699.29982     -4886202.5      197.0535       197.0535       197.0535      -360.89396    
   1642000   698.58739     -4886293.7      197.0535       197.0535       197.0535      -403.52002    
   1643000   698.98359     -4886105.5      197.0535       197.0535       197.0535      -327.49842    
   1644000   701.10194     -4886038.5      197.0535       197.0535       197.0535      -474.02393    
   1645000   699.31656     -4886200.4      197.0535       197.0535       197.0535      -433.43061    
   1646000   701.23998     -4886030.4      197.0535       197.0535       197.0535      -302.2478     
   1647000   700.70581     -4886101.7      197.0535       197.0535       197.0535      -307.56768    
   1648000   700.67065     -4886094.4      197.0535       197.0535       197.0535      -348.76241    
   1649000   699.87143     -4886140.7      197.0535       197.0535       197.0535      -329.22464    
   1650000   700.53732     -4886171.9      197.0535       197.0535       197.0535      -351.16745    
   1651000   700.03759     -4886079.5      197.0535       197.0535       197.0535      -271.929      
   1652000   699.08617     -4886184.6      197.0535       197.0535       197.0535      -481.36496    
   1653000   700.31378     -4886091.3      197.0535       197.0535       197.0535      -546.62915    
   1654000   700.69843     -4886142.5      197.0535       197.0535       197.0535      -506.79855    
   1655000   698.78799     -4886200        197.0535       197.0535       197.0535      -366.0879     
   1656000   699.43363     -4886065.3      197.0535       197.0535       197.0535      -294.82936    
   1657000   700.84807     -4885963        197.0535       197.0535       197.0535      -419.63047    
   1658000   700.08774     -4886156.6      197.0535       197.0535       197.0535      -274.7639     
   1659000   699.49598     -4886263        197.0535       197.0535       197.0535      -401.24192    
   1660000   701.90775     -4886012.4      197.0535       197.0535       197.0535      -421.82988    
   1661000   700.66658     -4886037.3      197.0535       197.0535       197.0535      -436.89885    
   1662000   698.91752     -4886131.4      197.0535       197.0535       197.0535      -240.53951    
   1663000   699.29875     -4886181.2      197.0535       197.0535       197.0535      -242.60009    
   1664000   698.56418     -4886210.2      197.0535       197.0535       197.0535      -314.80122    
   1665000   699.4982      -4886271.5      197.0535       197.0535       197.0535      -294.78903    
   1666000   698.89982     -4886234.7      197.0535       197.0535       197.0535      -311.08546    
   1667000   699.63367     -4886127.8      197.0535       197.0535       197.0535      -280.28491    
   1668000   699.6359      -4886231.1      197.0535       197.0535       197.0535      -313.79456    
   1669000   698.87889     -4886206.7      197.0535       197.0535       197.0535      -286.00808    
   1670000   699.02265     -4886273.5      197.0535       197.0535       197.0535      -412.95965    
   1671000   700.41578     -4886137.4      197.0535       197.0535       197.0535      -273.70483    
   1672000   701.13274     -4886117.8      197.0535       197.0535       197.0535      -359.65639    
   1673000   699.14066     -4886213.2      197.0535       197.0535       197.0535      -244.32827    
   1674000   699.2147      -4886208.2      197.0535       197.0535       197.0535      -408.88791    
   1675000   700.06327     -4886068.5      197.0535       197.0535       197.0535      -402.23537    
   1676000   700.04098     -4886182.6      197.0535       197.0535       197.0535      -431.76365    
   1677000   699.25648     -4886187.3      197.0535       197.0535       197.0535      -382.19797    
   1678000   698.9763      -4886238.6      197.0535       197.0535       197.0535      -465.81677    
   1679000   700.78857     -4886039.3      197.0535       197.0535       197.0535      -541.39449    
   1680000   700.2736      -4886041.3      197.0535       197.0535       197.0535      -471.20664    
   1681000   699.13017     -4886152.6      197.0535       197.0535       197.0535      -388.7262     
   1682000   699.47843     -4886162        197.0535       197.0535       197.0535      -552.12662    
   1683000   699.48666     -4886130.7      197.0535       197.0535       197.0535      -453.85454    
   1684000   699.84973     -4886134.7      197.0535       197.0535       197.0535      -376.77563    
   1685000   699.70514     -4886108.1      197.0535       197.0535       197.0535      -405.36831    
   1686000   700.06577     -4886128.8      197.0535       197.0535       197.0535      -418.96001    
   1687000   701.13886     -4886049.4      197.0535       197.0535       197.0535      -374.40819    
   1688000   699.86921     -4886160.2      197.0535       197.0535       197.0535      -387.02691    
   1689000   698.90918     -4886134.2      197.0535       197.0535       197.0535      -337.74012    
   1690000   702.53184     -4885963.3      197.0535       197.0535       197.0535      -308.35348    
   1691000   699.62302     -4886181        197.0535       197.0535       197.0535      -326.26922    
   1692000   699.48266     -4886182.2      197.0535       197.0535       197.0535      -196.86477    
   1693000   699.67109     -4886152.9      197.0535       197.0535       197.0535      -254.38826    
   1694000   698.66186     -4886119.6      197.0535       197.0535       197.0535      -308.57345    
   1695000   699.8037      -4886144.4      197.0535       197.0535       197.0535      -281.72432    
   1696000   699.22604     -4886232.3      197.0535       197.0535       197.0535      -312.58814    
   1697000   700.36407     -4886113        197.0535       197.0535       197.0535      -255.98758    
   1698000   700.83477     -4886091.5      197.0535       197.0535       197.0535      -299.11542    
   1699000   700.19114     -4886060.9      197.0535       197.0535       197.0535      -483.21082    
   1700000   701.10225     -4886042.2      197.0535       197.0535       197.0535      -462.68753    
   1701000   700.60319     -4886113        197.0535       197.0535       197.0535      -344.77939    
   1702000   700.39908     -4886135.5      197.0535       197.0535       197.0535      -329.94373    
   1703000   699.72228     -4886187.5      197.0535       197.0535       197.0535      -415.79862    
   1704000   698.2008      -4886230.6      197.0535       197.0535       197.0535      -432.12205    
   1705000   699.38169     -4886057.6      197.0535       197.0535       197.0535      -346.2931     
   1706000   699.77567     -4886183.5      197.0535       197.0535       197.0535      -274.0346     
   1707000   699.63802     -4886092.6      197.0535       197.0535       197.0535      -427.99863    
   1708000   701.30633     -4886045.2      197.0535       197.0535       197.0535      -478.61926    
   1709000   701.36949     -4886124.4      197.0535       197.0535       197.0535      -455.44307    
   1710000   698.78418     -4886174.1      197.0535       197.0535       197.0535      -407.66237    
   1711000   699.81674     -4886116.3      197.0535       197.0535       197.0535      -431.29994    
   1712000   700.89288     -4886142.5      197.0535       197.0535       197.0535      -298.34124    
   1713000   699.11409     -4886213.5      197.0535       197.0535       197.0535      -367.68456    
   1714000   699.02714     -4886173.8      197.0535       197.0535       197.0535      -488.41284    
   1715000   699.60937     -4886162.3      197.0535       197.0535       197.0535      -335.85094    
   1716000   698.78873     -4886163        197.0535       197.0535       197.0535      -251.20847    
   1717000   699.8015      -4886142.5      197.0535       197.0535       197.0535      -362.36263    
   1718000   699.59416     -4886218.8      197.0535       197.0535       197.0535      -342.13476    
   1719000   699.79156     -4886067.9      197.0535       197.0535       197.0535      -418.56416    
   1720000   699.6367      -4886130.6      197.0535       197.0535       197.0535      -346.11624    
   1721000   700.09243     -4886087.5      197.0535       197.0535       197.0535      -295.22874    
   1722000   700.44106     -4886071.8      197.0535       197.0535       197.0535      -433.62503    
   1723000   700.12319     -4886161.3      197.0535       197.0535       197.0535      -237.32236    
   1724000   699.74084     -4886189.3      197.0535       197.0535       197.0535      -505.40404    
   1725000   699.3433      -4886170.2      197.0535       197.0535       197.0535      -462.33516    
   1726000   699.45027     -4886045.9      197.0535       197.0535       197.0535      -379.283      
   1727000   700.81901     -4886193.9      197.0535       197.0535       197.0535      -299.87674    
   1728000   700.35183     -4886153.7      197.0535       197.0535       197.0535      -419.3607     
   1729000   702.32344     -4886149.3      197.0535       197.0535       197.0535      -439.74563    
   1730000   698.8949      -4886170.2      197.0535       197.0535       197.0535      -323.31259    
   1731000   701.51043     -4886096.7      197.0535       197.0535       197.0535      -339.14336    
   1732000   701.0806      -4886037.4      197.0535       197.0535       197.0535      -396.30912    
   1733000   700.50182     -4886182.2      197.0535       197.0535       197.0535      -456.5548     
   1734000   698.97254     -4886234.1      197.0535       197.0535       197.0535      -355.30928    
   1735000   702.27086     -4886052.9      197.0535       197.0535       197.0535      -433.65368    
   1736000   699.58774     -4886075.4      197.0535       197.0535       197.0535      -400.13816    
   1737000   700.33002     -4886265.2      197.0535       197.0535       197.0535      -352.57498    
   1738000   700.45215     -4886090.3      197.0535       197.0535       197.0535      -253.82993    
   1739000   700.58535     -4886056.9      197.0535       197.0535       197.0535      -347.37265    
   1740000   700.04925     -4886169.1      197.0535       197.0535       197.0535      -438.7571     
   1741000   699.3676      -4886156.5      197.0535       197.0535       197.0535      -392.76657    
   1742000   699.66787     -4886092.9      197.0535       197.0535       197.0535      -390.61536    
   1743000   699.66068     -4886119.1      197.0535       197.0535       197.0535      -386.05854    
   1744000   699.77919     -4886119.2      197.0535       197.0535       197.0535      -370.1415     
   1745000   699.21709     -4886198.3      197.0535       197.0535       197.0535      -433.71291    
   1746000   699.40529     -4886241.5      197.0535       197.0535       197.0535      -192.77198    
   1747000   697.83386     -4886260.3      197.0535       197.0535       197.0535      -354.46837    
   1748000   700.47346     -4886047.6      197.0535       197.0535       197.0535      -308.57381    
   1749000   699.7933      -4886212.2      197.0535       197.0535       197.0535      -394.74236    
   1750000   699.74157     -4886144        197.0535       197.0535       197.0535      -192.31008    
   1751000   701.00846     -4886129        197.0535       197.0535       197.0535      -403.84429    
   1752000   699.26124     -4886192.4      197.0535       197.0535       197.0535      -442.48636    
   1753000   700.34487     -4886149.3      197.0535       197.0535       197.0535      -409.51973    
   1754000   699.85837     -4886117.5      197.0535       197.0535       197.0535      -352.54768    
   1755000   700.16493     -4886151.7      197.0535       197.0535       197.0535      -569.10004    
   1756000   699.73724     -4886040        197.0535       197.0535       197.0535      -424.40354    
   1757000   701.24471     -4886084.8      197.0535       197.0535       197.0535      -557.54928    
   1758000   701.62405     -4885976.4      197.0535       197.0535       197.0535      -262.11206    
   1759000   700.01517     -4886081.7      197.0535       197.0535       197.0535      -341.61042    
   1760000   701.4824      -4886016.4      197.0535       197.0535       197.0535      -328.40409    
   1761000   699.33669     -4886216.8      197.0535       197.0535       197.0535      -309.16351    
   1762000   700.45304     -4886168.7      197.0535       197.0535       197.0535      -356.79316    
   1763000   699.55196     -4886192.1      197.0535       197.0535       197.0535      -372.92445    
   1764000   699.5986      -4886147.2      197.0535       197.0535       197.0535      -414.62422    
   1765000   700.20842     -4886127.9      197.0535       197.0535       197.0535      -321.9371     
   1766000   700.53646     -4886104        197.0535       197.0535       197.0535      -331.54929    
   1767000   699.47391     -4886087.8      197.0535       197.0535       197.0535      -276.36589    
   1768000   699.58575     -4886165.4      197.0535       197.0535       197.0535      -300.10353    
   1769000   701.95179     -4885990.3      197.0535       197.0535       197.0535      -304.67525    
   1770000   701.21288     -4886103.9      197.0535       197.0535       197.0535      -372.32672    
   1771000   700.65874     -4886157.3      197.0535       197.0535       197.0535      -292.52982    
   1772000   702.26833     -4886023.8      197.0535       197.0535       197.0535      -294.74396    
   1773000   700.15181     -4886102.2      197.0535       197.0535       197.0535      -425.98187    
   1774000   702.0821      -4885982.7      197.0535       197.0535       197.0535      -248.77795    
   1775000   698.91249     -4886260.6      197.0535       197.0535       197.0535      -434.18663    
   1776000   700.00305     -4886091.6      197.0535       197.0535       197.0535      -410.21586    
   1777000   698.83668     -4886176.4      197.0535       197.0535       197.0535      -388.31282    
   1778000   699.59533     -4886143.2      197.0535       197.0535       197.0535      -262.81579    
   1779000   698.21399     -4886265.1      197.0535       197.0535       197.0535      -356.83547    
   1780000   700.26649     -4886060.9      197.0535       197.0535       197.0535      -233.7264     
   1781000   700.65432     -4886090.1      197.0535       197.0535       197.0535      -380.90976    
   1782000   700.57473     -4886136.9      197.0535       197.0535       197.0535      -204.19805    
   1783000   699.33216     -4886292.3      197.0535       197.0535       197.0535      -281.08698    
   1784000   698.4635      -4886352.8      197.0535       197.0535       197.0535      -360.57065    
   1785000   698.79093     -4886217.3      197.0535       197.0535       197.0535      -299.1247     
   1786000   699.51799     -4886167.9      197.0535       197.0535       197.0535      -371.91802    
   1787000   699.3861      -4886303.3      197.0535       197.0535       197.0535      -328.27628    
   1788000   699.78675     -4886173.3      197.0535       197.0535       197.0535      -547.49336    
   1789000   698.9611      -4886184.8      197.0535       197.0535       197.0535      -440.88712    
   1790000   700.29153     -4886140        197.0535       197.0535       197.0535      -325.11335    
   1791000   699.29499     -4886245.6      197.0535       197.0535       197.0535      -449.72586    
   1792000   700.21764     -4886061.6      197.0535       197.0535       197.0535      -249.64293    
   1793000   702.30518     -4886017.4      197.0535       197.0535       197.0535      -321.16036    
   1794000   700.33017     -4886111.3      197.0535       197.0535       197.0535      -392.56207    
   1795000   699.17673     -4886183.6      197.0535       197.0535       197.0535      -461.6656     
   1796000   700.18421     -4886123        197.0535       197.0535       197.0535      -413.20949    
   1797000   699.85741     -4886173.4      197.0535       197.0535       197.0535      -308.49847    
   1798000   697.8768      -4886236        197.0535       197.0535       197.0535      -401.40307    
   1799000   699.80181     -4886117        197.0535       197.0535       197.0535      -505.58991    
   1800000   701.52268     -4885933.3      197.0535       197.0535       197.0535      -309.36931    
   1801000   699.06329     -4886264.4      197.0535       197.0535       197.0535      -473.65456    
   1802000   700.13647     -4886155.1      197.0535       197.0535       197.0535      -348.32832    
   1803000   699.98453     -4886107.4      197.0535       197.0535       197.0535      -542.88318    
   1804000   699.7301      -4886075.9      197.0535       197.0535       197.0535      -533.63007    
   1805000   699.23079     -4886176        197.0535       197.0535       197.0535      -464.36211    
   1806000   700.23488     -4886142.9      197.0535       197.0535       197.0535      -371.02234    
   1807000   700.38844     -4886144.4      197.0535       197.0535       197.0535      -397.87504    
   1808000   701.82878     -4886049.8      197.0535       197.0535       197.0535      -420.30755    
   1809000   699.8741      -4886161.2      197.0535       197.0535       197.0535      -469.99613    
   1810000   700.06222     -4886199.5      197.0535       197.0535       197.0535      -678.5731     
   1811000   700.34788     -4886131.6      197.0535       197.0535       197.0535      -461.4895     
   1812000   700.25032     -4886087        197.0535       197.0535       197.0535      -578.04682    
   1813000   702.36096     -4886001.6      197.0535       197.0535       197.0535      -490.06982    
   1814000   699.04034     -4886134.4      197.0535       197.0535       197.0535      -399.23187    
   1815000   698.89928     -4886258        197.0535       197.0535       197.0535      -273.39703    
   1816000   701.04635     -4886107.1      197.0535       197.0535       197.0535      -348.30281    
   1817000   698.79608     -4886219.6      197.0535       197.0535       197.0535      -360.17975    
   1818000   701.30438     -4886044        197.0535       197.0535       197.0535      -404.24991    
   1819000   699.01382     -4886288.8      197.0535       197.0535       197.0535      -365.83831    
   1820000   699.96331     -4886150.2      197.0535       197.0535       197.0535      -355.41592    
   1821000   699.75165     -4886158.7      197.0535       197.0535       197.0535      -411.15074    
   1822000   701.18478     -4886181.4      197.0535       197.0535       197.0535      -305.5177     
   1823000   700.05729     -4886155.6      197.0535       197.0535       197.0535      -323.21362    
   1824000   700.85601     -4886133.7      197.0535       197.0535       197.0535      -540.40445    
   1825000   698.16423     -4886201.8      197.0535       197.0535       197.0535      -424.17216    
   1826000   697.90655     -4886225.5      197.0535       197.0535       197.0535      -254.03192    
   1827000   700.99757     -4886031.8      197.0535       197.0535       197.0535      -334.93555    
   1828000   700.164       -4886243.2      197.0535       197.0535       197.0535      -454.51212    
   1829000   699.80038     -4886180.4      197.0535       197.0535       197.0535      -319.16178    
   1830000   700.6057      -4886093.5      197.0535       197.0535       197.0535      -400.3459     
   1831000   699.25964     -4886161        197.0535       197.0535       197.0535      -370.51135    
   1832000   698.24885     -4886167        197.0535       197.0535       197.0535      -257.63368    
   1833000   701.08651     -4886083.7      197.0535       197.0535       197.0535      -339.60266    
   1834000   699.96541     -4886199        197.0535       197.0535       197.0535      -373.40652    
   1835000   699.69965     -4886194.5      197.0535       197.0535       197.0535      -441.86076    
   1836000   698.75309     -4886272.1      197.0535       197.0535       197.0535      -338.5297     
   1837000   700.95021     -4886096.2      197.0535       197.0535       197.0535      -287.77551    
   1838000   701.3105      -4886001.2      197.0535       197.0535       197.0535      -273.45403    
   1839000   699.94026     -4886198.6      197.0535       197.0535       197.0535      -205.0916     
   1840000   701.83615     -4886048.5      197.0535       197.0535       197.0535      -321.54214    
   1841000   700.82524     -4886090.5      197.0535       197.0535       197.0535      -347.21136    
   1842000   700.47454     -4886130.2      197.0535       197.0535       197.0535      -418.29399    
   1843000   700.49915     -4886122.2      197.0535       197.0535       197.0535      -201.72989    
   1844000   699.12444     -4886197.3      197.0535       197.0535       197.0535      -365.56119    
   1845000   700.48109     -4886072.5      197.0535       197.0535       197.0535      -405.08548    
   1846000   699.97227     -4886109.1      197.0535       197.0535       197.0535      -327.55278    
   1847000   700.83174     -4886110.4      197.0535       197.0535       197.0535      -265.90035    
   1848000   700.91486     -4886057.6      197.0535       197.0535       197.0535      -546.06624    
   1849000   699.6492      -4886135.7      197.0535       197.0535       197.0535      -370.77289    
   1850000   698.95317     -4886165.6      197.0535       197.0535       197.0535      -425.72777    
   1851000   699.09036     -4886195.2      197.0535       197.0535       197.0535      -375.84573    
   1852000   702.10877     -4886039.5      197.0535       197.0535       197.0535      -397.21508    
   1853000   701.07573     -4886115.5      197.0535       197.0535       197.0535      -330.86002    
   1854000   700.86397     -4886088.5      197.0535       197.0535       197.0535      -411.8163     
   1855000   700.16218     -4886138.8      197.0535       197.0535       197.0535      -383.97265    
   1856000   698.18123     -4886312.2      197.0535       197.0535       197.0535      -446.11737    
   1857000   700.74077     -4886080.4      197.0535       197.0535       197.0535      -384.06612    
   1858000   700.78328     -4886160.7      197.0535       197.0535       197.0535      -398.16415    
   1859000   699.0717      -4886241        197.0535       197.0535       197.0535      -387.44777    
   1860000   701.09495     -4886041.3      197.0535       197.0535       197.0535      -331.90998    
   1861000   699.06299     -4886176.3      197.0535       197.0535       197.0535      -415.03207    
   1862000   700.57584     -4886150.8      197.0535       197.0535       197.0535      -361.96529    
   1863000   699.59138     -4886191.2      197.0535       197.0535       197.0535      -484.79092    
   1864000   700.31478     -4886106.8      197.0535       197.0535       197.0535      -253.0027     
   1865000   700.48733     -4886090        197.0535       197.0535       197.0535      -300.60517    
   1866000   698.52671     -4886329.3      197.0535       197.0535       197.0535      -352.06068    
   1867000   699.82945     -4886136.7      197.0535       197.0535       197.0535      -343.85654    
   1868000   698.85045     -4886245.5      197.0535       197.0535       197.0535      -533.57292    
   1869000   700.96962     -4886096.8      197.0535       197.0535       197.0535      -438.7674     
   1870000   699.27102     -4886177        197.0535       197.0535       197.0535      -300.94818    
   1871000   700.94727     -4886154.6      197.0535       197.0535       197.0535      -329.9634     
   1872000   698.54353     -4886226        197.0535       197.0535       197.0535      -415.75294    
   1873000   699.63054     -4886177        197.0535       197.0535       197.0535      -273.52088    
   1874000   699.91331     -4886130.3      197.0535       197.0535       197.0535      -261.90043    
   1875000   700.68938     -4886080        197.0535       197.0535       197.0535      -214.13939    
   1876000   700.03718     -4886225.4      197.0535       197.0535       197.0535      -415.70196    
   1877000   699.51484     -4886308.7      197.0535       197.0535       197.0535      -457.0491     
   1878000   700.22077     -4886163        197.0535       197.0535       197.0535      -304.39755    
   1879000   701.11919     -4886158.5      197.0535       197.0535       197.0535      -533.90545    
   1880000   700.01449     -4886168.2      197.0535       197.0535       197.0535      -367.71445    
   1881000   699.01197     -4886184.9      197.0535       197.0535       197.0535      -444.98412    
   1882000   700.73903     -4886111.6      197.0535       197.0535       197.0535      -315.21488    
   1883000   700.37444     -4886090.2      197.0535       197.0535       197.0535      -295.62987    
   1884000   700.68121     -4886144.4      197.0535       197.0535       197.0535      -421.47129    
   1885000   699.634       -4886201.1      197.0535       197.0535       197.0535      -283.99483    
   1886000   700.50819     -4886156.6      197.0535       197.0535       197.0535      -398.39498    
   1887000   699.94663     -4886183.9      197.0535       197.0535       197.0535      -340.97038    
   1888000   700.55906     -4886210.2      197.0535       197.0535       197.0535      -264.31227    
   1889000   698.41971     -4886281.3      197.0535       197.0535       197.0535      -418.97917    
   1890000   699.71025     -4886117.3      197.0535       197.0535       197.0535      -348.13336    
   1891000   699.27898     -4886229.6      197.0535       197.0535       197.0535      -309.60061    
   1892000   700.00673     -4886071.1      197.0535       197.0535       197.0535      -312.34634    
   1893000   700.13928     -4886198.4      197.0535       197.0535       197.0535      -388.75325    
   1894000   698.32692     -4886236.1      197.0535       197.0535       197.0535      -535.39034    
   1895000   699.71081     -4886148.8      197.0535       197.0535       197.0535      -475.40775    
   1896000   700.36909     -4886186.4      197.0535       197.0535       197.0535      -427.74685    
   1897000   699.09884     -4886123.7      197.0535       197.0535       197.0535      -337.85265    
   1898000   699.73983     -4886160.8      197.0535       197.0535       197.0535      -346.54719    
   1899000   700.62986     -4886119.8      197.0535       197.0535       197.0535      -529.65709    
   1900000   699.88221     -4886122.1      197.0535       197.0535       197.0535      -434.89677    
   1901000   700.40794     -4886158.3      197.0535       197.0535       197.0535      -380.81705    
   1902000   700.37086     -4886149.5      197.0535       197.0535       197.0535      -404.08887    
   1903000   699.7747      -4886176.1      197.0535       197.0535       197.0535      -492.9502     
   1904000   698.50653     -4886209.8      197.0535       197.0535       197.0535      -388.08282    
   1905000   699.99483     -4886173.5      197.0535       197.0535       197.0535      -437.44013    
   1906000   701.59418     -4886058.6      197.0535       197.0535       197.0535      -344.38509    
   1907000   701.11575     -4886067.1      197.0535       197.0535       197.0535      -373.16676    
   1908000   699.4494      -4886224.7      197.0535       197.0535       197.0535      -414.81023    
   1909000   699.00509     -4886237.4      197.0535       197.0535       197.0535      -370.49516    
   1910000   699.48653     -4886219.8      197.0535       197.0535       197.0535      -246.6079     
   1911000   700.41645     -4886074.8      197.0535       197.0535       197.0535      -473.60662    
   1912000   699.02794     -4886148.1      197.0535       197.0535       197.0535      -434.75691    
   1913000   698.53466     -4886173.6      197.0535       197.0535       197.0535      -342.29261    
   1914000   700.04379     -4886183        197.0535       197.0535       197.0535      -391.68729    
   1915000   700.47244     -4886170.6      197.0535       197.0535       197.0535      -496.85962    
   1916000   699.99916     -4886142.9      197.0535       197.0535       197.0535      -320.69075    
   1917000   700.47782     -4886121.3      197.0535       197.0535       197.0535      -364.10988    
   1918000   702.15097     -4886027.4      197.0535       197.0535       197.0535      -353.3191     
   1919000   700.56592     -4886136.3      197.0535       197.0535       197.0535      -490.60347    
   1920000   700.27304     -4886049.3      197.0535       197.0535       197.0535      -356.10933    
   1921000   700.35696     -4886259        197.0535       197.0535       197.0535      -449.68968    
   1922000   700.70456     -4886058        197.0535       197.0535       197.0535      -395.95809    
   1923000   699.3135      -4886143.5      197.0535       197.0535       197.0535      -525.61055    
   1924000   699.75507     -4886202.4      197.0535       197.0535       197.0535      -474.29299    
   1925000   699.7862      -4886144.4      197.0535       197.0535       197.0535      -398.40472    
   1926000   700.30634     -4886066.4      197.0535       197.0535       197.0535      -420.45438    
   1927000   698.76281     -4886174.6      197.0535       197.0535       197.0535      -478.83787    
   1928000   700.54271     -4886146.7      197.0535       197.0535       197.0535      -396.65108    
   1929000   699.46893     -4886133.7      197.0535       197.0535       197.0535      -488.47872    
   1930000   700.90551     -4886065        197.0535       197.0535       197.0535      -444.45874    
   1931000   698.96721     -4886222.9      197.0535       197.0535       197.0535      -350.39167    
   1932000   701.5029      -4886065        197.0535       197.0535       197.0535      -258.6118     
   1933000   699.04607     -4886145.1      197.0535       197.0535       197.0535      -447.91146    
   1934000   698.6924      -4886212.3      197.0535       197.0535       197.0535      -410.10925    
   1935000   699.96366     -4886081.8      197.0535       197.0535       197.0535      -411.40716    
   1936000   699.74443     -4886170.8      197.0535       197.0535       197.0535      -280.91878    
   1937000   698.34524     -4886200.3      197.0535       197.0535       197.0535      -434.88294    
   1938000   700.42689     -4886055.1      197.0535       197.0535       197.0535      -372.75796    
   1939000   701.67688     -4886006.9      197.0535       197.0535       197.0535      -376.97868    
   1940000   699.64047     -4886175.1      197.0535       197.0535       197.0535      -427.40253    
   1941000   701.48949     -4886104.5      197.0535       197.0535       197.0535      -496.50174    
   1942000   701.07576     -4886074.4      197.0535       197.0535       197.0535      -392.52987    
   1943000   700.8939      -4886153.9      197.0535       197.0535       197.0535      -465.87911    
   1944000   699.35719     -4886114.5      197.0535       197.0535       197.0535      -400.96591    
   1945000   700.30952     -4886172.5      197.0535       197.0535       197.0535      -553.36402    
   1946000   701.6742      -4886131.7      197.0535       197.0535       197.0535      -379.98151    
   1947000   699.99759     -4886118.4      197.0535       197.0535       197.0535      -377.59624    
   1948000   699.63081     -4886177.6      197.0535       197.0535       197.0535      -428.10435    
   1949000   698.88315     -4886278.1      197.0535       197.0535       197.0535      -449.30377    
   1950000   699.63946     -4886164.1      197.0535       197.0535       197.0535      -381.4809     
   1951000   701.99277     -4886146.6      197.0535       197.0535       197.0535      -449.15424    
   1952000   699.67322     -4886114.7      197.0535       197.0535       197.0535      -268.18986    
   1953000   700.75674     -4886112.3      197.0535       197.0535       197.0535      -403.62643    
   1954000   699.72617     -4886247.7      197.0535       197.0535       197.0535      -455.90979    
   1955000   701.9597      -4885925.1      197.0535       197.0535       197.0535      -371.43419    
   1956000   700.4965      -4886208.4      197.0535       197.0535       197.0535      -363.38687    
   1957000   699.98834     -4886146.9      197.0535       197.0535       197.0535      -451.48824    
   1958000   699.58182     -4886159.5      197.0535       197.0535       197.0535      -425.76421    
   1959000   698.55814     -4886171.8      197.0535       197.0535       197.0535      -448.03708    
   1960000   698.53499     -4886201.1      197.0535       197.0535       197.0535      -449.81844    
   1961000   699.52335     -4886148.3      197.0535       197.0535       197.0535      -493.50921    
   1962000   699.96083     -4886130.4      197.0535       197.0535       197.0535      -409.60061    
   1963000   701.16972     -4886211.9      197.0535       197.0535       197.0535      -304.47458    
   1964000   700.80715     -4886230.8      197.0535       197.0535       197.0535      -570.84131    
   1965000   700.66738     -4886066.2      197.0535       197.0535       197.0535      -272.71137    
   1966000   699.71555     -4886071.1      197.0535       197.0535       197.0535      -297.37413    
   1967000   701.67659     -4886075.9      197.0535       197.0535       197.0535      -490.02186    
   1968000   700.26853     -4886135.5      197.0535       197.0535       197.0535      -410.2869     
   1969000   699.82842     -4886119        197.0535       197.0535       197.0535      -353.96337    
   1970000   700.60632     -4886169.2      197.0535       197.0535       197.0535      -383.62344    
   1971000   701.7113      -4885978.8      197.0535       197.0535       197.0535      -322.23942    
   1972000   698.28041     -4886216.6      197.0535       197.0535       197.0535      -359.85604    
   1973000   700.0109      -4886155.9      197.0535       197.0535       197.0535      -323.17835    
   1974000   701.15967     -4886128.4      197.0535       197.0535       197.0535      -392.98216    
   1975000   699.34387     -4886220.6      197.0535       197.0535       197.0535      -383.51131    
   1976000   697.17783     -4886330.5      197.0535       197.0535       197.0535      -374.21542    
   1977000   698.30475     -4886408.6      197.0535       197.0535       197.0535      -486.87167    
   1978000   699.8773      -4886086.4      197.0535       197.0535       197.0535      -329.50626    
   1979000   700.02277     -4886187.7      197.0535       197.0535       197.0535      -440.51829    
   1980000   699.86762     -4886144.9      197.0535       197.0535       197.0535      -429.79083    
   1981000   700.7508      -4886137.7      197.0535       197.0535       197.0535      -458.53201    
   1982000   699.45656     -4886131        197.0535       197.0535       197.0535      -451.91604    
   1983000   698.05982     -4886312.2      197.0535       197.0535       197.0535      -578.86424    
   1984000   698.97866     -4886234.8      197.0535       197.0535       197.0535      -530.64278    
   1985000   698.84195     -4886228.2      197.0535       197.0535       197.0535      -449.30369    
   1986000   700.56265     -4886150.6      197.0535       197.0535       197.0535      -518.98523    
   1987000   700.27682     -4886110.5      197.0535       197.0535       197.0535      -379.94419    
   1988000   699.82222     -4886140.3      197.0535       197.0535       197.0535      -317.44247    
   1989000   699.49109     -4886169.1      197.0535       197.0535       197.0535      -352.19419    
   1990000   699.84527     -4886263.5      197.0535       197.0535       197.0535      -282.18219    
   1991000   700.96034     -4886153.9      197.0535       197.0535       197.0535      -348.895      
   1992000   699.59564     -4886173.7      197.0535       197.0535       197.0535      -400.06177    
   1993000   699.63054     -4886228.6      197.0535       197.0535       197.0535      -339.26586    
   1994000   700.25504     -4886095.8      197.0535       197.0535       197.0535      -355.79435    
   1995000   700.12474     -4886277.1      197.0535       197.0535       197.0535      -445.47797    
   1996000   700.30098     -4886191.4      197.0535       197.0535       197.0535      -338.68606    
   1997000   699.09845     -4886188.1      197.0535       197.0535       197.0535      -453.98974    
   1998000   701.00826     -4886106.6      197.0535       197.0535       197.0535      -295.70135    
   1999000   699.79539     -4886191        197.0535       197.0535       197.0535      -379.53094    
   2000000   699.4174      -4886220.3      197.0535       197.0535       197.0535      -334.43297    
   2001000   700.07515     -4886172        197.0535       197.0535       197.0535      -306.35415    
   2002000   700.74        -4886134        197.0535       197.0535       197.0535      -268.17741    
   2003000   699.99826     -4886229.1      197.0535       197.0535       197.0535      -402.84281    
   2004000   700.95006     -4886089.3      197.0535       197.0535       197.0535      -467.77885    
   2005000   699.1426      -4886172.1      197.0535       197.0535       197.0535      -396.21238    
   2006000   700.49534     -4886090.6      197.0535       197.0535       197.0535      -463.25971    
   2007000   700.56648     -4886088        197.0535       197.0535       197.0535      -443.83012    
   2008000   700.72753     -4886148.1      197.0535       197.0535       197.0535      -390.85465    
   2009000   700.67581     -4886130.9      197.0535       197.0535       197.0535      -419.35971    
   2010000   699.55055     -4886162.1      197.0535       197.0535       197.0535      -450.40249    
   2011000   700.37854     -4886234.4      197.0535       197.0535       197.0535      -565.17601    
   2012000   699.3736      -4886189.4      197.0535       197.0535       197.0535      -518.56741    
   2013000   699.7939      -4886186.5      197.0535       197.0535       197.0535      -383.92858    
   2014000   699.74195     -4886154.9      197.0535       197.0535       197.0535      -491.94381    
   2015000   700.46175     -4886146        197.0535       197.0535       197.0535      -428.95369    
   2016000   699.69158     -4886168.6      197.0535       197.0535       197.0535      -289.26958    
   2017000   699.72081     -4886159.5      197.0535       197.0535       197.0535      -427.3865     
   2018000   698.42039     -4886244        197.0535       197.0535       197.0535      -361.80771    
   2019000   700.41624     -4886103.4      197.0535       197.0535       197.0535      -285.94474    
   2020000   698.8106      -4886178.6      197.0535       197.0535       197.0535      -287.06618    
   2021000   700.15289     -4886275.4      197.0535       197.0535       197.0535      -202.96468    
   2022000   700.30728     -4886216.1      197.0535       197.0535       197.0535      -337.55016    
   2023000   698.46027     -4886348.4      197.0535       197.0535       197.0535      -403.24173    
   2024000   698.89433     -4886122.5      197.0535       197.0535       197.0535      -343.8283     
   2025000   699.68423     -4886259.3      197.0535       197.0535       197.0535      -272.20453    
   2026000   701.33716     -4886090.9      197.0535       197.0535       197.0535      -370.81259    
   2027000   699.54864     -4886167.8      197.0535       197.0535       197.0535      -382.99208    
   2028000   701.01391     -4886188.4      197.0535       197.0535       197.0535      -262.32222    
   2029000   700.53998     -4886173.9      197.0535       197.0535       197.0535      -248.39694    
   2030000   700.12528     -4886266.2      197.0535       197.0535       197.0535      -382.63654    
   2031000   699.12293     -4886173.8      197.0535       197.0535       197.0535      -371.97819    
   2032000   699.47631     -4886149.8      197.0535       197.0535       197.0535      -283.64875    
   2033000   698.75383     -4886235.1      197.0535       197.0535       197.0535      -359.08073    
   2034000   700.40481     -4886129.7      197.0535       197.0535       197.0535      -416.421      
   2035000   699.62868     -4886217        197.0535       197.0535       197.0535      -476.36053    
   2036000   698.72472     -4886242.3      197.0535       197.0535       197.0535      -389.80069    
   2037000   700.47455     -4886215        197.0535       197.0535       197.0535      -408.22671    
   2038000   699.96185     -4886242.7      197.0535       197.0535       197.0535      -349.97302    
   2039000   699.79269     -4886171.9      197.0535       197.0535       197.0535      -430.16904    
   2040000   699.95864     -4886114.2      197.0535       197.0535       197.0535      -365.3544     
   2041000   698.84408     -4886229.3      197.0535       197.0535       197.0535      -391.73008    
   2042000   699.28165     -4886183.9      197.0535       197.0535       197.0535      -443.46312    
   2043000   700.57024     -4886090.1      197.0535       197.0535       197.0535      -310.5085     
   2044000   701.62054     -4886112.2      197.0535       197.0535       197.0535      -493.23816    
   2045000   700.99147     -4886137.8      197.0535       197.0535       197.0535      -378.66139    
   2046000   701.17967     -4886139.1      197.0535       197.0535       197.0535      -560.63056    
   2047000   698.94938     -4886204.7      197.0535       197.0535       197.0535      -404.54863    
   2048000   701.16676     -4886020        197.0535       197.0535       197.0535      -396.34148    
   2049000   699.54016     -4886245.3      197.0535       197.0535       197.0535      -390.3846     
   2050000   701.23858     -4886042.5      197.0535       197.0535       197.0535      -556.24513    
   2051000   700.12302     -4886138.5      197.0535       197.0535       197.0535      -412.74362    
   2052000   701.67729     -4886047.3      197.0535       197.0535       197.0535      -341.94276    
   2053000   699.22526     -4886181.3      197.0535       197.0535       197.0535      -481.20124    
   2054000   699.59847     -4886233.8      197.0535       197.0535       197.0535      -335.03252    
   2055000   699.58096     -4886229.8      197.0535       197.0535       197.0535      -274.88162    
   2056000   697.97405     -4886273.9      197.0535       197.0535       197.0535      -200.21679    
   2057000   698.96303     -4886301.8      197.0535       197.0535       197.0535      -351.20844    
   2058000   701.1441      -4886095.9      197.0535       197.0535       197.0535      -433.90228    
   2059000   699.28748     -4886191.1      197.0535       197.0535       197.0535      -370.77257    
   2060000   701.68723     -4886095.6      197.0535       197.0535       197.0535      -439.13691    
   2061000   699.76328     -4886176.4      197.0535       197.0535       197.0535      -420.86035    
   2062000   700.55077     -4886159.1      197.0535       197.0535       197.0535      -268.15785    
   2063000   699.12415     -4886297.6      197.0535       197.0535       197.0535      -424.96272    
   2064000   699.28772     -4886209.8      197.0535       197.0535       197.0535      -516.41706    
   2065000   698.56415     -4886301.4      197.0535       197.0535       197.0535      -397.85454    
   2066000   700.94279     -4886213.5      197.0535       197.0535       197.0535      -294.58746    
   2067000   700.46089     -4886132.4      197.0535       197.0535       197.0535      -438.6469     
   2068000   699.87172     -4886224.3      197.0535       197.0535       197.0535      -313.70811    
   2069000   700.71689     -4886111.5      197.0535       197.0535       197.0535      -488.1175     
   2070000   699.0184      -4886254.7      197.0535       197.0535       197.0535      -386.79021    
   2071000   699.18368     -4886246.5      197.0535       197.0535       197.0535      -390.59159    
   2072000   701.07988     -4886187.4      197.0535       197.0535       197.0535      -386.33523    
   2073000   699.53062     -4886233.4      197.0535       197.0535       197.0535      -396.67845    
   2074000   699.96628     -4886230.5      197.0535       197.0535       197.0535      -269.22528    
   2075000   700.06712     -4886243.3      197.0535       197.0535       197.0535      -281.40899    
   2076000   700.60414     -4886174.1      197.0535       197.0535       197.0535      -332.83507    
   2077000   700.54472     -4886200.1      197.0535       197.0535       197.0535      -367.88183    
   2078000   699.25403     -4886268.7      197.0535       197.0535       197.0535      -254.29159    
   2079000   699.56559     -4886305        197.0535       197.0535       197.0535      -406.76693    
   2080000   701.08446     -4886233.1      197.0535       197.0535       197.0535      -453.4737     
   2081000   700.37214     -4886154.1      197.0535       197.0535       197.0535      -573.47799    
   2082000   698.17183     -4886263.6      197.0535       197.0535       197.0535      -500.64324    
   2083000   700.38626     -4886203.3      197.0535       197.0535       197.0535      -418.07061    
   2084000   700.06126     -4886151.8      197.0535       197.0535       197.0535      -404.81266    
   2085000   699.68702     -4886206        197.0535       197.0535       197.0535      -540.62725    
   2086000   701.46072     -4886128.4      197.0535       197.0535       197.0535      -513.36455    
   2087000   700.61964     -4886206.4      197.0535       197.0535       197.0535      -537.3536     
   2088000   699.63117     -4886240.4      197.0535       197.0535       197.0535      -325.08174    
   2089000   698.76661     -4886276.5      197.0535       197.0535       197.0535      -406.50245    
   2090000   699.21223     -4886199.6      197.0535       197.0535       197.0535      -428.30302    
   2091000   700.84288     -4886119.1      197.0535       197.0535       197.0535      -401.8219     
   2092000   701.30347     -4886175.8      197.0535       197.0535       197.0535      -418.48431    
   2093000   699.18784     -4886271.7      197.0535       197.0535       197.0535      -385.9646     
   2094000   699.52751     -4886284.2      197.0535       197.0535       197.0535      -473.80959    
   2095000   701.967       -4886066.2      197.0535       197.0535       197.0535      -367.99795    
   2096000   700.37925     -4886104.6      197.0535       197.0535       197.0535      -371.49567    
   2097000   699.51868     -4886265.4      197.0535       197.0535       197.0535      -379.17463    
   2098000   700.38531     -4886257.5      197.0535       197.0535       197.0535      -457.80802    
   2099000   699.02711     -4886297        197.0535       197.0535       197.0535      -332.35871    
   2100000   701.34822     -4886161.6      197.0535       197.0535       197.0535      -212.81022    
   2101000   701.50944     -4886110.1      197.0535       197.0535       197.0535      -114.72582    
   2102000   700.07764     -4886258.2      197.0535       197.0535       197.0535      -320.07768    
   2103000   698.86081     -4886330.6      197.0535       197.0535       197.0535      -264.65379    
   2104000   699.48066     -4886333        197.0535       197.0535       197.0535      -344.77621    
   2105000   698.95577     -4886213.5      197.0535       197.0535       197.0535      -268.66422    
   2106000   700.69087     -4886133.7      197.0535       197.0535       197.0535      -393.92897    
   2107000   699.58147     -4886339.2      197.0535       197.0535       197.0535      -365.17665    
   2108000   700.03042     -4886251.2      197.0535       197.0535       197.0535      -520.74737    
   2109000   699.8964      -4886176.3      197.0535       197.0535       197.0535      -389.8689     
   2110000   700.08696     -4886164.8      197.0535       197.0535       197.0535      -328.61946    
   2111000   699.67687     -4886247.2      197.0535       197.0535       197.0535      -322.27602    
   2112000   699.96786     -4886249        197.0535       197.0535       197.0535      -315.55606    
   2113000   700.33243     -4886270.5      197.0535       197.0535       197.0535      -309.12152    
   2114000   700.39713     -4886163.1      197.0535       197.0535       197.0535      -320.66691    
   2115000   699.19284     -4886229.3      197.0535       197.0535       197.0535      -277.67726    
   2116000   699.21885     -4886209.9      197.0535       197.0535       197.0535      -255.72921    
   2117000   701.26547     -4886168.2      197.0535       197.0535       197.0535      -443.55756    
   2118000   701.62432     -4886045.8      197.0535       197.0535       197.0535      -404.54437    
   2119000   700.20638     -4886115.6      197.0535       197.0535       197.0535      -177.46425    
   2120000   700.23548     -4886262        197.0535       197.0535       197.0535      -388.102      
   2121000   699.74699     -4886173.9      197.0535       197.0535       197.0535      -452.81594    
   2122000   700.36089     -4886176.8      197.0535       197.0535       197.0535      -424.60131    
   2123000   699.74827     -4886224.4      197.0535       197.0535       197.0535      -473.58537    
   2124000   699.63303     -4886109.6      197.0535       197.0535       197.0535      -355.46923    
   2125000   700.15644     -4886181.6      197.0535       197.0535       197.0535      -516.71162    
   2126000   699.50733     -4886236.3      197.0535       197.0535       197.0535      -455.90853    
   2127000   699.79778     -4886219        197.0535       197.0535       197.0535      -366.53661    
   2128000   700.05194     -4886218.9      197.0535       197.0535       197.0535      -489.16348    
   2129000   699.78218     -4886159        197.0535       197.0535       197.0535      -395.51508    
   2130000   699.93957     -4886209.5      197.0535       197.0535       197.0535      -437.76342    
   2131000   699.15574     -4886125.1      197.0535       197.0535       197.0535      -449.52608    
   2132000   699.70709     -4886222.7      197.0535       197.0535       197.0535      -330.51134    
   2133000   698.91403     -4886179.8      197.0535       197.0535       197.0535      -320.44635    
   2134000   701.79482     -4886082.2      197.0535       197.0535       197.0535      -395.4539     
   2135000   698.95342     -4886180.2      197.0535       197.0535       197.0535      -357.04148    
   2136000   699.51964     -4886196.6      197.0535       197.0535       197.0535      -379.4267     
   2137000   699.2443      -4886183.8      197.0535       197.0535       197.0535      -347.73819    
   2138000   699.81151     -4886155.2      197.0535       197.0535       197.0535      -382.62918    
   2139000   701.76862     -4886040.1      197.0535       197.0535       197.0535      -374.4673     
   2140000   700.25969     -4886291.6      197.0535       197.0535       197.0535      -421.09361    
   2141000   700.74792     -4886155.5      197.0535       197.0535       197.0535      -443.42842    
   2142000   700.86924     -4886166.3      197.0535       197.0535       197.0535      -458.14819    
   2143000   698.76487     -4886224.2      197.0535       197.0535       197.0535      -481.68088    
   2144000   700.4471      -4886116.9      197.0535       197.0535       197.0535      -552.29575    
   2145000   700.61051     -4886111.4      197.0535       197.0535       197.0535      -347.70003    
   2146000   697.648       -4886253.4      197.0535       197.0535       197.0535      -365.42374    
   2147000   698.98526     -4886227.2      197.0535       197.0535       197.0535      -427.30873    
   2148000   701.61038     -4886042.2      197.0535       197.0535       197.0535      -455.48563    
   2149000   702.44801     -4886068.6      197.0535       197.0535       197.0535      -349.58995    
   2150000   699.96002     -4886266.7      197.0535       197.0535       197.0535      -380.73454    
   2151000   700.87019     -4886108.8      197.0535       197.0535       197.0535      -415.03058    
   2152000   702.02779     -4886042.6      197.0535       197.0535       197.0535      -320.31903    
   2153000   702.46406     -4885978.3      197.0535       197.0535       197.0535      -394.64703    
   2154000   700.22704     -4886238.2      197.0535       197.0535       197.0535      -365.70326    
   2155000   699.90089     -4886191.5      197.0535       197.0535       197.0535      -445.23568    
   2156000   700.12788     -4886219.6      197.0535       197.0535       197.0535      -389.99688    
   2157000   699.18027     -4886274.4      197.0535       197.0535       197.0535      -449.73389    
   2158000   700.04167     -4886139.8      197.0535       197.0535       197.0535      -582.20768    
   2159000   700.22539     -4886179.9      197.0535       197.0535       197.0535      -475.95581    
   2160000   700.69715     -4886146.7      197.0535       197.0535       197.0535      -392.69208    
   2161000   700.6946      -4886038.5      197.0535       197.0535       197.0535      -208.58912    
   2162000   699.07261     -4886110.7      197.0535       197.0535       197.0535      -291.71744    
   2163000   699.82704     -4886158.7      197.0535       197.0535       197.0535      -362.76542    
   2164000   698.69343     -4886170.5      197.0535       197.0535       197.0535      -262.17724    
   2165000   699.6308      -4886112.6      197.0535       197.0535       197.0535      -340.1833     
   2166000   698.76083     -4886238.8      197.0535       197.0535       197.0535      -394.82964    
   2167000   700.57237     -4886139.5      197.0535       197.0535       197.0535      -288.75965    
   2168000   700.97412     -4886063.6      197.0535       197.0535       197.0535      -314.29621    
   2169000   701.38606     -4886041.6      197.0535       197.0535       197.0535      -369.52411    
   2170000   700.59137     -4886144.2      197.0535       197.0535       197.0535      -296.63512    
   2171000   700.60725     -4886216.2      197.0535       197.0535       197.0535      -353.3176     
   2172000   698.71347     -4886301.7      197.0535       197.0535       197.0535      -437.9422     
   2173000   701.13569     -4886101.7      197.0535       197.0535       197.0535      -391.34244    
   2174000   698.92444     -4886228        197.0535       197.0535       197.0535      -522.56432    
   2175000   699.74569     -4886180.8      197.0535       197.0535       197.0535      -210.23021    
   2176000   699.03642     -4886256.1      197.0535       197.0535       197.0535      -431.14909    
   2177000   700.57546     -4886194.7      197.0535       197.0535       197.0535      -380.38241    
   2178000   699.164       -4886166.7      197.0535       197.0535       197.0535      -515.69166    
   2179000   699.86606     -4886102.7      197.0535       197.0535       197.0535      -362.02111    
   2180000   699.94582     -4886179.3      197.0535       197.0535       197.0535      -375.36921    
   2181000   699.07678     -4886195.8      197.0535       197.0535       197.0535      -284.94248    
   2182000   699.61476     -4886270.6      197.0535       197.0535       197.0535      -429.963      
   2183000   700.135       -4886100        197.0535       197.0535       197.0535      -461.33128    
   2184000   699.15914     -4886261.1      197.0535       197.0535       197.0535      -453.43457    
   2185000   700.4175      -4886053.8      197.0535       197.0535       197.0535      -343.14212    
   2186000   699.6799      -4886313.6      197.0535       197.0535       197.0535      -486.47134    
   2187000   700.2376      -4886224.4      197.0535       197.0535       197.0535      -384.25824    
   2188000   699.27898     -4886195.5      197.0535       197.0535       197.0535      -515.94646    
   2189000   699.11553     -4886245.6      197.0535       197.0535       197.0535      -413.43275    
   2190000   700.8031      -4886116        197.0535       197.0535       197.0535      -510.05748    
   2191000   700.63312     -4886195        197.0535       197.0535       197.0535      -290.47079    
   2192000   700.91444     -4886107.6      197.0535       197.0535       197.0535      -447.87907    
   2193000   699.28395     -4886321.5      197.0535       197.0535       197.0535      -506.15997    
   2194000   700.47127     -4886174.9      197.0535       197.0535       197.0535      -368.84839    
   2195000   701.43013     -4886121.3      197.0535       197.0535       197.0535      -295.52153    
   2196000   700.01118     -4886235.8      197.0535       197.0535       197.0535      -255.59621    
   2197000   700.09652     -4886212.6      197.0535       197.0535       197.0535      -410.33265    
   2198000   700.61627     -4886155.4      197.0535       197.0535       197.0535      -340.14187    
   2199000   700.23696     -4886108.2      197.0535       197.0535       197.0535      -429.05899    
   2200000   700.50898     -4886165        197.0535       197.0535       197.0535      -203.64169    
   2201000   700.16585     -4886161.7      197.0535       197.0535       197.0535      -351.61472    
   2202000   698.47299     -4886288.5      197.0535       197.0535       197.0535      -414.59154    
   2203000   699.86255     -4886200.1      197.0535       197.0535       197.0535      -385.91894    
   2204000   700.05994     -4886213.3      197.0535       197.0535       197.0535      -326.24587    
   2205000   698.46276     -4886315.7      197.0535       197.0535       197.0535      -451.76793    
   2206000   701.54895     -4886077.6      197.0535       197.0535       197.0535      -385.52911    
   2207000   699.23947     -4886213.6      197.0535       197.0535       197.0535      -434.85393    
   2208000   700.10365     -4886186.7      197.0535       197.0535       197.0535      -464.41168    
   2209000   700.51363     -4886193        197.0535       197.0535       197.0535      -355.62       
   2210000   700.39144     -4886159.2      197.0535       197.0535       197.0535      -562.95538    
   2211000   700.04932     -4886179.9      197.0535       197.0535       197.0535      -518.51684    
   2212000   700.74767     -4886139.2      197.0535       197.0535       197.0535      -590.71489    
   2213000   700.07901     -4886139.9      197.0535       197.0535       197.0535      -374.81325    
   2214000   699.05989     -4886221.1      197.0535       197.0535       197.0535      -407.19284    
   2215000   700.40049     -4886219.6      197.0535       197.0535       197.0535      -425.8778     
   2216000   700.4469      -4886223.6      197.0535       197.0535       197.0535      -490.17906    
   2217000   700.0232      -4886224.4      197.0535       197.0535       197.0535      -339.3143     
   2218000   700.69885     -4886238.2      197.0535       197.0535       197.0535      -219.58697    
   2219000   698.7845      -4886308        197.0535       197.0535       197.0535      -371.02748    
   2220000   700.76678     -4886276.3      197.0535       197.0535       197.0535      -217.61689    
   2221000   698.4842      -4886244.2      197.0535       197.0535       197.0535      -321.25529    
   2222000   700.05437     -4886152.9      197.0535       197.0535       197.0535      -316.70948    
   2223000   701.16571     -4886068.7      197.0535       197.0535       197.0535      -479.77749    
   2224000   699.29941     -4886252.3      197.0535       197.0535       197.0535      -408.493      
   2225000   700.05938     -4886248        197.0535       197.0535       197.0535      -357.217      
   2226000   699.28431     -4886177.5      197.0535       197.0535       197.0535      -408.04108    
   2227000   700.49382     -4886091.6      197.0535       197.0535       197.0535      -401.07417    
   2228000   700.27417     -4886178.1      197.0535       197.0535       197.0535      -505.12947    
   2229000   699.65275     -4886205.8      197.0535       197.0535       197.0535      -513.97565    
   2230000   700.68107     -4886144.9      197.0535       197.0535       197.0535      -351.2104     
   2231000   700.59264     -4886068.4      197.0535       197.0535       197.0535      -363.76634    
   2232000   699.3629      -4886250.8      197.0535       197.0535       197.0535      -377.58115    
   2233000   699.80398     -4886284.4      197.0535       197.0535       197.0535      -559.04897    
   2234000   698.88073     -4886258.3      197.0535       197.0535       197.0535      -391.83448    
   2235000   699.07918     -4886321.8      197.0535       197.0535       197.0535      -415.4489     
   2236000   700.35818     -4886169.2      197.0535       197.0535       197.0535      -308.11958    
   2237000   700.18886     -4886237        197.0535       197.0535       197.0535      -274.32437    
   2238000   702.13749     -4886075.7      197.0535       197.0535       197.0535      -286.54589    
   2239000   698.79671     -4886301.7      197.0535       197.0535       197.0535      -485.92421    
   2240000   698.78742     -4886299.8      197.0535       197.0535       197.0535      -483.6674     
   2241000   701.23353     -4886123.2      197.0535       197.0535       197.0535      -373.9973     
   2242000   699.85723     -4886199.8      197.0535       197.0535       197.0535      -310.30957    
   2243000   699.85693     -4886181.6      197.0535       197.0535       197.0535      -380.55738    
   2244000   698.99117     -4886242.6      197.0535       197.0535       197.0535      -410.14727    
   2245000   701.47443     -4886119.9      197.0535       197.0535       197.0535      -353.71413    
   2246000   699.39181     -4886199.8      197.0535       197.0535       197.0535      -325.34495    
   2247000   700.60346     -4886298.9      197.0535       197.0535       197.0535      -489.57232    
   2248000   699.26553     -4886321.1      197.0535       197.0535       197.0535      -422.4818     
   2249000   700.0064      -4886202.3      197.0535       197.0535       197.0535      -361.41575    
   2250000   700.22439     -4886253.8      197.0535       197.0535       197.0535      -302.73745    
   2251000   699.08837     -4886251.2      197.0535       197.0535       197.0535      -550.98353    
   2252000   699.12368     -4886300.4      197.0535       197.0535       197.0535      -480.89373    
   2253000   700.52721     -4886260.6      197.0535       197.0535       197.0535      -419.90538    
   2254000   699.74394     -4886313.2      197.0535       197.0535       197.0535      -497.42537    
   2255000   699.8665      -4886183.9      197.0535       197.0535       197.0535      -454.47966    
   2256000   700.83851     -4886143.9      197.0535       197.0535       197.0535      -350.87653    
   2257000   699.63669     -4886297.6      197.0535       197.0535       197.0535      -499.31858    
   2258000   699.92613     -4886206.6      197.0535       197.0535       197.0535      -432.59655    
   2259000   700.50153     -4886226.2      197.0535       197.0535       197.0535      -374.88388    
   2260000   701.09718     -4886189.1      197.0535       197.0535       197.0535      -364.16543    
   2261000   699.62882     -4886248        197.0535       197.0535       197.0535      -348.11015    
   2262000   699.66021     -4886113.4      197.0535       197.0535       197.0535      -264.61063    
   2263000   701.98313     -4886111.7      197.0535       197.0535       197.0535      -190.92943    
   2264000   699.42884     -4886279.2      197.0535       197.0535       197.0535      -445.50474    
   2265000   701.19888     -4886121.7      197.0535       197.0535       197.0535      -257.31228    
   2266000   700.24822     -4886233.9      197.0535       197.0535       197.0535      -434.88086    
   2267000   701.41911     -4886182.6      197.0535       197.0535       197.0535      -474.31918    
   2268000   699.39472     -4886245.1      197.0535       197.0535       197.0535      -299.6148     
   2269000   700.8485      -4886153.1      197.0535       197.0535       197.0535      -312.62288    
   2270000   700.83051     -4886178.7      197.0535       197.0535       197.0535      -399.43133    
   2271000   700.10713     -4886203.3      197.0535       197.0535       197.0535      -379.20648    
   2272000   699.8202      -4886212.3      197.0535       197.0535       197.0535      -373.13528    
   2273000   700.02992     -4886206.7      197.0535       197.0535       197.0535      -370.08167    
   2274000   699.80019     -4886230.9      197.0535       197.0535       197.0535      -415.9318     
   2275000   700.23729     -4886129.2      197.0535       197.0535       197.0535      -480.34839    
   2276000   701.31983     -4886136.5      197.0535       197.0535       197.0535      -445.65735    
   2277000   699.82886     -4886219.4      197.0535       197.0535       197.0535      -563.19546    
   2278000   699.394       -4886339.6      197.0535       197.0535       197.0535      -613.35299    
   2279000   700.3446      -4886167.1      197.0535       197.0535       197.0535      -438.7678     
   2280000   700.62433     -4886145.8      197.0535       197.0535       197.0535      -305.24637    
   2281000   700.06224     -4886120.9      197.0535       197.0535       197.0535      -433.94286    
   2282000   700.07622     -4886190.9      197.0535       197.0535       197.0535      -235.23537    
   2283000   699.80983     -4886173.1      197.0535       197.0535       197.0535      -352.05311    
   2284000   700.36444     -4886132.6      197.0535       197.0535       197.0535      -262.36751    
   2285000   699.81961     -4886164.4      197.0535       197.0535       197.0535      -558.89303    
   2286000   700.48053     -4886132.1      197.0535       197.0535       197.0535      -409.88635    
   2287000   699.25082     -4886177.3      197.0535       197.0535       197.0535      -171.86368    
   2288000   698.9698      -4886325.5      197.0535       197.0535       197.0535      -310.01357    
   2289000   700.02407     -4886249.3      197.0535       197.0535       197.0535      -395.31338    
   2290000   699.60383     -4886080.1      197.0535       197.0535       197.0535      -289.07635    
   2291000   700.87146     -4886120.1      197.0535       197.0535       197.0535      -328.36075    
   2292000   700.74494     -4886168        197.0535       197.0535       197.0535      -308.30546    
   2293000   698.67427     -4886322.4      197.0535       197.0535       197.0535      -326.91305    
   2294000   699.14723     -4886270.6      197.0535       197.0535       197.0535      -596.62814    
   2295000   700.80527     -4886181.1      197.0535       197.0535       197.0535      -420.55966    
   2296000   699.68153     -4886230.6      197.0535       197.0535       197.0535      -434.23126    
   2297000   699.76646     -4886180.3      197.0535       197.0535       197.0535      -565.90119    
   2298000   699.19461     -4886230        197.0535       197.0535       197.0535      -393.42101    
   2299000   699.42434     -4886169.2      197.0535       197.0535       197.0535      -364.51661    
   2300000   699.975       -4886110.8      197.0535       197.0535       197.0535      -266.36519    
   2301000   699.40115     -4886212.2      197.0535       197.0535       197.0535      -359.02992    
   2302000   700.95533     -4886114.2      197.0535       197.0535       197.0535      -399.14389    
   2303000   699.41075     -4886241.1      197.0535       197.0535       197.0535      -400.539      
   2304000   699.97875     -4886327.8      197.0535       197.0535       197.0535      -515.79621    
   2305000   700.25386     -4886225.6      197.0535       197.0535       197.0535      -493.12754    
   2306000   699.12916     -4886167        197.0535       197.0535       197.0535      -454.3063     
   2307000   701.04728     -4886143.1      197.0535       197.0535       197.0535      -541.08204    
   2308000   699.37753     -4886252.3      197.0535       197.0535       197.0535      -437.55656    
   2309000   701.25301     -4886072.6      197.0535       197.0535       197.0535      -440.99981    
   2310000   698.94199     -4886187        197.0535       197.0535       197.0535      -467.04414    
   2311000   701.13385     -4886143.6      197.0535       197.0535       197.0535      -324.84692    
   2312000   699.72748     -4886240.2      197.0535       197.0535       197.0535      -402.5118     
   2313000   699.68602     -4886225.1      197.0535       197.0535       197.0535      -442.41945    
   2314000   698.31611     -4886202.4      197.0535       197.0535       197.0535      -400.3678     
   2315000   700.10254     -4886204.5      197.0535       197.0535       197.0535      -381.13788    
   2316000   700.0479      -4886165.7      197.0535       197.0535       197.0535      -425.07045    
   2317000   700.81824     -4886145.1      197.0535       197.0535       197.0535      -577.7562     
   2318000   700.46078     -4886149.6      197.0535       197.0535       197.0535      -366.35214    
   2319000   700.91801     -4886192.3      197.0535       197.0535       197.0535      -415.0511     
   2320000   700.17745     -4886216.6      197.0535       197.0535       197.0535      -535.17124    
   2321000   699.93059     -4886229.4      197.0535       197.0535       197.0535      -385.62349    
   2322000   700.35182     -4886222.3      197.0535       197.0535       197.0535      -525.70398    
   2323000   699.96735     -4886288.6      197.0535       197.0535       197.0535      -439.55316    
   2324000   700.58248     -4886043.3      197.0535       197.0535       197.0535      -376.17771    
   2325000   698.38523     -4886200.7      197.0535       197.0535       197.0535      -410.41407    
   2326000   700.9033      -4886158        197.0535       197.0535       197.0535      -386.45722    
   2327000   699.24632     -4886290.6      197.0535       197.0535       197.0535      -315.60111    
   2328000   701.1115      -4886134.5      197.0535       197.0535       197.0535      -356.91687    
   2329000   700.08348     -4886231.8      197.0535       197.0535       197.0535      -402.47747    
   2330000   699.45966     -4886260.4      197.0535       197.0535       197.0535      -539.6481     
   2331000   700.13508     -4886304.8      197.0535       197.0535       197.0535      -453.62495    
   2332000   700.39973     -4886102.1      197.0535       197.0535       197.0535      -261.24419    
   2333000   699.59333     -4886315.2      197.0535       197.0535       197.0535      -339.37445    
   2334000   699.62087     -4886222.6      197.0535       197.0535       197.0535      -501.98137    
   2335000   701.21762     -4886172.5      197.0535       197.0535       197.0535      -492.06541    
   2336000   700.08657     -4886285.4      197.0535       197.0535       197.0535      -492.6322     
   2337000   700.69688     -4886040.9      197.0535       197.0535       197.0535      -230.55278    
   2338000   700.29915     -4886233.9      197.0535       197.0535       197.0535      -461.98748    
   2339000   699.75992     -4886165.9      197.0535       197.0535       197.0535      -447.13548    
   2340000   697.74355     -4886302.6      197.0535       197.0535       197.0535      -459.84164    
   2341000   698.9674      -4886256.1      197.0535       197.0535       197.0535      -319.96714    
   2342000   698.34479     -4886335.2      197.0535       197.0535       197.0535      -444.59014    
   2343000   699.84889     -4886244.2      197.0535       197.0535       197.0535      -440.38278    
   2344000   698.69667     -4886196.4      197.0535       197.0535       197.0535      -292.91984    
   2345000   699.58545     -4886331.3      197.0535       197.0535       197.0535      -318.52495    
   2346000   700.12018     -4886184.6      197.0535       197.0535       197.0535      -343.26877    
   2347000   699.72856     -4886302.2      197.0535       197.0535       197.0535      -407.14957    
   2348000   700.77813     -4886200.7      197.0535       197.0535       197.0535      -402.96307    
   2349000   699.37149     -4886248.6      197.0535       197.0535       197.0535      -437.53107    
   2350000   699.88345     -4886281.6      197.0535       197.0535       197.0535      -395.41843    
   2351000   698.97881     -4886218.6      197.0535       197.0535       197.0535      -478.60447    
   2352000   698.64334     -4886210.6      197.0535       197.0535       197.0535      -495.43978    
   2353000   701.01485     -4886147.9      197.0535       197.0535       197.0535      -502.5452     
   2354000   699.94171     -4886225.3      197.0535       197.0535       197.0535      -258.74       
   2355000   698.85896     -4886259.7      197.0535       197.0535       197.0535      -457.00054    
   2356000   699.29639     -4886212        197.0535       197.0535       197.0535      -243.63089    
   2357000   699.66727     -4886200.6      197.0535       197.0535       197.0535      -280.09054    
   2358000   699.33947     -4886249.9      197.0535       197.0535       197.0535      -290.82757    
   2359000   699.79656     -4886218.6      197.0535       197.0535       197.0535      -445.42946    
   2360000   701.77604     -4886115.1      197.0535       197.0535       197.0535      -392.23863    
   2361000   700.90348     -4886256        197.0535       197.0535       197.0535      -402.27904    
   2362000   700.41115     -4886301.3      197.0535       197.0535       197.0535      -515.47435    
   2363000   698.29251     -4886276.1      197.0535       197.0535       197.0535      -483.55441    
   2364000   700.06128     -4886196.8      197.0535       197.0535       197.0535      -436.8598     
   2365000   702.20928     -4886076.3      197.0535       197.0535       197.0535      -495.39273    
   2366000   700.22674     -4886256.3      197.0535       197.0535       197.0535      -429.51483    
   2367000   701.01979     -4886077.7      197.0535       197.0535       197.0535      -451.9572     
   2368000   700.25567     -4886206        197.0535       197.0535       197.0535      -526.09256    
   2369000   700.56702     -4886228        197.0535       197.0535       197.0535      -411.81543    
   2370000   699.86301     -4886161        197.0535       197.0535       197.0535      -394.15773    
   2371000   700.23811     -4886195.1      197.0535       197.0535       197.0535      -424.21086    
   2372000   698.89683     -4886224.1      197.0535       197.0535       197.0535      -488.96816    
   2373000   701.1826      -4886191.3      197.0535       197.0535       197.0535      -425.46412    
   2374000   699.16876     -4886212.7      197.0535       197.0535       197.0535      -382.68665    
   2375000   700.22533     -4886312.1      197.0535       197.0535       197.0535      -417.76071    
   2376000   700.36418     -4886188.8      197.0535       197.0535       197.0535      -514.62816    
   2377000   699.72174     -4886209.8      197.0535       197.0535       197.0535      -384.011      
   2378000   701.04012     -4886134.6      197.0535       197.0535       197.0535      -416.94913    
   2379000   700.65804     -4886140.9      197.0535       197.0535       197.0535      -535.95966    
   2380000   699.5728      -4886276.3      197.0535       197.0535       197.0535      -251.33419    
   2381000   699.7933      -4886267.9      197.0535       197.0535       197.0535      -366.44679    
   2382000   701.02959     -4886210.6      197.0535       197.0535       197.0535      -412.68427    
   2383000   698.96779     -4886252        197.0535       197.0535       197.0535      -412.31933    
   2384000   700.06119     -4886233.7      197.0535       197.0535       197.0535      -322.23962    
   2385000   699.22443     -4886269.3      197.0535       197.0535       197.0535      -350.41782    
   2386000   699.8508      -4886170.3      197.0535       197.0535       197.0535      -361.42611    
   2387000   700.48128     -4886232.8      197.0535       197.0535       197.0535      -426.59836    
   2388000   698.81245     -4886287.7      197.0535       197.0535       197.0535      -469.31331    
   2389000   698.99766     -4886222.6      197.0535       197.0535       197.0535      -463.77744    
   2390000   699.94442     -4886222.9      197.0535       197.0535       197.0535      -465.07474    
   2391000   699.91405     -4886144        197.0535       197.0535       197.0535      -410.07999    
   2392000   700.6981      -4886141        197.0535       197.0535       197.0535      -241.72844    
   2393000   699.32843     -4886287.4      197.0535       197.0535       197.0535      -331.18775    
   2394000   698.60819     -4886271        197.0535       197.0535       197.0535      -328.09533    
   2395000   700.93738     -4886156.4      197.0535       197.0535       197.0535      -511.7345     
   2396000   700.15884     -4886169.7      197.0535       197.0535       197.0535      -525.3621     
   2397000   699.98977     -4886222.9      197.0535       197.0535       197.0535      -295.84813    
   2398000   699.85925     -4886120.3      197.0535       197.0535       197.0535      -464.52748    
   2399000   699.16074     -4886159.4      197.0535       197.0535       197.0535      -381.42319    
   2400000   700.78784     -4886182.4      197.0535       197.0535       197.0535      -406.78394    
   2401000   700.47077     -4886326.8      197.0535       197.0535       197.0535      -363.80079    
   2402000   699.83728     -4886284.7      197.0535       197.0535       197.0535      -307.12423    
   2403000   699.82039     -4886282.7      197.0535       197.0535       197.0535      -363.87505    
   2404000   699.91214     -4886220.3      197.0535       197.0535       197.0535      -378.05299    
   2405000   700.67593     -4886253.2      197.0535       197.0535       197.0535      -424.35136    
   2406000   698.06785     -4886339        197.0535       197.0535       197.0535      -290.35544    
   2407000   700.87329     -4886168.6      197.0535       197.0535       197.0535      -363.99188    
   2408000   699.92324     -4886205        197.0535       197.0535       197.0535      -366.94786    
   2409000   700.16677     -4886146.5      197.0535       197.0535       197.0535      -318.30488    
   2410000   699.77638     -4886178.7      197.0535       197.0535       197.0535      -469.33021    
   2411000   700.65007     -4886168.1      197.0535       197.0535       197.0535      -374.16607    
   2412000   700.75331     -4886195.9      197.0535       197.0535       197.0535      -386.32222    
   2413000   699.59094     -4886273.7      197.0535       197.0535       197.0535      -531.80795    
   2414000   700.00492     -4886263.8      197.0535       197.0535       197.0535      -350.80318    
   2415000   698.7797      -4886228.6      197.0535       197.0535       197.0535      -505.52795    
   2416000   699.62852     -4886234.7      197.0535       197.0535       197.0535      -583.2403     
   2417000   700.60878     -4886282.8      197.0535       197.0535       197.0535      -550.63197    
   2418000   699.58161     -4886306.9      197.0535       197.0535       197.0535      -483.4071     
   2419000   699.62471     -4886325.7      197.0535       197.0535       197.0535      -523.76079    
   2420000   700.44705     -4886259.1      197.0535       197.0535       197.0535      -458.82363    
   2421000   699.73187     -4886179.3      197.0535       197.0535       197.0535      -368.77711    
   2422000   699.9952      -4886227.9      197.0535       197.0535       197.0535      -467.79283    
   2423000   701.00978     -4886200        197.0535       197.0535       197.0535      -475.69403    
   2424000   700.8406      -4886167.9      197.0535       197.0535       197.0535      -485.74193    
   2425000   699.2161      -4886281.6      197.0535       197.0535       197.0535      -405.03628    
   2426000   698.64663     -4886360.2      197.0535       197.0535       197.0535      -479.97094    
   2427000   701.29746     -4886103.3      197.0535       197.0535       197.0535      -458.88576    
   2428000   699.30274     -4886202.1      197.0535       197.0535       197.0535      -302.46357    
   2429000   699.15301     -4886214.3      197.0535       197.0535       197.0535      -342.27354    
   2430000   699.54859     -4886289.4      197.0535       197.0535       197.0535      -501.19332    
   2431000   699.38809     -4886418.5      197.0535       197.0535       197.0535      -465.49344    
   2432000   698.85917     -4886240.6      197.0535       197.0535       197.0535      -421.59105    
   2433000   699.99639     -4886235        197.0535       197.0535       197.0535      -452.99153    
   2434000   699.80926     -4886297.6      197.0535       197.0535       197.0535      -402.16462    
   2435000   699.90261     -4886283        197.0535       197.0535       197.0535      -412.72527    
   2436000   700.24683     -4886175.9      197.0535       197.0535       197.0535      -444.80829    
   2437000   700.16498     -4886228.4      197.0535       197.0535       197.0535      -426.19085    
   2438000   699.99741     -4886192.9      197.0535       197.0535       197.0535      -486.6767     
   2439000   699.99987     -4886186.6      197.0535       197.0535       197.0535      -362.1947     
   2440000   700.59721     -4886103.3      197.0535       197.0535       197.0535      -513.74204    
   2441000   700.00558     -4886185.4      197.0535       197.0535       197.0535      -495.10084    
   2442000   700.05347     -4886176.1      197.0535       197.0535       197.0535      -363.03242    
   2443000   700.02464     -4886185.1      197.0535       197.0535       197.0535      -358.45171    
   2444000   700.05165     -4886172.4      197.0535       197.0535       197.0535      -343.51893    
   2445000   699.60281     -4886161.3      197.0535       197.0535       197.0535      -509.2387     
   2446000   700.65268     -4886245.5      197.0535       197.0535       197.0535      -473.92902    
   2447000   701.06909     -4886254.2      197.0535       197.0535       197.0535      -476.11633    
   2448000   699.92743     -4886308.4      197.0535       197.0535       197.0535      -410.27859    
   2449000   701.26571     -4886088.5      197.0535       197.0535       197.0535      -335.67593    
   2450000   699.56648     -4886312.9      197.0535       197.0535       197.0535      -579.3643     
   2451000   700.10326     -4886224.4      197.0535       197.0535       197.0535      -383.43964    
   2452000   700.72791     -4886155.8      197.0535       197.0535       197.0535      -361.22162    
   2453000   701.26433     -4886192.2      197.0535       197.0535       197.0535      -448.5319     
   2454000   701.06872     -4886130.8      197.0535       197.0535       197.0535      -300.9434     
   2455000   699.71481     -4886286.1      197.0535       197.0535       197.0535      -496.01251    
   2456000   699.19051     -4886238.5      197.0535       197.0535       197.0535      -358.4854     
   2457000   699.53963     -4886255.3      197.0535       197.0535       197.0535      -462.62781    
   2458000   699.64015     -4886198.3      197.0535       197.0535       197.0535      -397.24604    
   2459000   699.41579     -4886373.3      197.0535       197.0535       197.0535      -507.65702    
   2460000   699.39078     -4886270.9      197.0535       197.0535       197.0535      -437.08327    
   2461000   699.11611     -4886153.3      197.0535       197.0535       197.0535      -502.89217    
   2462000   700.40492     -4886212.4      197.0535       197.0535       197.0535      -453.00289    
   2463000   698.35318     -4886253.4      197.0535       197.0535       197.0535      -467.49666    
   2464000   701.74313     -4886192.7      197.0535       197.0535       197.0535      -442.69046    
   2465000   700.47708     -4886252.2      197.0535       197.0535       197.0535      -472.76676    
   2466000   699.24423     -4886248.9      197.0535       197.0535       197.0535      -356.11156    
   2467000   700.0284      -4886230.6      197.0535       197.0535       197.0535      -458.65977    
   2468000   698.92408     -4886214.6      197.0535       197.0535       197.0535      -436.8077     
   2469000   699.55809     -4886141.3      197.0535       197.0535       197.0535      -354.52599    
   2470000   699.52007     -4886219.7      197.0535       197.0535       197.0535      -416.85405    
   2471000   699.94524     -4886280.9      197.0535       197.0535       197.0535      -381.55993    
   2472000   699.59431     -4886174        197.0535       197.0535       197.0535      -345.69949    
   2473000   700.78897     -4886058.2      197.0535       197.0535       197.0535      -221.90813    
   2474000   698.97994     -4886297.2      197.0535       197.0535       197.0535      -363.97177    
   2475000   700.74955     -4886229.5      197.0535       197.0535       197.0535      -364.78958    
   2476000   701.34238     -4886186.8      197.0535       197.0535       197.0535      -383.88125    
   2477000   700.26479     -4886220.8      197.0535       197.0535       197.0535      -371.15528    
   2478000   700.58581     -4886143.9      197.0535       197.0535       197.0535      -314.94536    
   2479000   700.86331     -4886163.2      197.0535       197.0535       197.0535      -465.25358    
   2480000   699.74408     -4886336.1      197.0535       197.0535       197.0535      -487.21275    
   2481000   701.09263     -4886192.1      197.0535       197.0535       197.0535      -496.46273    
   2482000   699.8614      -4886141.8      197.0535       197.0535       197.0535      -378.30315    
   2483000   699.27766     -4886251.3      197.0535       197.0535       197.0535      -352.29701    
   2484000   698.98233     -4886336.7      197.0535       197.0535       197.0535      -398.36786    
   2485000   701.13161     -4886134.7      197.0535       197.0535       197.0535      -501.84381    
   2486000   699.3998      -4886311.5      197.0535       197.0535       197.0535      -468.66271    
   2487000   699.68537     -4886196        197.0535       197.0535       197.0535      -371.28369    
   2488000   699.86327     -4886209        197.0535       197.0535       197.0535      -571.51836    
   2489000   701.5685      -4886169.2      197.0535       197.0535       197.0535      -296.36436    
   2490000   699.91575     -4886283.3      197.0535       197.0535       197.0535      -340.4534     
   2491000   698.11029     -4886352.3      197.0535       197.0535       197.0535      -331.56682    
   2492000   700.69135     -4886081        197.0535       197.0535       197.0535      -332.74608    
   2493000   699.3719      -4886284        197.0535       197.0535       197.0535      -206.14433    
   2494000   700.72741     -4886228.4      197.0535       197.0535       197.0535      -391.78257    
   2495000   700.49032     -4886240.6      197.0535       197.0535       197.0535      -348.71779    
   2496000   698.89329     -4886302.6      197.0535       197.0535       197.0535      -423.01974    
   2497000   700.33959     -4886156.3      197.0535       197.0535       197.0535      -438.88026    
   2498000   698.96613     -4886311.8      197.0535       197.0535       197.0535      -527.0595     
   2499000   699.94236     -4886245.1      197.0535       197.0535       197.0535      -424.17131    
   2500000   699.46225     -4886260.7      197.0535       197.0535       197.0535      -511.77725    
   2501000   700.4481      -4886188.7      197.0535       197.0535       197.0535      -377.96672    
   2502000   700.04233     -4886190.6      197.0535       197.0535       197.0535      -396.30571    
   2503000   700.7744      -4886204.6      197.0535       197.0535       197.0535      -442.95283    
   2504000   699.66554     -4886276.5      197.0535       197.0535       197.0535      -348.69743    
   2505000   700.46929     -4886267.9      197.0535       197.0535       197.0535      -435.39409    
   2506000   700.63192     -4886245.6      197.0535       197.0535       197.0535      -347.46098    
   2507000   700.51897     -4886259.9      197.0535       197.0535       197.0535      -518.26103    
   2508000   698.63685     -4886208.6      197.0535       197.0535       197.0535      -462.31831    
   2509000   701.16393     -4886154.9      197.0535       197.0535       197.0535      -296.86161    
   2510000   700.10101     -4886193.5      197.0535       197.0535       197.0535      -400.72049    
Loop time of 167162 on 16384 procs for 2500000 steps with 431984 atoms

Performance: 2.584 ns/day, 9.287 hours/ns, 14.956 timesteps/s, 6.461 Matom-step/s
77.2% CPU use with 128 MPI tasks x 128 OpenMP threads

MPI task timing breakdown:
Section |  min time  |  avg time  |  max time  |%varavg| %total
---------------------------------------------------------------
Pair    | 55954      | 85946      | 1.1823e+05 |8241.2 | 51.42
Bond    | 0.20388    | 0.47017    | 0.83608    |  19.8 |  0.00
Kspace  | 27454      | 64080      | 97860      |10811.8 | 38.33
Neigh   | 7040.4     | 11235      | 15967      |3271.9 |  6.72
Comm    | 4066       | 4619.5     | 5001.9     | 320.5 |  2.76
Output  | 0.34631    | 0.39138    | 0.40107    |   1.2 |  0.00
Modify  | 503.19     | 895.49     | 1349.7     |1034.7 |  0.54
Other   |            | 384.8      |            |       |  0.23

Nlocal:        3374.88 ave        4341 max        2424 min
Histogram: 64 0 0 0 0 0 0 0 0 64
Nghost:        11121.6 ave       12770 max        9527 min
Histogram: 64 0 0 0 0 0 0 0 1 63
Neighs:         818715 ave 1.15355e+06 max      517481 min
Histogram: 34 30 0 0 0 0 3 23 8 30

Total # of neighbors = 1.0479553e+08
Ave neighs/atom = 242.59123
Ave special neighs/atom = 0
Neighbor list builds = 423690
Dangerous builds = 0
Total wall time: 46:50:32
