LAMMPS (8 Feb 2023)
WARNING: Using I/O redirection is unreliable with parallel runs. Better to use the -in switch to read input files. (src/src/lammps.cpp:531)
  using 128 OpenMP thread(s) per MPI task
Reading data file ...
  orthogonal box = (-2.8683986 -2.8830447 -5.888217) to (195.51795 198.78176 202.93438)
  4 by 8 by 8 MPI processor grid
  reading atoms ...
WARNING: Non-zero imageflag(s) in z direction for non-periodic boundary reset to zero (src/src/read_data.cpp:1415)
  634500 atoms
  reading velocities ...
  634500 velocities
Finding 1-2 1-3 1-4 neighbors ...
  special bond factors lj:    0        0        0       
  special bond factors coul:  0        0        0       
     0 = max # of 1-2 neighbors
     0 = max # of 1-3 neighbors
     0 = max # of 1-4 neighbors
     1 = max # of special neighbors
  special bonds CPU = 0.936 seconds
  read_data CPU = 4.786 seconds
6750 atoms in group Al
81000 atoms in group La
54000 atoms in group Zr
168750 atoms in group Li
324000 atoms in group O
28641 atoms in group top
168750 atoms in group Li
7517 atoms in group top_Li
PPPM initialization ...
  using 12-bit tables for long-range coulomb (src/src/kspace.cpp:342)
  G vector (1/distance) = 0.27888062
  grid = 135 144 360
  stencil order = 5
  estimated absolute RMS force accuracy = 0.0015751582
  estimated relative force accuracy = 0.00010938869
  using double precision MKL FFT
  3d grid and FFT values/proc = 236440 156060
Generated 0 of 10 mixed pair_coeff terms from geometric mixing rule
Neighbor list info ...
  update: every = 1 steps, delay = 0 steps, check = yes
  max neighbors/atom: 5000, page size: 100000
  master list distance cutoff = 11.5
  ghost atom cutoff = 11.5
  binsize = 5.75, bins = 35 36 37
  3 neighbor lists, perpetual/occasional/extra = 3 0 0
  (1) pair buck/coul/long, perpetual
      attributes: half, newton on
      pair build: half/bin/newton
      stencil: half/bin/3d
      bin: standard
  (2) pair lennard/mdf, perpetual, skip from (3)
      attributes: half, newton on, cut 4
      pair build: skip
      stencil: none
      bin: none
  (3) neighbor class addition, perpetual, trim from (1)
      attributes: half, newton on, cut 4
      pair build: trim
      stencil: none
      bin: none
Setting up cg style minimization ...
  Unit style    : metal
  Current step  : 0
Per MPI rank memory allocation (min/avg/max) = 224.6 | 228.7 | 245.6 Mbytes
   Step          Temp          E_pair         E_mol          TotEng         Press     
         0   699.62829     -7166070.1      0             -7108689.8     -3362.2138    
      8823   699.62829     -7304361.5      0             -7246981.2     -1145.7942    
Loop time of 1314.47 on 32768 procs for 8823 steps with 634500 atoms

76.7% CPU use with 256 MPI tasks x 128 OpenMP threads

Minimization stats:
  Stopping criterion = linesearch alpha is zero
  Energy initial, next-to-last, final = 
     -7166070.10466293  -7304361.53252816  -7304361.53252816
  Force two-norm initial, final = 1760.0355 0.42160063
  Force max component initial, final = 19.119494 0.15359209
  Final line search alpha, max atom move = 6.5885582e-08 1.0119504e-08
  Iterations, force evaluations = 8823 14630

MPI task timing breakdown:
Section |  min time  |  avg time  |  max time  |%varavg| %total
---------------------------------------------------------------
Pair    | 248.42     | 550.66     | 694.85     | 485.0 | 41.89
Bond    | 0.0014581  | 0.0027163  | 0.0038806  |   0.8 |  0.00
Kspace  | 565.28     | 715.87     | 1035.2     | 448.9 | 54.46
Neigh   | 10.961     | 26.428     | 32.798     | 115.2 |  2.01
Comm    | 10.132     | 15.772     | 18.445     |  40.5 |  1.20
Output  | 0          | 0          | 0          |   0.0 |  0.00
Modify  | 0          | 0          | 0          |   0.0 |  0.00
Other   |            | 5.746      |            |       |  0.44

Nlocal:        2478.52 ave        2852 max        1640 min
Histogram: 16 0 48 0 0 17 31 0 10 134
Nghost:        10196.4 ave       11927 max        5909 min
Histogram: 16 48 0 0 0 0 27 21 0 144
Neighs:         643110 ave      789469 max      303385 min
Histogram: 8 5 27 3 22 27 20 0 35 109

Total # of neighbors = 1.6463615e+08
Ave neighs/atom = 259.47384
Ave special neighs/atom = 0
Neighbor list builds = 1338
Dangerous builds = 0
PPPM initialization ...
  using 12-bit tables for long-range coulomb (src/src/kspace.cpp:342)
  G vector (1/distance) = 0.27888062
  grid = 135 144 360
  stencil order = 5
  estimated absolute RMS force accuracy = 0.0015751582
  estimated relative force accuracy = 0.00010938869
  using double precision MKL FFT
  3d grid and FFT values/proc = 236440 156060
Generated 0 of 10 mixed pair_coeff terms from geometric mixing rule
Setting up Verlet run ...
  Unit style    : metal
  Current step  : 0
  Time step     : 0.002
Per MPI rank memory allocation (min/avg/max) = 224.9 | 229.1 | 245.8 Mbytes
   Step          Temp          TotEng           Lx             Ly             Lz           Press     
         0   699.62829     -7246981.2      198.38635      201.66481      208.8226      -1145.7942    
      1000   700.6547      -7187672.6      198.38635      201.66481      208.8226      -11090.042    
      2000   699.87578     -7186282.6      198.38635      201.66481      208.8226      -19249.606    
      3000   699.32286     -7191166.2      198.38635      201.66481      208.8226      -1303.2313    
      4000   699.47248     -7191400.1      198.38635      201.66481      208.8226      -5057.9262    
      5000   700.63163     -7187217.6      198.38635      201.66481      208.8226      -20208.261    
      6000   699.05286     -7190325.2      198.38635      201.66481      208.8226      -12909.256    
      7000   699.93319     -7192005.7      198.38635      201.66481      208.8226       671.97002    
      8000   698.4633      -7191228.4      198.38635      201.66481      208.8226      -12188.453    
      9000   700.2507      -7187763.8      198.38635      201.66481      208.8226      -20147.973    
     10000   700.12245     -7191913.8      198.38635      201.66481      208.8226      -7177.5431    
Loop time of 814.554 on 32768 procs for 10000 steps with 634500 atoms

Performance: 2.121 ns/day, 11.313 hours/ns, 12.277 timesteps/s, 7.790 Matom-step/s
76.3% CPU use with 256 MPI tasks x 128 OpenMP threads

MPI task timing breakdown:
Section |  min time  |  avg time  |  max time  |%varavg| %total
---------------------------------------------------------------
Pair    | 152.87     | 305.97     | 370.12     | 322.8 | 37.56
Bond    | 0.0011116  | 0.0020413  | 0.0033295  |   0.9 |  0.00
Kspace  | 389.73     | 458.89     | 630.44     | 295.6 | 56.34
Neigh   | 17.367     | 34.919     | 40.827     | 116.4 |  4.29
Comm    | 8.5989     | 11.946     | 13.302     |  28.0 |  1.47
Output  | 0.001321   | 0.001361   | 0.0015434  |   0.1 |  0.00
Modify  | 1.2143     | 1.8294     | 3.6165     |  41.7 |  0.22
Other   |            | 1.001      |            |       |  0.12

Nlocal:        2478.52 ave        2746 max        1839 min
Histogram: 64 0 0 0 0 0 0 0 39 153
Nghost:        10196.9 ave       11512 max        6556 min
Histogram: 64 0 0 0 0 0 0 0 0 192
Neighs:         633194 ave      736294 max      369784 min
Histogram: 32 0 22 10 0 0 0 5 83 104

Total # of neighbors = 1.6209758e+08
Ave neighs/atom = 255.47295
Ave special neighs/atom = 0
Neighbor list builds = 1712
Dangerous builds = 0
PPPM initialization ...
  using 12-bit tables for long-range coulomb (src/src/kspace.cpp:342)
  G vector (1/distance) = 0.27888062
  grid = 135 144 360
  stencil order = 5
  estimated absolute RMS force accuracy = 0.0015751582
  estimated relative force accuracy = 0.00010938869
  using double precision MKL FFT
  3d grid and FFT values/proc = 236440 156060
Generated 0 of 10 mixed pair_coeff terms from geometric mixing rule
Setting up Verlet run ...
  Unit style    : metal
  Current step  : 10000
  Time step     : 0.002
Per MPI rank memory allocation (min/avg/max) = 225.6 | 229.6 | 246.2 Mbytes
   Step          Temp          TotEng           Lx             Ly             Lz           Press     
     10000   700.12245     -7191913.8      198.38635      201.66481      208.8226      -7177.5431    
     11000   700.38594     -7192199.9      198.38635      201.66481      208.8226      -3165.9903    
     12000   700.74507     -7189292.6      198.38635      201.66481      208.8226      -17420.639    
     13000   701.2316      -7189741.1      198.38635      201.66481      208.8226      -15646.139    
     14000   698.63634     -7192374.4      198.38635      201.66481      208.8226      -2326.8372    
     15000   700.83077     -7191834.3      198.38635      201.66481      208.8226      -9213.3357    
     16000   700.53333     -7188554.2      198.38635      201.66481      208.8226      -19178.693    
     17000   700.7128      -7191548        198.38635      201.66481      208.8226      -10251.775    
     18000   698.92122     -7192451.6      198.38635      201.66481      208.8226      -2943.8034    
     19000   699.08108     -7190644.7      198.38635      201.66481      208.8226      -14705.256    
     20000   699.6541      -7189671.1      198.38635      201.66481      208.8226      -16519.622    
     21000   700.98318     -7192346.1      198.38635      201.66481      208.8226      -5099.3304    
     22000   700.07052     -7192082.4      198.38635      201.66481      208.8226      -7153.8852    
     23000   700.21694     -7189436.1      198.38635      201.66481      208.8226      -17513.729    
     24000   701.34997     -7191093.4      198.38635      201.66481      208.8226      -12430.301    
     25000   701.37482     -7192294.2      198.38635      201.66481      208.8226      -3754.8991    
     26000   699.48461     -7191251.9      198.38635      201.66481      208.8226      -12363.179    
     27000   700.35417     -7189770.8      198.38635      201.66481      208.8226      -16772.69     
     28000   700.0647      -7192087.6      198.38635      201.66481      208.8226      -7408.6282    
     29000   701.12798     -7192235.6      198.38635      201.66481      208.8226      -6243.4878    
     30000   700.03101     -7190129.5      198.38635      201.66481      208.8226      -15798.7      
     31000   701.08861     -7190680.6      198.38635      201.66481      208.8226      -13642.549    
     32000   700.72705     -7192106.1      198.38635      201.66481      208.8226      -5124.1218    
     33000   700.30293     -7191717.6      198.38635      201.66481      208.8226      -10481.883    
     34000   700.27144     -7190033.6      198.38635      201.66481      208.8226      -16038.284    
     35000   699.48743     -7191845.9      198.38635      201.66481      208.8226      -9366.7412    
     36000   699.10065     -7192427        198.38635      201.66481      208.8226      -6137.3758    
     37000   700.35605     -7190737.2      198.38635      201.66481      208.8226      -14099.967    
     38000   699.88752     -7190645.7      198.38635      201.66481      208.8226      -14189.199    
     39000   700.29775     -7192170.1      198.38635      201.66481      208.8226      -6390.8922    
     40000   699.26813     -7192139.4      198.38635      201.66481      208.8226      -9237.1351    
     41000   699.28885     -7190332.6      198.38635      201.66481      208.8226      -15387.048    
     42000   699.96283     -7191543.9      198.38635      201.66481      208.8226      -10875.801    
     43000   701.03737     -7192289.1      198.38635      201.66481      208.8226      -6255.1114    
     44000   699.93247     -7191065        198.38635      201.66481      208.8226      -12655.418    
     45000   700.61554     -7190574.7      198.38635      201.66481      208.8226      -14407.189    
     46000   699.43558     -7192177.2      198.38635      201.66481      208.8226      -7822.7645    
     47000   699.60408     -7192128.7      198.38635      201.66481      208.8226      -8602.37      
     48000   699.79796     -7190622.7      198.38635      201.66481      208.8226      -14476.199    
     49000   700.93715     -7191307.7      198.38635      201.66481      208.8226      -11859.153    
     50000   699.64717     -7192192.2      198.38635      201.66481      208.8226      -6834.3957    
     51000   701.13074     -7191421.3      198.38635      201.66481      208.8226      -11647.22     
     52000   700.10718     -7190718.9      198.38635      201.66481      208.8226      -14300.794    
     53000   699.28276     -7191935.3      198.38635      201.66481      208.8226      -9001.5701    
     54000   699.67983     -7192220        198.38635      201.66481      208.8226      -8162.6074    
     55000   701.41902     -7190908.9      198.38635      201.66481      208.8226      -13730.385    
     56000   699.73862     -7191264        198.38635      201.66481      208.8226      -12578.232    
     57000   700.07494     -7192173.2      198.38635      201.66481      208.8226      -7624.4567    
     58000   700.20229     -7191595.9      198.38635      201.66481      208.8226      -10620.936    
     59000   699.54029     -7190870.3      198.38635      201.66481      208.8226      -14067.237    
     60000   699.67119     -7191830.5      198.38635      201.66481      208.8226      -10043.22     
     61000   699.87412     -7192143.4      198.38635      201.66481      208.8226      -8040.0003    
     62000   700.38432     -7191167.5      198.38635      201.66481      208.8226      -12818.27     
     63000   699.78295     -7191143.6      198.38635      201.66481      208.8226      -12824.382    
     64000   700.42367     -7192073.9      198.38635      201.66481      208.8226      -8345.5988    
     65000   698.966       -7191917.8      198.38635      201.66481      208.8226      -9930.2866    
     66000   700.57433     -7190967.5      198.38635      201.66481      208.8226      -13590.842    
     67000   700.74011     -7191623.5      198.38635      201.66481      208.8226      -10763.342    
     68000   700.64583     -7192216.7      198.38635      201.66481      208.8226      -8291.6164    
     69000   699.28018     -7191469.5      198.38635      201.66481      208.8226      -12167.837    
     70000   699.36024     -7191095.9      198.38635      201.66481      208.8226      -12910.775    
     71000   699.93302     -7191971.4      198.38635      201.66481      208.8226      -8848.875     
     72000   699.83429     -7191888.6      198.38635      201.66481      208.8226      -9523.2034    
     73000   699.3033      -7191335.2      198.38635      201.66481      208.8226      -13147.121    
     74000   699.63483     -7191570.4      198.38635      201.66481      208.8226      -11187.229    
     75000   700.63467     -7192062.4      198.38635      201.66481      208.8226      -8661.3623    
     76000   699.42683     -7191595.9      198.38635      201.66481      208.8226      -11439.297    
     77000   701.20952     -7191153.1      198.38635      201.66481      208.8226      -12686.379    
     78000   700.08766     -7191958.1      198.38635      201.66481      208.8226      -9720.6305    
     79000   699.26627     -7192075        198.38635      201.66481      208.8226      -9415.8358    
     80000   700.22448     -7191388.8      198.38635      201.66481      208.8226      -12358.216    
     81000   699.13375     -7191681.3      198.38635      201.66481      208.8226      -11611.099    
     82000   700.50895     -7192086.6      198.38635      201.66481      208.8226      -9104.9342    
     83000   699.53364     -7191846.1      198.38635      201.66481      208.8226      -10877.567    
     84000   700.02144     -7191308.4      198.38635      201.66481      208.8226      -12649.182    
     85000   699.25832     -7191931.1      198.38635      201.66481      208.8226      -10240.148    
     86000   699.35651     -7192109.6      198.38635      201.66481      208.8226      -9531.6741    
     87000   701.38458     -7191487.2      198.38635      201.66481      208.8226      -11967.436    
     88000   699.53823     -7191658.9      198.38635      201.66481      208.8226      -11800.761    
     89000   700.40006     -7192068.5      198.38635      201.66481      208.8226      -9378.6392    
     90000   700.37396     -7191878.5      198.38635      201.66481      208.8226      -10489.561    
     91000   700.3036      -7191476.5      198.38635      201.66481      208.8226      -12372.73     
     92000   699.50047     -7191821        198.38635      201.66481      208.8226      -10714.507    
     93000   699.25157     -7192122.5      198.38635      201.66481      208.8226      -9537.5277    
     94000   698.76701     -7191797.3      198.38635      201.66481      208.8226      -11572.759    
     95000   699.1251      -7191585.1      198.38635      201.66481      208.8226      -12018.915    
     96000   700.25176     -7191969.1      198.38635      201.66481      208.8226      -9692.9278    
     97000   699.40175     -7192070        198.38635      201.66481      208.8226      -10275.033    
     98000   698.89053     -7191497.7      198.38635      201.66481      208.8226      -12162.375    
     99000   701.05783     -7191672.2      198.38635      201.66481      208.8226      -11201.297    
    100000   699.73048     -7192089.9      198.38635      201.66481      208.8226      -9688.502     
    101000   699.99922     -7191744.6      198.38635      201.66481      208.8226      -11170.538    
    102000   700.02007     -7191470        198.38635      201.66481      208.8226      -11927.011    
    103000   700.65575     -7191835.2      198.38635      201.66481      208.8226      -10139.102    
    104000   699.99974     -7191881.4      198.38635      201.66481      208.8226      -10226.812    
    105000   699.51513     -7191567.1      198.38635      201.66481      208.8226      -11779.636    
    106000   698.51127     -7191845.1      198.38635      201.66481      208.8226      -11278.966    
    107000   700.14438     -7192086.9      198.38635      201.66481      208.8226      -9976.5437    
    108000   698.75194     -7192017.9      198.38635      201.66481      208.8226      -11000.085    
    109000   701.06129     -7191488.7      198.38635      201.66481      208.8226      -11878.983    
    110000   699.38059     -7191950.5      198.38635      201.66481      208.8226      -10557.695    
    111000   700.00262     -7191960.1      198.38635      201.66481      208.8226      -10134.976    
    112000   699.13604     -7191844.7      198.38635      201.66481      208.8226      -11560.458    
    113000   700.20934     -7191670.9      198.38635      201.66481      208.8226      -11354.258    
    114000   700.36824     -7192037.9      198.38635      201.66481      208.8226      -10079.523    
    115000   700.83221     -7191779.7      198.38635      201.66481      208.8226      -10649.03     
    116000   700.02232     -7191768.2      198.38635      201.66481      208.8226      -11639.674    
    117000   700.68468     -7191780.9      198.38635      201.66481      208.8226      -10732.174    
    118000   700.5842      -7192023.2      198.38635      201.66481      208.8226      -10227.978    
    119000   699.78513     -7191729.8      198.38635      201.66481      208.8226      -11266.804    
    120000   701.25812     -7191601.7      198.38635      201.66481      208.8226      -11408.136    
    121000   699.39463     -7191974        198.38635      201.66481      208.8226      -10319.102    
    122000   699.84507     -7191840        198.38635      201.66481      208.8226      -10757.166    
    123000   700.02418     -7191638.5      198.38635      201.66481      208.8226      -11686.984    
    124000   700.07199     -7191770.1      198.38635      201.66481      208.8226      -10896.114    
    125000   701.00682     -7191909.4      198.38635      201.66481      208.8226      -10048.881    
    126000   699.72501     -7191787.5      198.38635      201.66481      208.8226      -11089.095    
    127000   700.00162     -7191783.2      198.38635      201.66481      208.8226      -11500.036    
    128000   701.18427     -7191834.4      198.38635      201.66481      208.8226      -10317.261    
    129000   700.31179     -7191872        198.38635      201.66481      208.8226      -10586.993    
    130000   701.02835     -7191657.4      198.38635      201.66481      208.8226      -11462.471    
    131000   700.66931     -7191793.1      198.38635      201.66481      208.8226      -11047.603    
    132000   699.09868     -7192168.8      198.38635      201.66481      208.8226      -10252.463    
    133000   699.74812     -7191741.7      198.38635      201.66481      208.8226      -11114.173    
    134000   700.32409     -7191839        198.38635      201.66481      208.8226      -11544.843    
    135000   700.76731     -7191933.4      198.38635      201.66481      208.8226      -10576.925    
    136000   699.64603     -7192026.3      198.38635      201.66481      208.8226      -10528.488    
    137000   700.1144      -7191798.5      198.38635      201.66481      208.8226      -11413.529    
    138000   700.69487     -7191833        198.38635      201.66481      208.8226      -11173.094    
    139000   700.83975     -7191918.6      198.38635      201.66481      208.8226      -10330.03     
    140000   699.98756     -7191845.3      198.38635      201.66481      208.8226      -10928.238    
    141000   700.34775     -7191758.7      198.38635      201.66481      208.8226      -11302.492    
    142000   700.2167      -7191927.3      198.38635      201.66481      208.8226      -10751.187    
    143000   701.19289     -7191806.5      198.38635      201.66481      208.8226      -10539.933    
    144000   699.28475     -7191998.1      198.38635      201.66481      208.8226      -11442.386    
    145000   699.08062     -7191991.8      198.38635      201.66481      208.8226      -11295.562    
    146000   701.54449     -7191853.8      198.38635      201.66481      208.8226      -10530.954    
    147000   700.11662     -7191860.4      198.38635      201.66481      208.8226      -10879.819    
    148000   700.13833     -7191734        198.38635      201.66481      208.8226      -11173.944    
    149000   700.48887     -7191878.3      198.38635      201.66481      208.8226      -10817.585    
    150000   700.37134     -7191979.2      198.38635      201.66481      208.8226      -10583.39     
    151000   699.95735     -7191867.2      198.38635      201.66481      208.8226      -11030.576    
    152000   698.68594     -7191976.2      198.38635      201.66481      208.8226      -11253.116    
    153000   701.34777     -7191859.2      198.38635      201.66481      208.8226      -10650.374    
    154000   698.04801     -7192118.3      198.38635      201.66481      208.8226      -10683.463    
    155000   700.48803     -7191891.1      198.38635      201.66481      208.8226      -11312.614    
    156000   699.957       -7191998.5      198.38635      201.66481      208.8226      -10882.333    
    157000   700.46295     -7191887        198.38635      201.66481      208.8226      -10628.93     
    158000   700.03218     -7192005        198.38635      201.66481      208.8226      -10932.556    
    159000   700.7108      -7191873        198.38635      201.66481      208.8226      -11132.756    
    160000   700.40877     -7191956.6      198.38635      201.66481      208.8226      -10660.777    
    161000   699.71507     -7192008        198.38635      201.66481      208.8226      -10687.874    
    162000   701.04525     -7191771.5      198.38635      201.66481      208.8226      -11034.464    
    163000   699.312       -7192019.1      198.38635      201.66481      208.8226      -11119.762    
    164000   698.84496     -7192087.4      198.38635      201.66481      208.8226      -10631.515    
    165000   700.18765     -7191786        198.38635      201.66481      208.8226      -10941.609    
    166000   699.83081     -7191965.5      198.38635      201.66481      208.8226      -11293.67     
    167000   700.10939     -7191954.2      198.38635      201.66481      208.8226      -10726.225    
    168000   700.7728      -7191987.1      198.38635      201.66481      208.8226      -10644.969    
    169000   699.23195     -7191982.5      198.38635      201.66481      208.8226      -11157.958    
    170000   699.82167     -7192010.1      198.38635      201.66481      208.8226      -11150.769    
    171000   701.13175     -7191919.2      198.38635      201.66481      208.8226      -10662.524    
    172000   699.29006     -7191970.2      198.38635      201.66481      208.8226      -10804.378    
    173000   700.09582     -7191816.2      198.38635      201.66481      208.8226      -11230.371    
    174000   700.19973     -7191978.6      198.38635      201.66481      208.8226      -10923.244    
    175000   698.88048     -7192148        198.38635      201.66481      208.8226      -10708.664    
    176000   699.31898     -7191949.9      198.38635      201.66481      208.8226      -11044.157    
    177000   700.95717     -7191746.5      198.38635      201.66481      208.8226      -11094.628    
    178000   700.19761     -7192004.2      198.38635      201.66481      208.8226      -10814.332    
    179000   700.16267     -7191928.3      198.38635      201.66481      208.8226      -10849.078    
    180000   698.02157     -7192070.7      198.38635      201.66481      208.8226      -11207.024    
    181000   700.09197     -7192002.2      198.38635      201.66481      208.8226      -10894.21     
    182000   699.26975     -7192169.8      198.38635      201.66481      208.8226      -10762.536    
    183000   700.10755     -7191954.3      198.38635      201.66481      208.8226      -11070.606    
    184000   700.18853     -7191829.5      198.38635      201.66481      208.8226      -11034.985    
    185000   699.90376     -7191968.5      198.38635      201.66481      208.8226      -10680.782    
    186000   698.84525     -7192084.4      198.38635      201.66481      208.8226      -10856.704    
    187000   699.67007     -7191943.4      198.38635      201.66481      208.8226      -11216.993    
    188000   699.14147     -7192009.4      198.38635      201.66481      208.8226      -11061.626    
    189000   699.61865     -7191990.9      198.38635      201.66481      208.8226      -10736.712    
    190000   700.10883     -7192002.6      198.38635      201.66481      208.8226      -11046.018    
    191000   700.07122     -7192017.3      198.38635      201.66481      208.8226      -11118.029    
    192000   698.87017     -7192132.9      198.38635      201.66481      208.8226      -10688.337    
    193000   700.31085     -7191990.8      198.38635      201.66481      208.8226      -10759.638    
    194000   700.05004     -7191930.5      198.38635      201.66481      208.8226      -11240.134    
    195000   700.35919     -7192151.9      198.38635      201.66481      208.8226      -11074.305    
    196000   699.63435     -7192086.7      198.38635      201.66481      208.8226      -10677.008    
    197000   697.73865     -7192250.3      198.38635      201.66481      208.8226      -10998.882    
    198000   699.51133     -7191942.7      198.38635      201.66481      208.8226      -11177.217    
    199000   699.86109     -7192007.5      198.38635      201.66481      208.8226      -10859.846    
    200000   700.34195     -7192045.1      198.38635      201.66481      208.8226      -10858.842    
    201000   699.97111     -7191965.7      198.38635      201.66481      208.8226      -10980.68     
    202000   699.91179     -7191955        198.38635      201.66481      208.8226      -11002.358    
    203000   699.53814     -7192125.1      198.38635      201.66481      208.8226      -10664.718    
    204000   700.68297     -7191966.7      198.38635      201.66481      208.8226      -10848.301    
    205000   699.69802     -7192077        198.38635      201.66481      208.8226      -11246.886    
    206000   699.912       -7192070        198.38635      201.66481      208.8226      -10910.846    
    207000   698.94596     -7192040.7      198.38635      201.66481      208.8226      -10783.845    
    208000   699.77135     -7192061.3      198.38635      201.66481      208.8226      -11055.221    
    209000   700.37995     -7191980.1      198.38635      201.66481      208.8226      -11041.519    
    210000   699.99017     -7192055.9      198.38635      201.66481      208.8226      -10730.956    
    211000   699.84611     -7192060.1      198.38635      201.66481      208.8226      -10775.026    
    212000   699.54089     -7192024.9      198.38635      201.66481      208.8226      -11193.801    
    213000   701.38805     -7191871.6      198.38635      201.66481      208.8226      -10880.38     
    214000   699.5259      -7192016.2      198.38635      201.66481      208.8226      -10782.085    
    215000   701.49798     -7191870.9      198.38635      201.66481      208.8226      -10998.354    
    216000   700.00619     -7191981.8      198.38635      201.66481      208.8226      -11108.22     
    217000   700.65181     -7192045.5      198.38635      201.66481      208.8226      -10852.81     
    218000   700.38213     -7192016.1      198.38635      201.66481      208.8226      -10927.01     
    219000   699.99212     -7192081.3      198.38635      201.66481      208.8226      -11143.861    
    220000   700.747       -7191926.6      198.38635      201.66481      208.8226      -10936.472    
    221000   699.51525     -7192040.6      198.38635      201.66481      208.8226      -10771.877    
    222000   701.27671     -7191961        198.38635      201.66481      208.8226      -11082.364    
    223000   699.90316     -7192055.1      198.38635      201.66481      208.8226      -11020.674    
    224000   699.94482     -7192162.3      198.38635      201.66481      208.8226      -10829.423    
    225000   700.85546     -7191923.1      198.38635      201.66481      208.8226      -10779.709    
    226000   698.81286     -7192102.3      198.38635      201.66481      208.8226      -11020.836    
    227000   700.32825     -7192011        198.38635      201.66481      208.8226      -10924.645    
    228000   699.67933     -7192080        198.38635      201.66481      208.8226      -10645.528    
    229000   700.05245     -7191949.6      198.38635      201.66481      208.8226      -11011.799    
    230000   700.07764     -7192026.9      198.38635      201.66481      208.8226      -11057.294    
    231000   700.40249     -7192051.9      198.38635      201.66481      208.8226      -10786.456    
    232000   699.58487     -7192139.4      198.38635      201.66481      208.8226      -10673.763    
    233000   699.32367     -7192133        198.38635      201.66481      208.8226      -11102.052    
    234000   700.24473     -7192050.3      198.38635      201.66481      208.8226      -11006.936    
    235000   701.12686     -7192005.5      198.38635      201.66481      208.8226      -10666.512    
    236000   700.09006     -7192159.6      198.38635      201.66481      208.8226      -11017.845    
    237000   700.96279     -7191930.2      198.38635      201.66481      208.8226      -10995.556    
    238000   700.73402     -7192049.2      198.38635      201.66481      208.8226      -10858.374    
    239000   698.56524     -7192182.7      198.38635      201.66481      208.8226      -10823.504    
    240000   699.16504     -7192146        198.38635      201.66481      208.8226      -11012.429    
    241000   699.34237     -7192030.6      198.38635      201.66481      208.8226      -11007.284    
    242000   699.81572     -7192205.5      198.38635      201.66481      208.8226      -10906.041    
    243000   702.01269     -7191931.8      198.38635      201.66481      208.8226      -10809.66     
    244000   701.3802      -7192008.2      198.38635      201.66481      208.8226      -11063.349    
    245000   700.40409     -7191981.8      198.38635      201.66481      208.8226      -10831.686    
    246000   699.56132     -7192170.5      198.38635      201.66481      208.8226      -10901.989    
    247000   699.71996     -7192089.5      198.38635      201.66481      208.8226      -10875.648    
    248000   699.97559     -7192090.4      198.38635      201.66481      208.8226      -11027.481    
    249000   699.916       -7192039.3      198.38635      201.66481      208.8226      -10817.268    
    250000   700.56271     -7192059.7      198.38635      201.66481      208.8226      -10870.469    
    251000   699.60634     -7192126.3      198.38635      201.66481      208.8226      -10920.209    
    252000   699.85803     -7192163.1      198.38635      201.66481      208.8226      -10961.666    
    253000   700.5558      -7192087.5      198.38635      201.66481      208.8226      -10870.954    
    254000   698.76773     -7192222.3      198.38635      201.66481      208.8226      -10933.709    
    255000   701.04322     -7192055.7      198.38635      201.66481      208.8226      -10933.602    
    256000   699.23472     -7192154.2      198.38635      201.66481      208.8226      -11053.538    
    257000   700.37238     -7192012.5      198.38635      201.66481      208.8226      -10957.306    
    258000   699.94388     -7192072.7      198.38635      201.66481      208.8226      -10910.252    
    259000   699.85176     -7192103.9      198.38635      201.66481      208.8226      -11000.044    
    260000   700.6466      -7192157.6      198.38635      201.66481      208.8226      -10818.515    
    261000   700.44391     -7192067.4      198.38635      201.66481      208.8226      -10824.176    
    262000   700.3223      -7192158        198.38635      201.66481      208.8226      -10950.412    
    263000   699.51799     -7192283.4      198.38635      201.66481      208.8226      -10871.255    
    264000   700.00706     -7192100.2      198.38635      201.66481      208.8226      -10825.693    
    265000   700.5211      -7192093.5      198.38635      201.66481      208.8226      -11035.645    
    266000   700.51138     -7192115.5      198.38635      201.66481      208.8226      -11019.246    
    267000   700.34536     -7192157.7      198.38635      201.66481      208.8226      -10869.431    
    268000   700.47336     -7192111.6      198.38635      201.66481      208.8226      -10854.969    
    269000   699.76584     -7191938.3      198.38635      201.66481      208.8226      -11019.116    
    270000   700.11264     -7192056.3      198.38635      201.66481      208.8226      -11037.838    
    271000   700.53881     -7192063.8      198.38635      201.66481      208.8226      -10853.341    
    272000   699.48009     -7192261.1      198.38635      201.66481      208.8226      -11161.746    
    273000   700.8405      -7192083.9      198.38635      201.66481      208.8226      -10968.796    
    274000   699.61616     -7192240        198.38635      201.66481      208.8226      -10789.174    
    275000   699.54993     -7192187.7      198.38635      201.66481      208.8226      -10862.945    
    276000   700.24944     -7192048        198.38635      201.66481      208.8226      -11061.908    
    277000   699.4526      -7192136.1      198.38635      201.66481      208.8226      -11018.849    
    278000   699.5525      -7192162.3      198.38635      201.66481      208.8226      -10849.068    
    279000   700.35387     -7192051.4      198.38635      201.66481      208.8226      -10873.437    
    280000   699.32557     -7192196.3      198.38635      201.66481      208.8226      -10993.238    
    281000   700.73403     -7192072.2      198.38635      201.66481      208.8226      -10890.37     
    282000   700.31481     -7192168.6      198.38635      201.66481      208.8226      -10941.711    
    283000   699.90371     -7192042.4      198.38635      201.66481      208.8226      -11166.799    
    284000   699.28715     -7192172.2      198.38635      201.66481      208.8226      -10979.41     
    285000   699.96934     -7192183.1      198.38635      201.66481      208.8226      -10847.88     
    286000   699.97198     -7192151.1      198.38635      201.66481      208.8226      -10960.669    
    287000   698.19336     -7192282.8      198.38635      201.66481      208.8226      -11044.758    
    288000   700.74977     -7192057.2      198.38635      201.66481      208.8226      -10798.253    
    289000   699.86825     -7192047.5      198.38635      201.66481      208.8226      -10833.286    
    290000   699.97359     -7192166.9      198.38635      201.66481      208.8226      -11016.852    
    291000   699.75687     -7192239.1      198.38635      201.66481      208.8226      -10981.44     
    292000   700.28627     -7192199.3      198.38635      201.66481      208.8226      -10941.45     
    293000   699.76489     -7192095.5      198.38635      201.66481      208.8226      -11089.596    
    294000   700.58391     -7192199.6      198.38635      201.66481      208.8226      -11027.027    
    295000   699.67605     -7192071.1      198.38635      201.66481      208.8226      -10812.425    
    296000   699.1735      -7192144.7      198.38635      201.66481      208.8226      -10997.47     
    297000   700.00653     -7192231.8      198.38635      201.66481      208.8226      -10924.559    
    298000   699.26523     -7192198.7      198.38635      201.66481      208.8226      -10906.905    
    299000   699.79696     -7192120.3      198.38635      201.66481      208.8226      -10938.647    
    300000   700.59127     -7192010.5      198.38635      201.66481      208.8226      -11013.456    
    301000   701.06837     -7192025.5      198.38635      201.66481      208.8226      -10900.601    
    302000   700.84008     -7192103.3      198.38635      201.66481      208.8226      -10802.395    
    303000   701.45394     -7192062.2      198.38635      201.66481      208.8226      -10958.542    
    304000   700.2751      -7192169.5      198.38635      201.66481      208.8226      -11061.184    
    305000   699.19977     -7192227        198.38635      201.66481      208.8226      -10813.552    
    306000   699.83348     -7192049.1      198.38635      201.66481      208.8226      -10831.145    
    307000   700.36343     -7192065.3      198.38635      201.66481      208.8226      -10891.242    
    308000   699.8067      -7192193.3      198.38635      201.66481      208.8226      -11006.925    
    309000   699.42906     -7192275.8      198.38635      201.66481      208.8226      -10866.023    
    310000   698.57685     -7192203.9      198.38635      201.66481      208.8226      -10983.654    
    311000   699.82926     -7192164.4      198.38635      201.66481      208.8226      -10941.789    
    312000   700.49852     -7192235.9      198.38635      201.66481      208.8226      -10945.536    
    313000   700.07632     -7192109.4      198.38635      201.66481      208.8226      -10974.953    
    314000   700.30138     -7192125.6      198.38635      201.66481      208.8226      -10988.995    
    315000   699.60968     -7192191.7      198.38635      201.66481      208.8226      -10951.896    
    316000   700.49295     -7192090.4      198.38635      201.66481      208.8226      -10912.357    
    317000   699.59608     -7192228.8      198.38635      201.66481      208.8226      -10977.164    
    318000   700.7347      -7192164.9      198.38635      201.66481      208.8226      -10865.212    
    319000   700.74769     -7192095.3      198.38635      201.66481      208.8226      -10817.52     
    320000   700.53014     -7192189        198.38635      201.66481      208.8226      -11004.665    
    321000   700.47766     -7192213        198.38635      201.66481      208.8226      -11055.2      
    322000   700.76083     -7192099.3      198.38635      201.66481      208.8226      -10837.175    
    323000   699.52274     -7192235.2      198.38635      201.66481      208.8226      -11129.138    
    324000   699.92971     -7192160.2      198.38635      201.66481      208.8226      -11041.479    
    325000   700.33473     -7192099.3      198.38635      201.66481      208.8226      -10913.165    
    326000   698.60534     -7192390.6      198.38635      201.66481      208.8226      -10917.618    
    327000   699.08346     -7192365.7      198.38635      201.66481      208.8226      -10931.431    
    328000   700.05834     -7192253        198.38635      201.66481      208.8226      -11058.013    
    329000   700.39145     -7192237.3      198.38635      201.66481      208.8226      -10734.587    
    330000   699.79407     -7192312.7      198.38635      201.66481      208.8226      -11180.776    
    331000   699.33067     -7192225.9      198.38635      201.66481      208.8226      -11111.682    
    332000   700.22686     -7192137.1      198.38635      201.66481      208.8226      -10927.134    
    333000   700.83407     -7192132.2      198.38635      201.66481      208.8226      -10905.733    
    334000   700.20284     -7192136.2      198.38635      201.66481      208.8226      -11047.51     
    335000   700.28976     -7192175.6      198.38635      201.66481      208.8226      -11028.342    
    336000   700.18416     -7192225.1      198.38635      201.66481      208.8226      -10813.174    
    337000   699.15066     -7192305.1      198.38635      201.66481      208.8226      -11047.429    
    338000   700.3838      -7192162.1      198.38635      201.66481      208.8226      -11297.649    
    339000   699.61663     -7192225.6      198.38635      201.66481      208.8226      -10841.531    
    340000   699.84058     -7192317.6      198.38635      201.66481      208.8226      -10696.868    
    341000   700.53412     -7192139.2      198.38635      201.66481      208.8226      -10995.024    
    342000   699.9534      -7192255.1      198.38635      201.66481      208.8226      -11102.128    
    343000   699.96978     -7192182.8      198.38635      201.66481      208.8226      -10825.38     
    344000   700.49315     -7192123.7      198.38635      201.66481      208.8226      -10975.983    
    345000   700.0618      -7192220.9      198.38635      201.66481      208.8226      -10978.432    
    346000   700.01581     -7192221        198.38635      201.66481      208.8226      -10795.608    
    347000   700.71835     -7192302.8      198.38635      201.66481      208.8226      -10807.781    
    348000   698.76465     -7192276.7      198.38635      201.66481      208.8226      -11062.627    
    349000   699.40316     -7192309.8      198.38635      201.66481      208.8226      -11016.752    
    350000   700.33        -7192333.5      198.38635      201.66481      208.8226      -10900.833    
    351000   700.45184     -7192100.1      198.38635      201.66481      208.8226      -10883.044    
    352000   700.72665     -7192168        198.38635      201.66481      208.8226      -11032.573    
    353000   699.31541     -7192403.1      198.38635      201.66481      208.8226      -10868.788    
    354000   701.57445     -7192129.4      198.38635      201.66481      208.8226      -10885.038    
    355000   699.89708     -7192235.5      198.38635      201.66481      208.8226      -11013.376    
    356000   700.68455     -7192245.3      198.38635      201.66481      208.8226      -11054.127    
    357000   699.8331      -7192249.7      198.38635      201.66481      208.8226      -10842.287    
    358000   699.83989     -7192325        198.38635      201.66481      208.8226      -10892.736    
    359000   700.25451     -7192269.9      198.38635      201.66481      208.8226      -11153.242    
    360000   699.20344     -7192294.2      198.38635      201.66481      208.8226      -10785.125    
    361000   699.27958     -7192396.9      198.38635      201.66481      208.8226      -10854.275    
    362000   699.56054     -7192197        198.38635      201.66481      208.8226      -11084.692    
    363000   700.43382     -7192333.9      198.38635      201.66481      208.8226      -10993.381    
    364000   700.51767     -7192365.3      198.38635      201.66481      208.8226      -10784.693    
    365000   699.30186     -7192375.9      198.38635      201.66481      208.8226      -10962.193    
    366000   700.04709     -7192173.6      198.38635      201.66481      208.8226      -11010.702    
    367000   700.44956     -7192292.2      198.38635      201.66481      208.8226      -10924.464    
    368000   699.60591     -7192300.9      198.38635      201.66481      208.8226      -10706.151    
    369000   699.66625     -7192210.1      198.38635      201.66481      208.8226      -10993.495    
    370000   699.86271     -7192281.1      198.38635      201.66481      208.8226      -11192.319    
    371000   698.99084     -7192382.8      198.38635      201.66481      208.8226      -10787.052    
    372000   701.24788     -7192175        198.38635      201.66481      208.8226      -10886.807    
    373000   699.46473     -7192288.9      198.38635      201.66481      208.8226      -11134.207    
    374000   698.94294     -7192331.7      198.38635      201.66481      208.8226      -10938.435    
    375000   699.11798     -7192321.9      198.38635      201.66481      208.8226      -10797.26     
    376000   699.99613     -7192253.9      198.38635      201.66481      208.8226      -11033.075    
    377000   699.9759      -7192273.9      198.38635      201.66481      208.8226      -11051.418    
    378000   700.4214      -7192175.4      198.38635      201.66481      208.8226      -10768.318    
    379000   698.1185      -7192404.9      198.38635      201.66481      208.8226      -10786.298    
    380000   700.02327     -7192280.2      198.38635      201.66481      208.8226      -11032.885    
    381000   699.50579     -7192322.1      198.38635      201.66481      208.8226      -10862.752    
    382000   699.70958     -7192389.7      198.38635      201.66481      208.8226      -10821.668    
    383000   699.33258     -7192365.6      198.38635      201.66481      208.8226      -11154.394    
    384000   700.11711     -7192277.2      198.38635      201.66481      208.8226      -11248.833    
    385000   700.07799     -7192254.3      198.38635      201.66481      208.8226      -10809.477    
    386000   699.00975     -7192427.2      198.38635      201.66481      208.8226      -10954.833    
    387000   699.95959     -7192293.4      198.38635      201.66481      208.8226      -11053.364    
    388000   699.42732     -7192301.8      198.38635      201.66481      208.8226      -11079.526    
    389000   699.02145     -7192326.1      198.38635      201.66481      208.8226      -10799.109    
    390000   699.27755     -7192364.8      198.38635      201.66481      208.8226      -10970.114    
    391000   699.59062     -7192362.7      198.38635      201.66481      208.8226      -11136.05     
    392000   698.6229      -7192394.5      198.38635      201.66481      208.8226      -10802.368    
    393000   699.69781     -7192430        198.38635      201.66481      208.8226      -10796.597    
    394000   701.52646     -7192148.5      198.38635      201.66481      208.8226      -10990.477    
    395000   700.57011     -7192215.5      198.38635      201.66481      208.8226      -11106.643    
    396000   700.90291     -7192168.5      198.38635      201.66481      208.8226      -10817.195    
    397000   698.71585     -7192339.7      198.38635      201.66481      208.8226      -11001.079    
    398000   699.76129     -7192241.8      198.38635      201.66481      208.8226      -11151.785    
    399000   699.26225     -7192444.6      198.38635      201.66481      208.8226      -10967.491    
    400000   700.06587     -7192263.1      198.38635      201.66481      208.8226      -10760.061    
    401000   699.30799     -7192349.7      198.38635      201.66481      208.8226      -11037.091    
    402000   699.67626     -7192238.3      198.38635      201.66481      208.8226      -10879.539    
    403000   700.58009     -7192280.6      198.38635      201.66481      208.8226      -10896.012    
    404000   700.21392     -7192378.5      198.38635      201.66481      208.8226      -11072.684    
    405000   700.89601     -7192242.6      198.38635      201.66481      208.8226      -10982.554    
    406000   700.40582     -7192190.2      198.38635      201.66481      208.8226      -11024.83     
    407000   700.27139     -7192277.3      198.38635      201.66481      208.8226      -10884.132    
    408000   700.54353     -7192210.2      198.38635      201.66481      208.8226      -11022.219    
    409000   700.85824     -7192271.3      198.38635      201.66481      208.8226      -11113.879    
    410000   700.93746     -7192268.4      198.38635      201.66481      208.8226      -10906.779    
    411000   698.30522     -7192492.9      198.38635      201.66481      208.8226      -11002.436    
    412000   700.44317     -7192223.1      198.38635      201.66481      208.8226      -11031.225    
    413000   699.29216     -7192390.1      198.38635      201.66481      208.8226      -10972.112    
    414000   699.81202     -7192378.7      198.38635      201.66481      208.8226      -10862.678    
    415000   699.64801     -7192258.8      198.38635      201.66481      208.8226      -10957.74     
    416000   700.45384     -7192231.5      198.38635      201.66481      208.8226      -10951.866    
    417000   701.2582      -7192188.9      198.38635      201.66481      208.8226      -10843.082    
    418000   698.31456     -7192446.4      198.38635      201.66481      208.8226      -11018.803    
    419000   699.60743     -7192393.8      198.38635      201.66481      208.8226      -11034.92     
    420000   698.86709     -7192481.8      198.38635      201.66481      208.8226      -10961.197    
    421000   699.86135     -7192276.8      198.38635      201.66481      208.8226      -10826.757    
    422000   699.89146     -7192259.4      198.38635      201.66481      208.8226      -10995.959    
    423000   700.86178     -7192111.4      198.38635      201.66481      208.8226      -11042.766    
    424000   700.37331     -7192309.9      198.38635      201.66481      208.8226      -11044.802    
    425000   700.62804     -7192229        198.38635      201.66481      208.8226      -10841.496    
    426000   700.69807     -7192304.5      198.38635      201.66481      208.8226      -11024.339    
    427000   699.65397     -7192283.3      198.38635      201.66481      208.8226      -11046.248    
    428000   699.88175     -7192268.5      198.38635      201.66481      208.8226      -10844.445    
    429000   699.61864     -7192334.5      198.38635      201.66481      208.8226      -10977.508    
    430000   699.68853     -7192268.1      198.38635      201.66481      208.8226      -11134.902    
    431000   700.29147     -7192320.2      198.38635      201.66481      208.8226      -11001.2      
    432000   699.51416     -7192378        198.38635      201.66481      208.8226      -10971.332    
    433000   698.99632     -7192370.3      198.38635      201.66481      208.8226      -11126.877    
    434000   700.0132      -7192315.5      198.38635      201.66481      208.8226      -10901.4      
    435000   700.71445     -7192339.1      198.38635      201.66481      208.8226      -10806.968    
    436000   698.94248     -7192482.5      198.38635      201.66481      208.8226      -11073.658    
    437000   699.90288     -7192222.2      198.38635      201.66481      208.8226      -10995.678    
    438000   699.62146     -7192441.1      198.38635      201.66481      208.8226      -10842.857    
    439000   700.306       -7192272.5      198.38635      201.66481      208.8226      -10771.528    
    440000   700.78258     -7192078        198.38635      201.66481      208.8226      -10987.458    
    441000   700.93977     -7192212.3      198.38635      201.66481      208.8226      -11059.968    
    442000   699.55298     -7192382.9      198.38635      201.66481      208.8226      -10779.039    
    443000   699.30892     -7192394.3      198.38635      201.66481      208.8226      -10922.905    
    444000   700.16782     -7192236.1      198.38635      201.66481      208.8226      -11174.988    
    445000   699.07121     -7192353.7      198.38635      201.66481      208.8226      -11069.089    
    446000   700.49437     -7192399.2      198.38635      201.66481      208.8226      -10858.395    
    447000   699.95826     -7192345        198.38635      201.66481      208.8226      -11190.266    
    448000   699.87688     -7192364.4      198.38635      201.66481      208.8226      -11141.146    
    449000   701.16545     -7192256.1      198.38635      201.66481      208.8226      -10830.578    
    450000   700.69769     -7192210.6      198.38635      201.66481      208.8226      -10980.041    
    451000   700.35954     -7192269.7      198.38635      201.66481      208.8226      -11011.513    
    452000   698.84944     -7192408.3      198.38635      201.66481      208.8226      -10930.838    
    453000   699.92464     -7192389.6      198.38635      201.66481      208.8226      -10734.705    
    454000   700.99035     -7192196.9      198.38635      201.66481      208.8226      -10985.781    
    455000   700.57644     -7192191.1      198.38635      201.66481      208.8226      -11074.176    
    456000   700.08772     -7192304.1      198.38635      201.66481      208.8226      -10815.288    
    457000   698.85312     -7192368.3      198.38635      201.66481      208.8226      -10934.517    
    458000   699.72346     -7192327.7      198.38635      201.66481      208.8226      -11093.809    
    459000   699.63191     -7192311        198.38635      201.66481      208.8226      -10989.294    
    460000   699.89561     -7192332.6      198.38635      201.66481      208.8226      -10951.69     
    461000   700.47365     -7192173.1      198.38635      201.66481      208.8226      -10823.892    
    462000   701.07397     -7192243.4      198.38635      201.66481      208.8226      -11049.786    
    463000   699.67426     -7192346.5      198.38635      201.66481      208.8226      -10817.923    
    464000   700.35328     -7192312.7      198.38635      201.66481      208.8226      -10871.25     
    465000   700.33447     -7192434.9      198.38635      201.66481      208.8226      -11120.157    
    466000   701.05737     -7192263.3      198.38635      201.66481      208.8226      -10935.9      
    467000   699.97623     -7192372.3      198.38635      201.66481      208.8226      -10925.307    
    468000   699.12916     -7192365.3      198.38635      201.66481      208.8226      -10889.22     
    469000   699.94022     -7192403.3      198.38635      201.66481      208.8226      -10987.371    
    470000   699.54139     -7192317.3      198.38635      201.66481      208.8226      -10960.767    
    471000   700.02465     -7192398.1      198.38635      201.66481      208.8226      -10971.289    
    472000   699.67043     -7192381.2      198.38635      201.66481      208.8226      -11034.094    
    473000   700.1379      -7192262.6      198.38635      201.66481      208.8226      -11135.774    
    474000   700.269       -7192321.5      198.38635      201.66481      208.8226      -10867.987    
    475000   700.70575     -7192341.4      198.38635      201.66481      208.8226      -10849.236    
    476000   701.02325     -7192211.4      198.38635      201.66481      208.8226      -10970.38     
    477000   699.01381     -7192395.9      198.38635      201.66481      208.8226      -11119.516    
    478000   700.62298     -7192300.6      198.38635      201.66481      208.8226      -10838.066    
    479000   699.21329     -7192425.9      198.38635      201.66481      208.8226      -10957.786    
    480000   699.97884     -7192284.2      198.38635      201.66481      208.8226      -11154.906    
    481000   699.96597     -7192254.2      198.38635      201.66481      208.8226      -10801.404    
    482000   700.36755     -7192294.4      198.38635      201.66481      208.8226      -10793.771    
    483000   699.96147     -7192300.1      198.38635      201.66481      208.8226      -10948.189    
    484000   699.8766      -7192289.4      198.38635      201.66481      208.8226      -10967.271    
    485000   698.77199     -7192426.7      198.38635      201.66481      208.8226      -10876.506    
    486000   700.40536     -7192205.3      198.38635      201.66481      208.8226      -10944.516    
    487000   699.80883     -7192271.9      198.38635      201.66481      208.8226      -10864.961    
    488000   698.88277     -7192428.1      198.38635      201.66481      208.8226      -10951.673    
    489000   700.95666     -7192360.3      198.38635      201.66481      208.8226      -11036.589    
    490000   699.39283     -7192488        198.38635      201.66481      208.8226      -11098.527    
    491000   700.79346     -7192338.5      198.38635      201.66481      208.8226      -10930.016    
    492000   700.25483     -7192296.2      198.38635      201.66481      208.8226      -10838.603    
    493000   699.75544     -7192396        198.38635      201.66481      208.8226      -10989.119    
    494000   700.2756      -7192271.7      198.38635      201.66481      208.8226      -10974.134    
    495000   699.97865     -7192364.4      198.38635      201.66481      208.8226      -11052.513    
    496000   698.49288     -7192307.5      198.38635      201.66481      208.8226      -10969.976    
    497000   699.65531     -7192460        198.38635      201.66481      208.8226      -11039.589    
    498000   701.24609     -7192278.2      198.38635      201.66481      208.8226      -11029.022    
    499000   700.5843      -7192344.6      198.38635      201.66481      208.8226      -11056.509    
    500000   700.56632     -7192262.4      198.38635      201.66481      208.8226      -10867.327    
    501000   700.67056     -7192167.2      198.38635      201.66481      208.8226      -11040.38     
    502000   700.39132     -7192297.3      198.38635      201.66481      208.8226      -10974.698    
    503000   699.56442     -7192509.1      198.38635      201.66481      208.8226      -10979.245    
    504000   699.28426     -7192453.3      198.38635      201.66481      208.8226      -11046.689    
    505000   699.69303     -7192354        198.38635      201.66481      208.8226      -11004.554    
    506000   700.17802     -7192469.6      198.38635      201.66481      208.8226      -11054.814    
    507000   700.02021     -7192409.7      198.38635      201.66481      208.8226      -10903.51     
    508000   700.65128     -7192264        198.38635      201.66481      208.8226      -11086.494    
    509000   700.34291     -7192329        198.38635      201.66481      208.8226      -10943.716    
    510000   699.48852     -7192444.5      198.38635      201.66481      208.8226      -11010.771    
    511000   700.1337      -7192274.3      198.38635      201.66481      208.8226      -10984.66     
    512000   699.94612     -7192347        198.38635      201.66481      208.8226      -11054.974    
    513000   700.44283     -7192241        198.38635      201.66481      208.8226      -10761.872    
    514000   698.78868     -7192441        198.38635      201.66481      208.8226      -11016.006    
    515000   701.22086     -7192286.9      198.38635      201.66481      208.8226      -11060.585    
    516000   699.70379     -7192353.4      198.38635      201.66481      208.8226      -10934.057    
    517000   700.18535     -7192373        198.38635      201.66481      208.8226      -10996.29     
    518000   699.9853      -7192410.7      198.38635      201.66481      208.8226      -10980.681    
    519000   700.26613     -7192317        198.38635      201.66481      208.8226      -10932.755    
    520000   701.17701     -7192328.6      198.38635      201.66481      208.8226      -11065.121    
    521000   699.78429     -7192440.6      198.38635      201.66481      208.8226      -11076.937    
    522000   699.25991     -7192397.3      198.38635      201.66481      208.8226      -10960.077    
    523000   699.37741     -7192502        198.38635      201.66481      208.8226      -10972.105    
    524000   700.90497     -7192319        198.38635      201.66481      208.8226      -11108.422    
    525000   701.29615     -7192233.2      198.38635      201.66481      208.8226      -10942.583    
    526000   700.09197     -7192494.3      198.38635      201.66481      208.8226      -10881.459    
    527000   699.49498     -7192468.4      198.38635      201.66481      208.8226      -11045.246    
    528000   700.24596     -7192356        198.38635      201.66481      208.8226      -10918.525    
    529000   700.02498     -7192270.8      198.38635      201.66481      208.8226      -10999.346    
    530000   699.49379     -7192381.7      198.38635      201.66481      208.8226      -10958.882    
    531000   700.13745     -7192308.5      198.38635      201.66481      208.8226      -11021.06     
    532000   700.70119     -7192373.1      198.38635      201.66481      208.8226      -10924.062    
    533000   700.80841     -7192275.8      198.38635      201.66481      208.8226      -11042.635    
    534000   699.43937     -7192461.3      198.38635      201.66481      208.8226      -10983.582    
    535000   699.1622      -7192536.4      198.38635      201.66481      208.8226      -11082.255    
    536000   701.50304     -7192293.6      198.38635      201.66481      208.8226      -10959.258    
    537000   699.75751     -7192527.5      198.38635      201.66481      208.8226      -10905.182    
    538000   700.48637     -7192233.7      198.38635      201.66481      208.8226      -10875.743    
    539000   698.88821     -7192412.5      198.38635      201.66481      208.8226      -10850.535    
    540000   700.09572     -7192304.4      198.38635      201.66481      208.8226      -10819.716    
    541000   699.33662     -7192496        198.38635      201.66481      208.8226      -10956.182    
    542000   699.70412     -7192487        198.38635      201.66481      208.8226      -11163.69     
    543000   700.87083     -7192282.8      198.38635      201.66481      208.8226      -10906.804    
    544000   699.01883     -7192482.2      198.38635      201.66481      208.8226      -10909.288    
    545000   700.35948     -7192391.1      198.38635      201.66481      208.8226      -11072.823    
    546000   700.37976     -7192366.7      198.38635      201.66481      208.8226      -10953.495    
    547000   700.53498     -7192336.3      198.38635      201.66481      208.8226      -10850.469    
    548000   700.10702     -7192388.2      198.38635      201.66481      208.8226      -11047.415    
    549000   699.29695     -7192451.4      198.38635      201.66481      208.8226      -11052.73     
    550000   700.39978     -7192364        198.38635      201.66481      208.8226      -11038.523    
    551000   698.97878     -7192422.3      198.38635      201.66481      208.8226      -10996.097    
    552000   700.8838      -7192295.3      198.38635      201.66481      208.8226      -10971.484    
    553000   699.65326     -7192364.3      198.38635      201.66481      208.8226      -10988.201    
    554000   698.849       -7192485.2      198.38635      201.66481      208.8226      -10964.746    
    555000   699.77795     -7192465.2      198.38635      201.66481      208.8226      -10932.698    
    556000   699.97599     -7192295.4      198.38635      201.66481      208.8226      -11016.688    
    557000   699.7408      -7192424.1      198.38635      201.66481      208.8226      -11113.8      
    558000   700.48862     -7192529.5      198.38635      201.66481      208.8226      -10880.135    
    559000   700.52011     -7192390.2      198.38635      201.66481      208.8226      -10912.911    
    560000   700.2561      -7192362.1      198.38635      201.66481      208.8226      -11118.342    
    561000   699.41129     -7192453        198.38635      201.66481      208.8226      -11063.869    
    562000   700.99455     -7192389.2      198.38635      201.66481      208.8226      -10925.652    
    563000   700.74782     -7192334        198.38635      201.66481      208.8226      -10939.835    
    564000   700.12622     -7192341.9      198.38635      201.66481      208.8226      -11010.466    
    565000   700.5036      -7192373.3      198.38635      201.66481      208.8226      -10945.236    
    566000   700.64181     -7192319.8      198.38635      201.66481      208.8226      -10954.605    
    567000   700.05271     -7192322.8      198.38635      201.66481      208.8226      -11113.879    
    568000   699.3495      -7192471.6      198.38635      201.66481      208.8226      -11003.357    
    569000   700.15971     -7192269.9      198.38635      201.66481      208.8226      -10875.938    
    570000   700.83888     -7192390.5      198.38635      201.66481      208.8226      -11142.952    
    571000   700.14384     -7192484.9      198.38635      201.66481      208.8226      -11034.022    
    572000   699.91525     -7192449        198.38635      201.66481      208.8226      -10909.518    
    573000   698.43858     -7192573.8      198.38635      201.66481      208.8226      -10854.451    
    574000   700.31701     -7192358.7      198.38635      201.66481      208.8226      -11105.99     
    575000   700.04512     -7192451.8      198.38635      201.66481      208.8226      -11045.076    
    576000   700.20331     -7192400.5      198.38635      201.66481      208.8226      -11007.437    
    577000   699.78516     -7192501.1      198.38635      201.66481      208.8226      -11074.104    
    578000   700.87557     -7192367.7      198.38635      201.66481      208.8226      -11162.004    
    579000   698.48726     -7192516.7      198.38635      201.66481      208.8226      -11040.176    
    580000   701.02983     -7192374.6      198.38635      201.66481      208.8226      -10818.542    
    581000   700.57071     -7192361.3      198.38635      201.66481      208.8226      -11062.286    
    582000   700.28444     -7192302.4      198.38635      201.66481      208.8226      -11020.604    
    583000   700.46446     -7192391.8      198.38635      201.66481      208.8226      -10985.374    
    584000   699.10665     -7192542.5      198.38635      201.66481      208.8226      -11063.839    
    585000   700.27881     -7192299.3      198.38635      201.66481      208.8226      -11149.11     
    586000   699.65326     -7192437.4      198.38635      201.66481      208.8226      -10988.289    
    587000   701.1994      -7192351.6      198.38635      201.66481      208.8226      -10964.106    
    588000   698.81091     -7192445.8      198.38635      201.66481      208.8226      -11134.13     
    589000   700.79153     -7192368.1      198.38635      201.66481      208.8226      -11049.553    
    590000   700.65835     -7192409.6      198.38635      201.66481      208.8226      -10787.84     
    591000   698.45075     -7192555.4      198.38635      201.66481      208.8226      -11034.483    
    592000   700.3594      -7192452.4      198.38635      201.66481      208.8226      -11224.051    
    593000   698.52351     -7192534.7      198.38635      201.66481      208.8226      -11195.574    
    594000   699.40002     -7192481.7      198.38635      201.66481      208.8226      -10965.965    
    595000   700.1599      -7192447.4      198.38635      201.66481      208.8226      -10946.776    
    596000   700.91677     -7192383.4      198.38635      201.66481      208.8226      -11121.938    
    597000   698.27033     -7192562.9      198.38635      201.66481      208.8226      -10740.282    
    598000   699.71389     -7192517.6      198.38635      201.66481      208.8226      -11026.351    
    599000   700.01809     -7192416.2      198.38635      201.66481      208.8226      -10994.736    
    600000   700.27609     -7192356.9      198.38635      201.66481      208.8226      -11005.011    
    601000   699.98586     -7192401.8      198.38635      201.66481      208.8226      -10955.048    
    602000   699.55946     -7192458.9      198.38635      201.66481      208.8226      -10989.307    
    603000   699.70096     -7192477.5      198.38635      201.66481      208.8226      -11041.853    
    604000   699.92075     -7192366.6      198.38635      201.66481      208.8226      -10819.977    
    605000   699.61504     -7192536.7      198.38635      201.66481      208.8226      -11080.025    
    606000   700.3621      -7192407.7      198.38635      201.66481      208.8226      -11189.66     
    607000   700.09913     -7192404.1      198.38635      201.66481      208.8226      -11048.183    
    608000   699.48045     -7192441.6      198.38635      201.66481      208.8226      -10854.383    
    609000   699.40211     -7192508.3      198.38635      201.66481      208.8226      -10959.19     
    610000   700.73355     -7192387.5      198.38635      201.66481      208.8226      -10970.338    
    611000   700.55837     -7192337.2      198.38635      201.66481      208.8226      -10856.155    
    612000   699.72243     -7192422.1      198.38635      201.66481      208.8226      -10950.804    
    613000   698.76348     -7192462.1      198.38635      201.66481      208.8226      -11082.862    
    614000   700.30515     -7192370.7      198.38635      201.66481      208.8226      -11199.346    
    615000   699.69512     -7192417        198.38635      201.66481      208.8226      -10913.899    
    616000   699.94456     -7192417.8      198.38635      201.66481      208.8226      -11002.714    
    617000   701.03702     -7192468.2      198.38635      201.66481      208.8226      -11149.489    
    618000   699.19056     -7192529        198.38635      201.66481      208.8226      -10945.972    
    619000   700.22693     -7192472.2      198.38635      201.66481      208.8226      -10922.79     
    620000   699.40864     -7192388.5      198.38635      201.66481      208.8226      -11069.129    
    621000   699.88672     -7192491.5      198.38635      201.66481      208.8226      -11085.753    
    622000   698.60785     -7192498.8      198.38635      201.66481      208.8226      -10804.595    
    623000   699.33185     -7192464.2      198.38635      201.66481      208.8226      -11031.934    
    624000   699.33003     -7192446.1      198.38635      201.66481      208.8226      -11070.499    
    625000   699.56372     -7192532.5      198.38635      201.66481      208.8226      -11110.554    
    626000   700.14624     -7192518.8      198.38635      201.66481      208.8226      -11054.761    
    627000   700.06118     -7192369.8      198.38635      201.66481      208.8226      -10942.637    
    628000   699.2672      -7192567.4      198.38635      201.66481      208.8226      -11151.633    
    629000   700.30321     -7192397.1      198.38635      201.66481      208.8226      -11057.943    
    630000   700.7347      -7192429.6      198.38635      201.66481      208.8226      -11068.545    
    631000   699.23021     -7192517.1      198.38635      201.66481      208.8226      -10974.456    
    632000   700.04682     -7192520.5      198.38635      201.66481      208.8226      -10924.414    
    633000   700.53256     -7192381.3      198.38635      201.66481      208.8226      -10939.917    
    634000   699.21862     -7192531        198.38635      201.66481      208.8226      -11010.413    
    635000   699.55556     -7192431.7      198.38635      201.66481      208.8226      -10997.173    
    636000   700.52315     -7192332.4      198.38635      201.66481      208.8226      -10832.411    
    637000   699.26621     -7192491.9      198.38635      201.66481      208.8226      -11048.595    
    638000   701.17043     -7192331.6      198.38635      201.66481      208.8226      -11107.151    
    639000   700.40364     -7192421        198.38635      201.66481      208.8226      -10982.202    
    640000   700.05808     -7192497.1      198.38635      201.66481      208.8226      -10994.407    
    641000   699.83014     -7192479.3      198.38635      201.66481      208.8226      -11031.924    
    642000   699.84737     -7192377.8      198.38635      201.66481      208.8226      -11030.516    
    643000   699.83674     -7192501.4      198.38635      201.66481      208.8226      -10929.119    
    644000   700.97173     -7192345.7      198.38635      201.66481      208.8226      -10724.258    
    645000   700.53508     -7192424.2      198.38635      201.66481      208.8226      -11085.569    
    646000   700.03119     -7192465.2      198.38635      201.66481      208.8226      -11079.768    
    647000   699.93259     -7192494        198.38635      201.66481      208.8226      -10750.054    
    648000   698.84894     -7192550        198.38635      201.66481      208.8226      -10939.916    
    649000   699.68127     -7192407.9      198.38635      201.66481      208.8226      -11194.649    
    650000   699.82877     -7192478.7      198.38635      201.66481      208.8226      -11016.073    
    651000   699.36353     -7192556.4      198.38635      201.66481      208.8226      -10817.821    
    652000   699.30183     -7192427.5      198.38635      201.66481      208.8226      -11109.83     
    653000   700.14074     -7192321.4      198.38635      201.66481      208.8226      -10962.495    
    654000   699.90813     -7192530.5      198.38635      201.66481      208.8226      -11063.745    
    655000   700.38063     -7192351.1      198.38635      201.66481      208.8226      -10975.112    
    656000   699.93359     -7192421.4      198.38635      201.66481      208.8226      -11026.646    
    657000   699.47873     -7192570        198.38635      201.66481      208.8226      -11013.258    
    658000   700.31025     -7192502.5      198.38635      201.66481      208.8226      -10820.537    
    659000   700.21148     -7192487.2      198.38635      201.66481      208.8226      -11060.945    
    660000   700.21794     -7192409.3      198.38635      201.66481      208.8226      -11027.319    
    661000   700.3112      -7192399.3      198.38635      201.66481      208.8226      -10868.798    
    662000   698.81917     -7192579.1      198.38635      201.66481      208.8226      -11024.184    
    663000   700.78466     -7192298.8      198.38635      201.66481      208.8226      -11063.539    
    664000   700.14418     -7192458.6      198.38635      201.66481      208.8226      -10955.561    
    665000   699.45559     -7192524.5      198.38635      201.66481      208.8226      -10909.774    
    666000   701.24115     -7192362.2      198.38635      201.66481      208.8226      -11072.455    
    667000   700.31792     -7192375.7      198.38635      201.66481      208.8226      -11014.229    
    668000   700.59443     -7192388.2      198.38635      201.66481      208.8226      -10888.168    
    669000   699.19086     -7192496.5      198.38635      201.66481      208.8226      -10924.377    
    670000   701.17195     -7192331.8      198.38635      201.66481      208.8226      -10850.578    
    671000   700.67157     -7192272.9      198.38635      201.66481      208.8226      -10981.205    
    672000   699.89553     -7192549.6      198.38635      201.66481      208.8226      -11017.356    
    673000   700.30788     -7192533.3      198.38635      201.66481      208.8226      -11165.169    
    674000   700.01839     -7192411.3      198.38635      201.66481      208.8226      -10845.896    
    675000   700.06133     -7192536.6      198.38635      201.66481      208.8226      -10977.21     
    676000   701.16012     -7192445.3      198.38635      201.66481      208.8226      -11059.706    
    677000   700.7281      -7192399.2      198.38635      201.66481      208.8226      -10805.551    
    678000   701.09445     -7192300.7      198.38635      201.66481      208.8226      -11041.806    
    679000   701.49499     -7192393.5      198.38635      201.66481      208.8226      -10958.354    
    680000   699.7152      -7192527.6      198.38635      201.66481      208.8226      -10921.106    
    681000   699.61517     -7192516.4      198.38635      201.66481      208.8226      -11099.799    
    682000   700.72846     -7192365.9      198.38635      201.66481      208.8226      -10890.54     
    683000   700.34978     -7192403.2      198.38635      201.66481      208.8226      -11055.73     
    684000   700.93253     -7192398.7      198.38635      201.66481      208.8226      -10993.169    
    685000   700.50253     -7192503.5      198.38635      201.66481      208.8226      -10986.326    
    686000   699.18525     -7192559.6      198.38635      201.66481      208.8226      -11017.451    
    687000   700.02275     -7192400.6      198.38635      201.66481      208.8226      -10898.284    
    688000   700.82901     -7192399.7      198.38635      201.66481      208.8226      -10996.522    
    689000   700.00549     -7192455.4      198.38635      201.66481      208.8226      -10943.809    
    690000   699.91906     -7192485.5      198.38635      201.66481      208.8226      -11048.833    
    691000   699.89278     -7192564.9      198.38635      201.66481      208.8226      -10926.048    
    692000   698.79485     -7192412.8      198.38635      201.66481      208.8226      -10985.001    
    693000   699.75302     -7192493.3      198.38635      201.66481      208.8226      -10928.304    
    694000   700.01017     -7192394.4      198.38635      201.66481      208.8226      -10905.911    
    695000   700.53113     -7192358.2      198.38635      201.66481      208.8226      -10924.236    
    696000   701.04221     -7192421.1      198.38635      201.66481      208.8226      -10962.51     
    697000   700.8692      -7192372.8      198.38635      201.66481      208.8226      -10945.069    
    698000   699.16649     -7192548.1      198.38635      201.66481      208.8226      -10924.689    
    699000   700.46052     -7192512.4      198.38635      201.66481      208.8226      -11091.419    
    700000   700.15149     -7192499.3      198.38635      201.66481      208.8226      -11016.623    
    701000   699.49289     -7192566.6      198.38635      201.66481      208.8226      -11082.098    
    702000   698.56417     -7192522.3      198.38635      201.66481      208.8226      -10993.253    
    703000   700.79523     -7192370        198.38635      201.66481      208.8226      -10856.096    
    704000   699.65612     -7192462.5      198.38635      201.66481      208.8226      -10856.232    
    705000   699.41347     -7192478.2      198.38635      201.66481      208.8226      -11087.207    
    706000   698.65628     -7192549        198.38635      201.66481      208.8226      -10991.639    
    707000   699.51778     -7192515        198.38635      201.66481      208.8226      -10903.455    
    708000   699.2055      -7192559.1      198.38635      201.66481      208.8226      -10976.901    
    709000   698.75411     -7192475.7      198.38635      201.66481      208.8226      -10967.562    
    710000   698.90177     -7192435.4      198.38635      201.66481      208.8226      -10977.161    
    711000   699.98        -7192511        198.38635      201.66481      208.8226      -10973.414    
    712000   699.63589     -7192529.6      198.38635      201.66481      208.8226      -11066.815    
    713000   698.95831     -7192498.9      198.38635      201.66481      208.8226      -10958.208    
    714000   700.64851     -7192404        198.38635      201.66481      208.8226      -10912.672    
    715000   700.27653     -7192451.1      198.38635      201.66481      208.8226      -10864.629    
    716000   701.09489     -7192434.2      198.38635      201.66481      208.8226      -11032.862    
    717000   698.71169     -7192572.5      198.38635      201.66481      208.8226      -11026.858    
    718000   699.82249     -7192468.8      198.38635      201.66481      208.8226      -10943.269    
    719000   699.89402     -7192504.9      198.38635      201.66481      208.8226      -11059.398    
    720000   698.94619     -7192557.6      198.38635      201.66481      208.8226      -10944.961    
    721000   701.09529     -7192500.5      198.38635      201.66481      208.8226      -10999.385    
    722000   698.77992     -7192596.7      198.38635      201.66481      208.8226      -11088.961    
    723000   698.81658     -7192530.6      198.38635      201.66481      208.8226      -10820.981    
    724000   699.49509     -7192579.9      198.38635      201.66481      208.8226      -10956.261    
    725000   700.67897     -7192561.1      198.38635      201.66481      208.8226      -11067.646    
    726000   700.76353     -7192375.9      198.38635      201.66481      208.8226      -10936.037    
    727000   700.10826     -7192497.3      198.38635      201.66481      208.8226      -10889.067    
    728000   701.03961     -7192306.5      198.38635      201.66481      208.8226      -10902.979    
    729000   699.90204     -7192442.9      198.38635      201.66481      208.8226      -10968.829    
    730000   699.18654     -7192557.3      198.38635      201.66481      208.8226      -11109.275    
    731000   699.54159     -7192522.6      198.38635      201.66481      208.8226      -11121.494    
    732000   700.12513     -7192511.3      198.38635      201.66481      208.8226      -10797.677    
    733000   699.93428     -7192461.6      198.38635      201.66481      208.8226      -11003.005    
    734000   700.28511     -7192452.8      198.38635      201.66481      208.8226      -10910.342    
    735000   699.79649     -7192516.2      198.38635      201.66481      208.8226      -10911.435    
    736000   699.75909     -7192459.7      198.38635      201.66481      208.8226      -10865.164    
    737000   700.67057     -7192304.4      198.38635      201.66481      208.8226      -11067.767    
    738000   698.74097     -7192508.6      198.38635      201.66481      208.8226      -10938.144    
    739000   699.10574     -7192530        198.38635      201.66481      208.8226      -10887.925    
    740000   699.4625      -7192524.8      198.38635      201.66481      208.8226      -11049.263    
    741000   699.85198     -7192511.8      198.38635      201.66481      208.8226      -10991.224    
    742000   699.21308     -7192530.2      198.38635      201.66481      208.8226      -10811.12     
    743000   700.30446     -7192536.8      198.38635      201.66481      208.8226      -10910.653    
    744000   699.69418     -7192543.3      198.38635      201.66481      208.8226      -11048.499    
    745000   701.53819     -7192376.9      198.38635      201.66481      208.8226      -11025.364    
    746000   698.99224     -7192640        198.38635      201.66481      208.8226      -10907.539    
    747000   699.7478      -7192426.7      198.38635      201.66481      208.8226      -10843.761    
    748000   700.1571      -7192536.5      198.38635      201.66481      208.8226      -10969.736    
    749000   700.8988      -7192512.2      198.38635      201.66481      208.8226      -11023.213    
    750000   699.69735     -7192487.4      198.38635      201.66481      208.8226      -11027.665    
    751000   700.12302     -7192482.3      198.38635      201.66481      208.8226      -10993.532    
    752000   700.42318     -7192289.2      198.38635      201.66481      208.8226      -11038.429    
    753000   699.06577     -7192411.4      198.38635      201.66481      208.8226      -10928.444    
    754000   698.4953      -7192655.3      198.38635      201.66481      208.8226      -10851.577    
    755000   698.70912     -7192609.2      198.38635      201.66481      208.8226      -10913.458    
    756000   700.04833     -7192483.7      198.38635      201.66481      208.8226      -10990.136    
    757000   699.45635     -7192617.9      198.38635      201.66481      208.8226      -11016.487    
    758000   699.99226     -7192532.2      198.38635      201.66481      208.8226      -11025.213    
    759000   699.81923     -7192488.6      198.38635      201.66481      208.8226      -11117.356    
    760000   699.84372     -7192627.3      198.38635      201.66481      208.8226      -10992.194    
    761000   699.24072     -7192622.1      198.38635      201.66481      208.8226      -11035.204    
    762000   700.65377     -7192383.4      198.38635      201.66481      208.8226      -10811.86     
    763000   700.54759     -7192418.3      198.38635      201.66481      208.8226      -11053.215    
    764000   700.21371     -7192451.9      198.38635      201.66481      208.8226      -10821.135    
    765000   700.47865     -7192530.3      198.38635      201.66481      208.8226      -11048.854    
    766000   699.66428     -7192520.9      198.38635      201.66481      208.8226      -10890.867    
    767000   700.52948     -7192554.2      198.38635      201.66481      208.8226      -10963.872    
    768000   699.60062     -7192524        198.38635      201.66481      208.8226      -11093.197    
    769000   699.33549     -7192446.6      198.38635      201.66481      208.8226      -11000.583    
    770000   699.85049     -7192462.1      198.38635      201.66481      208.8226      -11025.012    
    771000   700.47998     -7192438.1      198.38635      201.66481      208.8226      -10955.899    
    772000   699.92136     -7192552.8      198.38635      201.66481      208.8226      -10957.47     
    773000   699.95843     -7192482.7      198.38635      201.66481      208.8226      -10984.283    
    774000   700.02648     -7192436.8      198.38635      201.66481      208.8226      -10843.656    
    775000   700.32985     -7192545.9      198.38635      201.66481      208.8226      -11034.652    
    776000   701.60204     -7192392.6      198.38635      201.66481      208.8226      -10983.755    
    777000   698.7667      -7192603.1      198.38635      201.66481      208.8226      -11096.235    
    778000   700.93755     -7192450.1      198.38635      201.66481      208.8226      -10707.351    
    779000   700.40716     -7192597.5      198.38635      201.66481      208.8226      -11004.09     
    780000   700.82829     -7192388.8      198.38635      201.66481      208.8226      -11076.605    
    781000   699.10145     -7192523.9      198.38635      201.66481      208.8226      -10910.016    
    782000   700.78746     -7192549.4      198.38635      201.66481      208.8226      -11004.145    
    783000   701.18539     -7192394.8      198.38635      201.66481      208.8226      -11020.958    
    784000   699.4611      -7192541.4      198.38635      201.66481      208.8226      -10941.706    
    785000   698.82139     -7192551.3      198.38635      201.66481      208.8226      -10980.584    
    786000   698.8246      -7192651.5      198.38635      201.66481      208.8226      -10847.983    
    787000   699.6452      -7192470.5      198.38635      201.66481      208.8226      -11030.04     
    788000   699.12204     -7192567.2      198.38635      201.66481      208.8226      -10908.147    
    789000   701.08724     -7192418.3      198.38635      201.66481      208.8226      -11030.865    
    790000   700.14444     -7192498.5      198.38635      201.66481      208.8226      -10956.528    
    791000   699.73999     -7192531.6      198.38635      201.66481      208.8226      -11042.217    
    792000   700.73062     -7192576.4      198.38635      201.66481      208.8226      -10977.643    
    793000   700.79928     -7192473        198.38635      201.66481      208.8226      -10901.959    
    794000   699.74939     -7192420.3      198.38635      201.66481      208.8226      -10937.836    
    795000   700.00741     -7192581.3      198.38635      201.66481      208.8226      -11075.783    
    796000   699.96237     -7192535.2      198.38635      201.66481      208.8226      -10984.217    
    797000   699.34383     -7192590.3      198.38635      201.66481      208.8226      -10970.664    
    798000   700.68749     -7192479.4      198.38635      201.66481      208.8226      -11153.57     
    799000   700.94509     -7192474.9      198.38635      201.66481      208.8226      -10774.359    
    800000   700.50103     -7192485.2      198.38635      201.66481      208.8226      -11049.825    
    801000   698.9146      -7192682.5      198.38635      201.66481      208.8226      -11074.486    
    802000   700.36661     -7192456.4      198.38635      201.66481      208.8226      -10991.525    
    803000   700.37566     -7192488        198.38635      201.66481      208.8226      -10925.107    
    804000   698.89498     -7192647.2      198.38635      201.66481      208.8226      -10984.838    
    805000   700.71238     -7192492.2      198.38635      201.66481      208.8226      -11140.742    
    806000   701.12596     -7192511.7      198.38635      201.66481      208.8226      -10956.258    
    807000   700.01295     -7192528.8      198.38635      201.66481      208.8226      -11015.17     
    808000   699.59151     -7192514.9      198.38635      201.66481      208.8226      -11025.555    
    809000   700.43936     -7192429.6      198.38635      201.66481      208.8226      -10994.665    
    810000   699.07551     -7192693.7      198.38635      201.66481      208.8226      -10851.49     
    811000   699.51047     -7192552.9      198.38635      201.66481      208.8226      -10923.236    
    812000   699.10319     -7192609.7      198.38635      201.66481      208.8226      -11040.681    
    813000   698.84518     -7192598.8      198.38635      201.66481      208.8226      -11041.96     
    814000   698.73443     -7192662.7      198.38635      201.66481      208.8226      -10997.84     
    815000   699.31935     -7192645.8      198.38635      201.66481      208.8226      -11239.867    
    816000   700.48931     -7192546.5      198.38635      201.66481      208.8226      -11047.765    
    817000   701.73424     -7192348.2      198.38635      201.66481      208.8226      -10712.849    
    818000   699.09967     -7192673.7      198.38635      201.66481      208.8226      -10943.846    
    819000   700.1626      -7192485.1      198.38635      201.66481      208.8226      -11122.642    
    820000   699.89088     -7192534.7      198.38635      201.66481      208.8226      -11014.877    
    821000   700.0386      -7192624.4      198.38635      201.66481      208.8226      -10948.454    
    822000   698.89461     -7192590.7      198.38635      201.66481      208.8226      -11054.267    
    823000   700.94887     -7192555.2      198.38635      201.66481      208.8226      -11046.531    
    824000   699.58083     -7192590.9      198.38635      201.66481      208.8226      -10950.386    
    825000   700.02469     -7192552.4      198.38635      201.66481      208.8226      -11017.944    
    826000   699.96369     -7192554.2      198.38635      201.66481      208.8226      -11092.932    
    827000   699.54398     -7192483.4      198.38635      201.66481      208.8226      -10876.162    
    828000   700.12684     -7192513.5      198.38635      201.66481      208.8226      -10876.269    
    829000   701.39773     -7192486.8      198.38635      201.66481      208.8226      -11080.576    
    830000   699.11254     -7192707.9      198.38635      201.66481      208.8226      -11218.746    
    831000   700.45128     -7192526.4      198.38635      201.66481      208.8226      -10899.774    
    832000   699.60816     -7192616.7      198.38635      201.66481      208.8226      -11076.841    
    833000   701.00024     -7192469.1      198.38635      201.66481      208.8226      -11007.831    
    834000   699.91835     -7192578.9      198.38635      201.66481      208.8226      -11092.575    
    835000   700.0851      -7192514.8      198.38635      201.66481      208.8226      -11010.363    
    836000   698.42082     -7192690.1      198.38635      201.66481      208.8226      -11053.925    
    837000   699.41922     -7192571.9      198.38635      201.66481      208.8226      -11010.51     
    838000   699.43589     -7192617.4      198.38635      201.66481      208.8226      -11017.706    
    839000   699.53398     -7192472.7      198.38635      201.66481      208.8226      -10961.865    
    840000   699.7237      -7192547.7      198.38635      201.66481      208.8226      -10948.969    
    841000   700.25706     -7192605        198.38635      201.66481      208.8226      -10921.119    
    842000   699.69551     -7192648.6      198.38635      201.66481      208.8226      -10888.792    
    843000   700.14256     -7192604.9      198.38635      201.66481      208.8226      -11063.501    
    844000   699.59124     -7192524.9      198.38635      201.66481      208.8226      -10926.494    
    845000   700.11676     -7192527.8      198.38635      201.66481      208.8226      -10968.75     
    846000   699.34189     -7192585.1      198.38635      201.66481      208.8226      -11049.574    
    847000   699.63165     -7192587.1      198.38635      201.66481      208.8226      -11058.94     
    848000   700.6963      -7192532.3      198.38635      201.66481      208.8226      -10923.067    
    849000   700.32797     -7192546.8      198.38635      201.66481      208.8226      -11084.602    
    850000   700.53793     -7192456.4      198.38635      201.66481      208.8226      -11073.529    
    851000   700.80283     -7192473.2      198.38635      201.66481      208.8226      -11087.652    
    852000   700.563       -7192548.2      198.38635      201.66481      208.8226      -10963.431    
    853000   701.54117     -7192551.6      198.38635      201.66481      208.8226      -10921.495    
    854000   699.80066     -7192502        198.38635      201.66481      208.8226      -11115.787    
    855000   699.4072      -7192686.9      198.38635      201.66481      208.8226      -10968.023    
    856000   700.32938     -7192583.2      198.38635      201.66481      208.8226      -10965.795    
    857000   700.36493     -7192640.8      198.38635      201.66481      208.8226      -11008.995    
    858000   698.26755     -7192625.3      198.38635      201.66481      208.8226      -11065.214    
    859000   699.60096     -7192684.6      198.38635      201.66481      208.8226      -11094.444    
    860000   699.50232     -7192577.3      198.38635      201.66481      208.8226      -10956.253    
    861000   700.67604     -7192533.6      198.38635      201.66481      208.8226      -11045.693    
    862000   699.4142      -7192666.6      198.38635      201.66481      208.8226      -10951.49     
    863000   700.30139     -7192596.3      198.38635      201.66481      208.8226      -10928.852    
    864000   699.91055     -7192523.5      198.38635      201.66481      208.8226      -10972.826    
    865000   699.94329     -7192548.1      198.38635      201.66481      208.8226      -11046.339    
    866000   699.99887     -7192589.8      198.38635      201.66481      208.8226      -10965.656    
    867000   698.96708     -7192548.6      198.38635      201.66481      208.8226      -10988.438    
    868000   700.27539     -7192470.7      198.38635      201.66481      208.8226      -11278.223    
    869000   701.09999     -7192461        198.38635      201.66481      208.8226      -10888.204    
    870000   699.6395      -7192680        198.38635      201.66481      208.8226      -10960.41     
    871000   699.82359     -7192525.6      198.38635      201.66481      208.8226      -10949.763    
    872000   700.11719     -7192562        198.38635      201.66481      208.8226      -10923.087    
    873000   699.46068     -7192627.3      198.38635      201.66481      208.8226      -10971.151    
    874000   700.37772     -7192543.8      198.38635      201.66481      208.8226      -10872.483    
    875000   701.37012     -7192272.3      198.38635      201.66481      208.8226      -11036.052    
    876000   701.19433     -7192460.2      198.38635      201.66481      208.8226      -10961.121    
    877000   699.07232     -7192660.4      198.38635      201.66481      208.8226      -10835.486    
    878000   699.79281     -7192729.5      198.38635      201.66481      208.8226      -10983.383    
    879000   698.97624     -7192651.1      198.38635      201.66481      208.8226      -11103.755    
    880000   700.29251     -7192531.5      198.38635      201.66481      208.8226      -10863.411    
    881000   700.04511     -7192549.2      198.38635      201.66481      208.8226      -10987.552    
    882000   700.52717     -7192469.6      198.38635      201.66481      208.8226      -11072.585    
    883000   700.21274     -7192533.8      198.38635      201.66481      208.8226      -11110.125    
    884000   698.93955     -7192654        198.38635      201.66481      208.8226      -10920.769    
    885000   699.91915     -7192628.7      198.38635      201.66481      208.8226      -11038.35     
    886000   700.07041     -7192498.3      198.38635      201.66481      208.8226      -11069.06     
    887000   700.88008     -7192487.1      198.38635      201.66481      208.8226      -10873.779    
    888000   700.00942     -7192602.3      198.38635      201.66481      208.8226      -11026.786    
    889000   700.69206     -7192471.7      198.38635      201.66481      208.8226      -11003.085    
    890000   699.65023     -7192562.4      198.38635      201.66481      208.8226      -11073.885    
    891000   699.83035     -7192597.2      198.38635      201.66481      208.8226      -10946.318    
    892000   699.14675     -7192528.7      198.38635      201.66481      208.8226      -10890.18     
    893000   700.66235     -7192589.3      198.38635      201.66481      208.8226      -11233.788    
    894000   700.95401     -7192487.9      198.38635      201.66481      208.8226      -10917.708    
    895000   700.51163     -7192500.7      198.38635      201.66481      208.8226      -10789.257    
    896000   698.75459     -7192730.8      198.38635      201.66481      208.8226      -10965.824    
    897000   700.06071     -7192578.7      198.38635      201.66481      208.8226      -10991.651    
    898000   701.10395     -7192484.9      198.38635      201.66481      208.8226      -11053.991    
    899000   699.56409     -7192712.1      198.38635      201.66481      208.8226      -10945.276    
    900000   699.41453     -7192728.8      198.38635      201.66481      208.8226      -11135.912    
    901000   700.0053      -7192601.5      198.38635      201.66481      208.8226      -11075.478    
    902000   700.25222     -7192437.4      198.38635      201.66481      208.8226      -10839.293    
    903000   700.12475     -7192533.4      198.38635      201.66481      208.8226      -11153.317    
    904000   699.28572     -7192568.2      198.38635      201.66481      208.8226      -11028.496    
    905000   699.72515     -7192568.6      198.38635      201.66481      208.8226      -10884.499    
    906000   700.75824     -7192517.1      198.38635      201.66481      208.8226      -10969.2      
    907000   698.06537     -7192724.1      198.38635      201.66481      208.8226      -11075.635    
    908000   700.21594     -7192558.4      198.38635      201.66481      208.8226      -11015.308    
    909000   701.11241     -7192517.8      198.38635      201.66481      208.8226      -10921.989    
    910000   700.10603     -7192531.3      198.38635      201.66481      208.8226      -11047.458    
    911000   699.04612     -7192635.9      198.38635      201.66481      208.8226      -11203.95     
    912000   699.70336     -7192603.4      198.38635      201.66481      208.8226      -11050.362    
    913000   700.72088     -7192596.2      198.38635      201.66481      208.8226      -10876.53     
    914000   700.34868     -7192561        198.38635      201.66481      208.8226      -11158.552    
    915000   700.75539     -7192419.1      198.38635      201.66481      208.8226      -11016.758    
    916000   702.09631     -7192371.7      198.38635      201.66481      208.8226      -10808.828    
    917000   699.77705     -7192618.7      198.38635      201.66481      208.8226      -10933.111    
    918000   700.05498     -7192485.4      198.38635      201.66481      208.8226      -11163.105    
    919000   699.21046     -7192733.4      198.38635      201.66481      208.8226      -11000.515    
    920000   700.06069     -7192667.8      198.38635      201.66481      208.8226      -10886.5      
    921000   701.26753     -7192394.3      198.38635      201.66481      208.8226      -10929.386    
    922000   699.81683     -7192601.9      198.38635      201.66481      208.8226      -11263.213    
    923000   700.13034     -7192422.3      198.38635      201.66481      208.8226      -10894.705    
    924000   700.50151     -7192603        198.38635      201.66481      208.8226      -10949.506    
    925000   699.79683     -7192595        198.38635      201.66481      208.8226      -11016.411    
    926000   699.51634     -7192595.1      198.38635      201.66481      208.8226      -10941.953    
    927000   700.97306     -7192451.9      198.38635      201.66481      208.8226      -10844.78     
    928000   701.4213      -7192538.2      198.38635      201.66481      208.8226      -10953.039    
    929000   700.10369     -7192403        198.38635      201.66481      208.8226      -11080.486    
    930000   699.94947     -7192562.4      198.38635      201.66481      208.8226      -11222.408    
    931000   699.16804     -7192660        198.38635      201.66481      208.8226      -10980.634    
    932000   700.31451     -7192531.8      198.38635      201.66481      208.8226      -11119.854    
    933000   700.28659     -7192530.2      198.38635      201.66481      208.8226      -11094.122    
    934000   699.89458     -7192663.9      198.38635      201.66481      208.8226      -10910.291    
    935000   700.21517     -7192588.7      198.38635      201.66481      208.8226      -11131.428    
    936000   698.85826     -7192771.7      198.38635      201.66481      208.8226      -11109.51     
    937000   700.44001     -7192535.1      198.38635      201.66481      208.8226      -10860.096    
    938000   699.17786     -7192764.9      198.38635      201.66481      208.8226      -10891.722    
    939000   699.78661     -7192578        198.38635      201.66481      208.8226      -10994.804    
    940000   700.41682     -7192504.3      198.38635      201.66481      208.8226      -11001.674    
    941000   700.08099     -7192511.5      198.38635      201.66481      208.8226      -10894.682    
    942000   701.65729     -7192545.7      198.38635      201.66481      208.8226      -10840.023    
    943000   698.39582     -7192697.9      198.38635      201.66481      208.8226      -11117.485    
    944000   700.58908     -7192581.7      198.38635      201.66481      208.8226      -11050.411    
    945000   698.46177     -7192665.6      198.38635      201.66481      208.8226      -10895.833    
    946000   700.4041      -7192618.4      198.38635      201.66481      208.8226      -11236.854    
    947000   700.58134     -7192398.1      198.38635      201.66481      208.8226      -11212.763    
    948000   701.50775     -7192447.6      198.38635      201.66481      208.8226      -10952.492    
    949000   701.35974     -7192504.1      198.38635      201.66481      208.8226      -10903.493    
    950000   700.10061     -7192488.7      198.38635      201.66481      208.8226      -11252.365    
    951000   700.63146     -7192495.2      198.38635      201.66481      208.8226      -10918.721    
    952000   700.35207     -7192654.4      198.38635      201.66481      208.8226      -10883.528    
    953000   701.52734     -7192461.9      198.38635      201.66481      208.8226      -11047.389    
    954000   700.35988     -7192494.2      198.38635      201.66481      208.8226      -11088.761    
    955000   699.09748     -7192616.8      198.38635      201.66481      208.8226      -10900.528    
    956000   698.79163     -7192684.3      198.38635      201.66481      208.8226      -11023.722    
    957000   699.31258     -7192675        198.38635      201.66481      208.8226      -11076.248    
    958000   700.1506      -7192602.7      198.38635      201.66481      208.8226      -10962.942    
    959000   699.13817     -7192788.5      198.38635      201.66481      208.8226      -10830.154    
    960000   699.53895     -7192694.9      198.38635      201.66481      208.8226      -11176.225    
    961000   699.26686     -7192711.3      198.38635      201.66481      208.8226      -11169.541    
    962000   699.39196     -7192607.2      198.38635      201.66481      208.8226      -10934.513    
    963000   699.81565     -7192648.5      198.38635      201.66481      208.8226      -10956.994    
    964000   699.0256      -7192655.2      198.38635      201.66481      208.8226      -11207.912    
    965000   699.43758     -7192670        198.38635      201.66481      208.8226      -11125.589    
    966000   700.08869     -7192574.9      198.38635      201.66481      208.8226      -10840.628    
    967000   699.27302     -7192674        198.38635      201.66481      208.8226      -11129.236    
    968000   701.239       -7192465.8      198.38635      201.66481      208.8226      -10979.423    
    969000   698.91179     -7192692.9      198.38635      201.66481      208.8226      -10941.454    
    970000   701.15692     -7192476.4      198.38635      201.66481      208.8226      -10880.768    
    971000   699.50206     -7192629.4      198.38635      201.66481      208.8226      -11078.028    
    972000   699.54754     -7192649.6      198.38635      201.66481      208.8226      -11148.151    
    973000   699.65538     -7192592.7      198.38635      201.66481      208.8226      -10944.457    
    974000   699.65227     -7192611.3      198.38635      201.66481      208.8226      -10928.015    
    975000   699.4523      -7192550.3      198.38635      201.66481      208.8226      -10975.745    
    976000   700.377       -7192652.3      198.38635      201.66481      208.8226      -11019.496    
    977000   699.33799     -7192603.4      198.38635      201.66481      208.8226      -11052.247    
    978000   700.18822     -7192536.9      198.38635      201.66481      208.8226      -11087.564    
    979000   700.453       -7192542        198.38635      201.66481      208.8226      -10996.135    
    980000   699.55353     -7192539.9      198.38635      201.66481      208.8226      -10887.415    
    981000   701.0022      -7192478.9      198.38635      201.66481      208.8226      -10986.173    
    982000   700.373       -7192551        198.38635      201.66481      208.8226      -11033.468    
    983000   700.0748      -7192623.3      198.38635      201.66481      208.8226      -10816.307    
    984000   698.77178     -7192783.8      198.38635      201.66481      208.8226      -10963.112    
    985000   699.28692     -7192567.2      198.38635      201.66481      208.8226      -10952.787    
    986000   699.43464     -7192638.9      198.38635      201.66481      208.8226      -11284.042    
    987000   699.15701     -7192678.7      198.38635      201.66481      208.8226      -10840.687    
    988000   699.86083     -7192641.5      198.38635      201.66481      208.8226      -10988.578    
    989000   699.28526     -7192687.3      198.38635      201.66481      208.8226      -11075.953    
    990000   701.58813     -7192517.4      198.38635      201.66481      208.8226      -11029.325    
    991000   699.95831     -7192630.7      198.38635      201.66481      208.8226      -10864.247    
    992000   702.05238     -7192458.9      198.38635      201.66481      208.8226      -11113.286    
    993000   699.25829     -7192706.4      198.38635      201.66481      208.8226      -11030.975    
    994000   700.32594     -7192565.8      198.38635      201.66481      208.8226      -10773.392    
    995000   699.86918     -7192611.8      198.38635      201.66481      208.8226      -10999.551    
    996000   698.92927     -7192745.3      198.38635      201.66481      208.8226      -11036.797    
    997000   699.40259     -7192698.3      198.38635      201.66481      208.8226      -11027.976    
    998000   698.94791     -7192716        198.38635      201.66481      208.8226      -10877.505    
    999000   699.27182     -7192697.2      198.38635      201.66481      208.8226      -11049.699    
   1000000   700.56907     -7192446.3      198.38635      201.66481      208.8226      -10982.386    
   1001000   699.21936     -7192655.5      198.38635      201.66481      208.8226      -10930.107    
   1002000   699.94491     -7192689.2      198.38635      201.66481      208.8226      -10958.071    
   1003000   700.05115     -7192602.6      198.38635      201.66481      208.8226      -11023.956    
   1004000   698.25191     -7192751.9      198.38635      201.66481      208.8226      -10930        
   1005000   699.91823     -7192664.6      198.38635      201.66481      208.8226      -10980.814    
   1006000   700.00557     -7192594.5      198.38635      201.66481      208.8226      -11118.002    
   1007000   700.38796     -7192481.6      198.38635      201.66481      208.8226      -11033.792    
   1008000   700.22831     -7192556.2      198.38635      201.66481      208.8226      -10945.932    
   1009000   700.67292     -7192639.3      198.38635      201.66481      208.8226      -10896.482    
   1010000   700.11936     -7192540.3      198.38635      201.66481      208.8226      -11051.074    
   1011000   699.6694      -7192500.9      198.38635      201.66481      208.8226      -11105.248    
   1012000   700.11359     -7192564.5      198.38635      201.66481      208.8226      -10915.697    
   1013000   700.12364     -7192625.3      198.38635      201.66481      208.8226      -11118.558    
   1014000   699.5639      -7192653.8      198.38635      201.66481      208.8226      -11057.29     
   1015000   700.09043     -7192615.3      198.38635      201.66481      208.8226      -11038.446    
   1016000   699.41588     -7192681.4      198.38635      201.66481      208.8226      -10858.035    
   1017000   699.71472     -7192664        198.38635      201.66481      208.8226      -11122.552    
   1018000   699.53172     -7192621.2      198.38635      201.66481      208.8226      -11117.091    
   1019000   700.36729     -7192517.5      198.38635      201.66481      208.8226      -10977.801    
   1020000   700.16306     -7192518.4      198.38635      201.66481      208.8226      -10911.763    
   1021000   700.12339     -7192580.8      198.38635      201.66481      208.8226      -11041.683    
   1022000   700.01218     -7192621.4      198.38635      201.66481      208.8226      -10986.662    
   1023000   699.60264     -7192589.2      198.38635      201.66481      208.8226      -10983.358    
   1024000   700.57459     -7192572        198.38635      201.66481      208.8226      -11028.647    
   1025000   698.28143     -7192764.5      198.38635      201.66481      208.8226      -11001.886    
   1026000   699.17498     -7192773.2      198.38635      201.66481      208.8226      -10990.297    
   1027000   699.43628     -7192611.9      198.38635      201.66481      208.8226      -10913.065    
   1028000   700.20094     -7192629.2      198.38635      201.66481      208.8226      -11197.47     
   1029000   700.04449     -7192601.8      198.38635      201.66481      208.8226      -11083.64     
   1030000   700.24767     -7192644.4      198.38635      201.66481      208.8226      -11053.485    
   1031000   700.18401     -7192549        198.38635      201.66481      208.8226      -10987.222    
   1032000   700.54761     -7192599.4      198.38635      201.66481      208.8226      -11165.359    
   1033000   699.20529     -7192668.3      198.38635      201.66481      208.8226      -11058.936    
   1034000   700.30917     -7192426.7      198.38635      201.66481      208.8226      -10853.961    
   1035000   699.8068      -7192635.4      198.38635      201.66481      208.8226      -11077.068    
   1036000   700.37783     -7192571.8      198.38635      201.66481      208.8226      -11102.974    
   1037000   699.08384     -7192696.7      198.38635      201.66481      208.8226      -11036.481    
   1038000   700.02071     -7192504.5      198.38635      201.66481      208.8226      -10985.6      
   1039000   699.19301     -7192663.3      198.38635      201.66481      208.8226      -10998.102    
   1040000   700.12913     -7192601.1      198.38635      201.66481      208.8226      -11026.928    
   1041000   699.05422     -7192691.5      198.38635      201.66481      208.8226      -10864.694    
   1042000   700.33196     -7192479.8      198.38635      201.66481      208.8226      -10976.093    
   1043000   701.02081     -7192612.4      198.38635      201.66481      208.8226      -11055.115    
   1044000   700.00001     -7192655.4      198.38635      201.66481      208.8226      -10959.516    
   1045000   699.45843     -7192662.2      198.38635      201.66481      208.8226      -11107.512    
   1046000   699.91687     -7192601.5      198.38635      201.66481      208.8226      -11000.552    
   1047000   699.41541     -7192670.3      198.38635      201.66481      208.8226      -10903.651    
   1048000   700.31393     -7192595.1      198.38635      201.66481      208.8226      -11070.284    
   1049000   700.51254     -7192614.8      198.38635      201.66481      208.8226      -11062.819    
   1050000   700.37649     -7192646.1      198.38635      201.66481      208.8226      -11034.242    
   1051000   699.3511      -7192648.6      198.38635      201.66481      208.8226      -10914.637    
   1052000   700.83889     -7192607.4      198.38635      201.66481      208.8226      -11083.085    
   1053000   700.65737     -7192588        198.38635      201.66481      208.8226      -10965.102    
   1054000   699.69873     -7192607.3      198.38635      201.66481      208.8226      -10998.443    
   1055000   699.20209     -7192695.3      198.38635      201.66481      208.8226      -10981.32     
   1056000   699.39392     -7192649.9      198.38635      201.66481      208.8226      -11129.832    
   1057000   700.82105     -7192608.6      198.38635      201.66481      208.8226      -11054.443    
   1058000   701.24472     -7192475.1      198.38635      201.66481      208.8226      -11010.027    
   1059000   700.97376     -7192536        198.38635      201.66481      208.8226      -10999.262    
   1060000   699.13348     -7192719.1      198.38635      201.66481      208.8226      -11019.799    
   1061000   700.67864     -7192605.1      198.38635      201.66481      208.8226      -10969.817    
   1062000   699.49127     -7192684.8      198.38635      201.66481      208.8226      -10980.445    
   1063000   699.86242     -7192639.2      198.38635      201.66481      208.8226      -11080.452    
   1064000   701.36973     -7192503.3      198.38635      201.66481      208.8226      -10954.605    
   1065000   699.03372     -7192639.2      198.38635      201.66481      208.8226      -10928.168    
   1066000   700.6502      -7192459.6      198.38635      201.66481      208.8226      -10886.6      
   1067000   700.04984     -7192601.8      198.38635      201.66481      208.8226      -10977.245    
   1068000   698.13337     -7192693.3      198.38635      201.66481      208.8226      -10991.86     
   1069000   697.77636     -7192816.5      198.38635      201.66481      208.8226      -11163.526    
   1070000   699.79257     -7192669.8      198.38635      201.66481      208.8226      -10920.237    
   1071000   700.1199      -7192599.3      198.38635      201.66481      208.8226      -11079.58     
   1072000   700.13637     -7192508.5      198.38635      201.66481      208.8226      -10982.47     
   1073000   699.76543     -7192718.9      198.38635      201.66481      208.8226      -10989.179    
   1074000   699.15597     -7192773.6      198.38635      201.66481      208.8226      -11034.47     
   1075000   699.84869     -7192690.6      198.38635      201.66481      208.8226      -11106.033    
   1076000   700.81069     -7192609.4      198.38635      201.66481      208.8226      -11053.005    
   1077000   698.73288     -7192664.1      198.38635      201.66481      208.8226      -10966.238    
   1078000   699.73854     -7192607.8      198.38635      201.66481      208.8226      -10872.167    
   1079000   699.2902      -7192680.4      198.38635      201.66481      208.8226      -11111.314    
   1080000   698.62348     -7192664.1      198.38635      201.66481      208.8226      -10936.211    
   1081000   699.85051     -7192679.2      198.38635      201.66481      208.8226      -11069.375    
   1082000   700.49532     -7192576.2      198.38635      201.66481      208.8226      -11024.902    
   1083000   699.91239     -7192613.4      198.38635      201.66481      208.8226      -10910.129    
   1084000   699.174       -7192672        198.38635      201.66481      208.8226      -10829.047    
   1085000   701.10927     -7192461.1      198.38635      201.66481      208.8226      -11060.98     
   1086000   699.41965     -7192649.2      198.38635      201.66481      208.8226      -11061.531    
   1087000   700.87267     -7192611.2      198.38635      201.66481      208.8226      -11043.923    
   1088000   700.0177      -7192636.3      198.38635      201.66481      208.8226      -10985.456    
   1089000   700.28999     -7192564.2      198.38635      201.66481      208.8226      -11127.201    
   1090000   700.06732     -7192643.6      198.38635      201.66481      208.8226      -10980.069    
   1091000   699.61373     -7192672.8      198.38635      201.66481      208.8226      -10930.934    
   1092000   700.26419     -7192549        198.38635      201.66481      208.8226      -10914.32     
   1093000   700.27639     -7192520.5      198.38635      201.66481      208.8226      -11066.693    
   1094000   700.83485     -7192636        198.38635      201.66481      208.8226      -11032.979    
   1095000   699.88071     -7192553.7      198.38635      201.66481      208.8226      -10986.755    
   1096000   699.82282     -7192589.9      198.38635      201.66481      208.8226      -11151.061    
   1097000   699.76939     -7192610        198.38635      201.66481      208.8226      -10995.335    
   1098000   701.06201     -7192513.7      198.38635      201.66481      208.8226      -11010.822    
   1099000   700.22651     -7192617.5      198.38635      201.66481      208.8226      -10951.965    
   1100000   699.59552     -7192700        198.38635      201.66481      208.8226      -11049.286    
   1101000   698.86435     -7192705.4      198.38635      201.66481      208.8226      -11019.069    
   1102000   699.51933     -7192616.6      198.38635      201.66481      208.8226      -10989.458    
   1103000   698.78251     -7192775.4      198.38635      201.66481      208.8226      -11205.146    
   1104000   700.28746     -7192606.3      198.38635      201.66481      208.8226      -11062.039    
   1105000   701.045       -7192504.9      198.38635      201.66481      208.8226      -10861.29     
   1106000   700.5136      -7192733.2      198.38635      201.66481      208.8226      -11017.704    
   1107000   700.93873     -7192545.5      198.38635      201.66481      208.8226      -11161.291    
   1108000   700.36432     -7192567.4      198.38635      201.66481      208.8226      -10873.438    
   1109000   699.91692     -7192668        198.38635      201.66481      208.8226      -11087.679    
   1110000   700.49157     -7192487.6      198.38635      201.66481      208.8226      -11024.841    
   1111000   700.1659      -7192607.5      198.38635      201.66481      208.8226      -10936.371    
   1112000   700.34481     -7192598.8      198.38635      201.66481      208.8226      -10894.785    
   1113000   700.40026     -7192594.5      198.38635      201.66481      208.8226      -10877.126    
   1114000   701.21466     -7192476.2      198.38635      201.66481      208.8226      -11065.477    
   1115000   701.16531     -7192498.2      198.38635      201.66481      208.8226      -10876.278    
   1116000   699.81765     -7192604.2      198.38635      201.66481      208.8226      -10929.505    
   1117000   700.09624     -7192566.7      198.38635      201.66481      208.8226      -10956.938    
   1118000   700.43903     -7192676.2      198.38635      201.66481      208.8226      -11209.823    
   1119000   699.34435     -7192651.3      198.38635      201.66481      208.8226      -10925.056    
   1120000   700.2378      -7192713.3      198.38635      201.66481      208.8226      -10978.251    
   1121000   699.70992     -7192746.2      198.38635      201.66481      208.8226      -11051.996    
   1122000   699.90773     -7192628.3      198.38635      201.66481      208.8226      -10873.28     
   1123000   700.20153     -7192528.7      198.38635      201.66481      208.8226      -11105.578    
   1124000   699.2129      -7192720.4      198.38635      201.66481      208.8226      -11000.344    
   1125000   700.74415     -7192505        198.38635      201.66481      208.8226      -10932.906    
   1126000   699.38663     -7192700.5      198.38635      201.66481      208.8226      -11128.9      
   1127000   699.37066     -7192730.6      198.38635      201.66481      208.8226      -11084.476    
   1128000   700.89181     -7192577.6      198.38635      201.66481      208.8226      -11084.198    
   1129000   700.17164     -7192655.9      198.38635      201.66481      208.8226      -11033.943    
   1130000   700.18032     -7192570.3      198.38635      201.66481      208.8226      -10936.405    
   1131000   700.19487     -7192590.6      198.38635      201.66481      208.8226      -11078.722    
   1132000   700.1801      -7192628.7      198.38635      201.66481      208.8226      -10981.396    
   1133000   700.59559     -7192619.3      198.38635      201.66481      208.8226      -10909.443    
   1134000   700.76334     -7192573        198.38635      201.66481      208.8226      -11088.183    
   1135000   699.38591     -7192707.5      198.38635      201.66481      208.8226      -11118.555    
   1136000   699.68469     -7192755.9      198.38635      201.66481      208.8226      -10968.46     
   1137000   699.42763     -7192743.4      198.38635      201.66481      208.8226      -11064.317    
   1138000   702.16642     -7192385.2      198.38635      201.66481      208.8226      -11058.602    
   1139000   700.68044     -7192650.5      198.38635      201.66481      208.8226      -11057.436    
   1140000   699.90138     -7192645.4      198.38635      201.66481      208.8226      -10971.27     
   1141000   700.0834      -7192628.4      198.38635      201.66481      208.8226      -11073.669    
   1142000   700.67127     -7192509.4      198.38635      201.66481      208.8226      -11046.964    
   1143000   700.35904     -7192700.7      198.38635      201.66481      208.8226      -10951.03     
   1144000   699.97101     -7192714.5      198.38635      201.66481      208.8226      -10924.111    
   1145000   700.33557     -7192668.3      198.38635      201.66481      208.8226      -11227.04     
   1146000   699.59994     -7192667.7      198.38635      201.66481      208.8226      -11223.951    
   1147000   700.47334     -7192732.2      198.38635      201.66481      208.8226      -10955.186    
   1148000   699.6527      -7192727.3      198.38635      201.66481      208.8226      -10883.21     
   1149000   700.36578     -7192557        198.38635      201.66481      208.8226      -11114.057    
   1150000   700.65502     -7192526.3      198.38635      201.66481      208.8226      -10954.407    
   1151000   699.7151      -7192753.4      198.38635      201.66481      208.8226      -11118.928    
   1152000   699.28003     -7192736.8      198.38635      201.66481      208.8226      -11190.439    
   1153000   700.53529     -7192450.7      198.38635      201.66481      208.8226      -10982.215    
   1154000   701.10394     -7192583        198.38635      201.66481      208.8226      -10929.983    
   1155000   699.9511      -7192733.8      198.38635      201.66481      208.8226      -10899.669    
   1156000   700.14258     -7192576.8      198.38635      201.66481      208.8226      -11088.405    
   1157000   701.26656     -7192520.7      198.38635      201.66481      208.8226      -11048.855    
   1158000   699.28754     -7192719.6      198.38635      201.66481      208.8226      -11056.431    
   1159000   699.02862     -7192666        198.38635      201.66481      208.8226      -11021.225    
   1160000   699.83305     -7192704.3      198.38635      201.66481      208.8226      -10983.644    
   1161000   700.4495      -7192608.1      198.38635      201.66481      208.8226      -10984.584    
   1162000   700.76004     -7192582.8      198.38635      201.66481      208.8226      -10948.14     
   1163000   699.49699     -7192548.4      198.38635      201.66481      208.8226      -11013.976    
   1164000   699.85084     -7192550.8      198.38635      201.66481      208.8226      -11015.796    
   1165000   700.26702     -7192661.2      198.38635      201.66481      208.8226      -10839.255    
   1166000   700.45265     -7192683.7      198.38635      201.66481      208.8226      -10963.04     
   1167000   700.99931     -7192628.3      198.38635      201.66481      208.8226      -11108.004    
   1168000   700.19274     -7192601.9      198.38635      201.66481      208.8226      -10842.308    
   1169000   699.67183     -7192740.5      198.38635      201.66481      208.8226      -10985.094    
   1170000   700.62651     -7192502.5      198.38635      201.66481      208.8226      -11026.367    
   1171000   699.92539     -7192638        198.38635      201.66481      208.8226      -10963.741    
   1172000   700.40687     -7192637.9      198.38635      201.66481      208.8226      -10686.522    
   1173000   700.14297     -7192741.4      198.38635      201.66481      208.8226      -10987.989    
   1174000   698.67463     -7192775        198.38635      201.66481      208.8226      -11127.486    
   1175000   701.04503     -7192547.4      198.38635      201.66481      208.8226      -11064.803    
   1176000   699.03918     -7192837.9      198.38635      201.66481      208.8226      -10992.31     
   1177000   700.66008     -7192592        198.38635      201.66481      208.8226      -10981.268    
   1178000   698.89968     -7192673.3      198.38635      201.66481      208.8226      -11007.059    
   1179000   700.19253     -7192607.1      198.38635      201.66481      208.8226      -11026.033    
   1180000   699.31112     -7192689.2      198.38635      201.66481      208.8226      -10863.113    
   1181000   699.38669     -7192794.9      198.38635      201.66481      208.8226      -11136.136    
   1182000   699.52886     -7192791.9      198.38635      201.66481      208.8226      -11072.182    
   1183000   699.87982     -7192720.2      198.38635      201.66481      208.8226      -10988.927    
   1184000   700.77914     -7192644.9      198.38635      201.66481      208.8226      -11009.568    
   1185000   699.31377     -7192746.7      198.38635      201.66481      208.8226      -11177.95     
   1186000   700.12962     -7192702.9      198.38635      201.66481      208.8226      -11138.838    
   1187000   699.90796     -7192745.7      198.38635      201.66481      208.8226      -10855.512    
   1188000   700.90444     -7192591.8      198.38635      201.66481      208.8226      -11050.946    
   1189000   700.77872     -7192644.7      198.38635      201.66481      208.8226      -11031.992    
   1190000   700.67601     -7192661.6      198.38635      201.66481      208.8226      -10868.743    
   1191000   700.40598     -7192545.6      198.38635      201.66481      208.8226      -11115.591    
   1192000   700.96077     -7192572        198.38635      201.66481      208.8226      -11204.209    
   1193000   699.87724     -7192727.9      198.38635      201.66481      208.8226      -11083.054    
   1194000   699.30676     -7192723.7      198.38635      201.66481      208.8226      -11040.24     
   1195000   699.95958     -7192685.4      198.38635      201.66481      208.8226      -11044.9      
   1196000   700.58102     -7192618.8      198.38635      201.66481      208.8226      -11009.22     
   1197000   699.94431     -7192691.4      198.38635      201.66481      208.8226      -10952.53     
   1198000   700.1891      -7192588.7      198.38635      201.66481      208.8226      -10904.595    
   1199000   700.12395     -7192677.7      198.38635      201.66481      208.8226      -11148.229    
   1200000   700.59964     -7192602.5      198.38635      201.66481      208.8226      -11125        
   1201000   700.9373      -7192574.1      198.38635      201.66481      208.8226      -10919.762    
   1202000   699.09906     -7192727.6      198.38635      201.66481      208.8226      -10944.831    
   1203000   699.7575      -7192597        198.38635      201.66481      208.8226      -11010.805    
   1204000   699.48445     -7192751.6      198.38635      201.66481      208.8226      -11015.572    
   1205000   700.12521     -7192644.5      198.38635      201.66481      208.8226      -10920.549    
   1206000   700.82659     -7192548.6      198.38635      201.66481      208.8226      -11188.385    
   1207000   698.64333     -7192811.2      198.38635      201.66481      208.8226      -11112.022    
   1208000   700.8954      -7192582.7      198.38635      201.66481      208.8226      -11037.477    
   1209000   699.84788     -7192689.5      198.38635      201.66481      208.8226      -11151.255    
   1210000   700.49025     -7192584.3      198.38635      201.66481      208.8226      -10958.086    
   1211000   699.89647     -7192697.6      198.38635      201.66481      208.8226      -10955.766    
   1212000   699.36244     -7192716.4      198.38635      201.66481      208.8226      -10885.504    
   1213000   699.09505     -7192741.5      198.38635      201.66481      208.8226      -11047.807    
   1214000   698.75399     -7192756.1      198.38635      201.66481      208.8226      -11128.428    
   1215000   699.81744     -7192712.7      198.38635      201.66481      208.8226      -11012.735    
   1216000   698.52261     -7192734.1      198.38635      201.66481      208.8226      -10947.485    
   1217000   700.82909     -7192561.7      198.38635      201.66481      208.8226      -11025.344    
   1218000   700.81759     -7192614.1      198.38635      201.66481      208.8226      -10979.041    
   1219000   700.88062     -7192503.9      198.38635      201.66481      208.8226      -10828.466    
   1220000   700.8738      -7192587.8      198.38635      201.66481      208.8226      -11158.901    
   1221000   699.03376     -7192706.9      198.38635      201.66481      208.8226      -11024.571    
   1222000   699.3247      -7192666        198.38635      201.66481      208.8226      -11038.357    
   1223000   699.34561     -7192752.1      198.38635      201.66481      208.8226      -10945.919    
   1224000   700.16238     -7192666.7      198.38635      201.66481      208.8226      -11173.558    
   1225000   699.08066     -7192755.9      198.38635      201.66481      208.8226      -10940.584    
   1226000   700.41524     -7192672.5      198.38635      201.66481      208.8226      -10983.132    
   1227000   700.13137     -7192707.2      198.38635      201.66481      208.8226      -10901.072    
   1228000   699.75676     -7192666.6      198.38635      201.66481      208.8226      -11052.385    
   1229000   699.54161     -7192657.1      198.38635      201.66481      208.8226      -10980.293    
   1230000   699.43294     -7192621.9      198.38635      201.66481      208.8226      -11037.927    
   1231000   700.30867     -7192692.9      198.38635      201.66481      208.8226      -11099.262    
   1232000   699.06654     -7192713.2      198.38635      201.66481      208.8226      -10935.81     
   1233000   700.14856     -7192662.8      198.38635      201.66481      208.8226      -11003.23     
   1234000   699.72463     -7192647.4      198.38635      201.66481      208.8226      -11059.081    
   1235000   699.35306     -7192645.6      198.38635      201.66481      208.8226      -11017.766    
   1236000   699.45749     -7192793.7      198.38635      201.66481      208.8226      -10903.62     
   1237000   700.179       -7192652.7      198.38635      201.66481      208.8226      -10992.777    
   1238000   700.16144     -7192595.7      198.38635      201.66481      208.8226      -11068.613    
   1239000   700.11628     -7192603.6      198.38635      201.66481      208.8226      -10985.887    
   1240000   699.62287     -7192665        198.38635      201.66481      208.8226      -10972.044    
   1241000   699.62356     -7192676.3      198.38635      201.66481      208.8226      -11050.053    
   1242000   698.45301     -7192871.9      198.38635      201.66481      208.8226      -11014.178    
   1243000   699.11823     -7192738.8      198.38635      201.66481      208.8226      -11022.265    
   1244000   701.00033     -7192697.2      198.38635      201.66481      208.8226      -11097.662    
   1245000   700.92404     -7192573.9      198.38635      201.66481      208.8226      -11114.692    
   1246000   699.59803     -7192748.9      198.38635      201.66481      208.8226      -11036.544    
   1247000   699.41817     -7192743.8      198.38635      201.66481      208.8226      -11141.279    
   1248000   701.51869     -7192587.9      198.38635      201.66481      208.8226      -11046.614    
   1249000   699.96074     -7192702.4      198.38635      201.66481      208.8226      -11027.649    
   1250000   699.6179      -7192705.6      198.38635      201.66481      208.8226      -11087.707    
   1251000   701.58157     -7192541.4      198.38635      201.66481      208.8226      -11007.634    
   1252000   700.54509     -7192670.4      198.38635      201.66481      208.8226      -11046.282    
   1253000   699.86392     -7192570        198.38635      201.66481      208.8226      -10898.421    
   1254000   699.06195     -7192652.9      198.38635      201.66481      208.8226      -11039.006    
   1255000   700.64916     -7192646.7      198.38635      201.66481      208.8226      -11082.65     
   1256000   699.81216     -7192723.4      198.38635      201.66481      208.8226      -10975.026    
   1257000   700.0585      -7192697.9      198.38635      201.66481      208.8226      -10964.514    
   1258000   700.52824     -7192626.1      198.38635      201.66481      208.8226      -11029.135    
   1259000   699.24221     -7192633.6      198.38635      201.66481      208.8226      -10814.076    
   1260000   699.80632     -7192667.4      198.38635      201.66481      208.8226      -10953.947    
   1261000   699.13114     -7192732        198.38635      201.66481      208.8226      -11104.351    
   1262000   701.11214     -7192632.6      198.38635      201.66481      208.8226      -11094.133    
   1263000   701.21109     -7192577.6      198.38635      201.66481      208.8226      -10839.082    
   1264000   699.9486      -7192673.4      198.38635      201.66481      208.8226      -11066.01     
   1265000   699.07291     -7192752.1      198.38635      201.66481      208.8226      -10969.771    
   1266000   699.06388     -7192749        198.38635      201.66481      208.8226      -10888.324    
   1267000   700.69015     -7192513.6      198.38635      201.66481      208.8226      -10855.195    
   1268000   699.90481     -7192626.8      198.38635      201.66481      208.8226      -11014.381    
   1269000   698.4883      -7192824.8      198.38635      201.66481      208.8226      -11250.601    
   1270000   700.47244     -7192725.2      198.38635      201.66481      208.8226      -11020.895    
   1271000   699.21189     -7192764.8      198.38635      201.66481      208.8226      -11068.429    
   1272000   700.66039     -7192541.2      198.38635      201.66481      208.8226      -11022.346    
   1273000   699.47632     -7192643.9      198.38635      201.66481      208.8226      -11061.158    
   1274000   699.87964     -7192685.4      198.38635      201.66481      208.8226      -10975.89     
   1275000   700.16266     -7192662        198.38635      201.66481      208.8226      -11107.404    
   1276000   700.31117     -7192690.2      198.38635      201.66481      208.8226      -11022.703    
   1277000   699.40349     -7192717.9      198.38635      201.66481      208.8226      -11003.652    
   1278000   701.32257     -7192581        198.38635      201.66481      208.8226      -10969.762    
   1279000   699.30518     -7192733        198.38635      201.66481      208.8226      -11076.923    
   1280000   700.52222     -7192616.1      198.38635      201.66481      208.8226      -11055.158    
   1281000   700.88046     -7192561.1      198.38635      201.66481      208.8226      -11115.561    
   1282000   699.4458      -7192779.3      198.38635      201.66481      208.8226      -10967.046    
   1283000   698.81538     -7192803.7      198.38635      201.66481      208.8226      -11092.406    
   1284000   700.87475     -7192609.7      198.38635      201.66481      208.8226      -11020.9      
   1285000   700.16294     -7192712.4      198.38635      201.66481      208.8226      -11064.111    
   1286000   701.59144     -7192581.4      198.38635      201.66481      208.8226      -11094.699    
   1287000   699.32212     -7192820.1      198.38635      201.66481      208.8226      -11174.052    
   1288000   699.79151     -7192753.1      198.38635      201.66481      208.8226      -11106.424    
   1289000   700.46961     -7192638.2      198.38635      201.66481      208.8226      -10960.487    
   1290000   699.82574     -7192709.9      198.38635      201.66481      208.8226      -11134.806    
   1291000   699.97412     -7192656        198.38635      201.66481      208.8226      -10928.284    
   1292000   700.15703     -7192637.1      198.38635      201.66481      208.8226      -10865.087    
   1293000   700.5371      -7192718.9      198.38635      201.66481      208.8226      -11068.611    
   1294000   700.41982     -7192588.9      198.38635      201.66481      208.8226      -10933.508    
   1295000   700.75679     -7192642        198.38635      201.66481      208.8226      -11037.399    
   1296000   700.5718      -7192675.7      198.38635      201.66481      208.8226      -11027.948    
   1297000   698.79879     -7192836.1      198.38635      201.66481      208.8226      -11015.295    
   1298000   700.27866     -7192709        198.38635      201.66481      208.8226      -10957.822    
   1299000   699.38445     -7192758.5      198.38635      201.66481      208.8226      -10924.19     
   1300000   700.90993     -7192683.9      198.38635      201.66481      208.8226      -11154.786    
   1301000   700.16348     -7192671.7      198.38635      201.66481      208.8226      -11096.164    
   1302000   699.32057     -7192754.8      198.38635      201.66481      208.8226      -10995.809    
   1303000   700.3836      -7192666.7      198.38635      201.66481      208.8226      -11007.828    
   1304000   699.46766     -7192687.8      198.38635      201.66481      208.8226      -11115.467    
   1305000   700.69341     -7192626.7      198.38635      201.66481      208.8226      -10962.871    
   1306000   699.24458     -7192810.9      198.38635      201.66481      208.8226      -10981.446    
   1307000   699.99948     -7192706.5      198.38635      201.66481      208.8226      -11070.15     
   1308000   700.19584     -7192758.5      198.38635      201.66481      208.8226      -11221.016    
   1309000   700.87292     -7192665.3      198.38635      201.66481      208.8226      -10922.274    
   1310000   699.12784     -7192758.1      198.38635      201.66481      208.8226      -11008.07     
   1311000   700.38641     -7192688.3      198.38635      201.66481      208.8226      -11166.832    
   1312000   699.55019     -7192704.3      198.38635      201.66481      208.8226      -11068.79     
   1313000   699.64429     -7192726.6      198.38635      201.66481      208.8226      -10957.914    
   1314000   700.95042     -7192604.3      198.38635      201.66481      208.8226      -11037.073    
   1315000   698.53352     -7192847.9      198.38635      201.66481      208.8226      -10913.804    
   1316000   700.06981     -7192807.5      198.38635      201.66481      208.8226      -10969.945    
   1317000   700.26491     -7192632.4      198.38635      201.66481      208.8226      -10974.401    
   1318000   700.59908     -7192593.9      198.38635      201.66481      208.8226      -11150.388    
   1319000   700.17326     -7192679.8      198.38635      201.66481      208.8226      -11042.926    
   1320000   700.48487     -7192592.6      198.38635      201.66481      208.8226      -10989.264    
   1321000   700.48298     -7192695        198.38635      201.66481      208.8226      -11250.231    
   1322000   700.12239     -7192613.4      198.38635      201.66481      208.8226      -11006.011    
   1323000   700.18267     -7192763.4      198.38635      201.66481      208.8226      -11006.173    
   1324000   699.68627     -7192737.3      198.38635      201.66481      208.8226      -11050.739    
   1325000   699.54418     -7192822.6      198.38635      201.66481      208.8226      -11091.719    
   1326000   700.78659     -7192738.6      198.38635      201.66481      208.8226      -11043.326    
   1327000   701.99677     -7192605        198.38635      201.66481      208.8226      -10919.872    
   1328000   699.97492     -7192744.8      198.38635      201.66481      208.8226      -11046.61     
   1329000   701.07135     -7192574.5      198.38635      201.66481      208.8226      -11035.999    
   1330000   699.80006     -7192732.9      198.38635      201.66481      208.8226      -10969.022    
   1331000   699.22094     -7192805.4      198.38635      201.66481      208.8226      -10993.161    
   1332000   698.50543     -7192837.5      198.38635      201.66481      208.8226      -11013.021    
   1333000   698.73525     -7192864.6      198.38635      201.66481      208.8226      -11089.356    
   1334000   699.03607     -7192788.6      198.38635      201.66481      208.8226      -11055.215    
   1335000   700.29454     -7192672.8      198.38635      201.66481      208.8226      -10780.261    
   1336000   699.84531     -7192711.6      198.38635      201.66481      208.8226      -10937.538    
   1337000   699.2588      -7192728.6      198.38635      201.66481      208.8226      -11159.224    
   1338000   699.92852     -7192871.5      198.38635      201.66481      208.8226      -10964.296    
   1339000   699.69355     -7192821.6      198.38635      201.66481      208.8226      -10945.024    
   1340000   700.31291     -7192610.7      198.38635      201.66481      208.8226      -11105.363    
   1341000   699.62242     -7192703.3      198.38635      201.66481      208.8226      -11139.772    
   1342000   700.9879      -7192633.1      198.38635      201.66481      208.8226      -11022.139    
   1343000   699.62538     -7192688.6      198.38635      201.66481      208.8226      -10982.435    
   1344000   699.6506      -7192785.3      198.38635      201.66481      208.8226      -11129.783    
   1345000   699.04734     -7192677.5      198.38635      201.66481      208.8226      -11017.395    
   1346000   699.12494     -7192747.7      198.38635      201.66481      208.8226      -10979.275    
   1347000   698.38352     -7192778        198.38635      201.66481      208.8226      -10953.17     
   1348000   699.58249     -7192631.1      198.38635      201.66481      208.8226      -11053.093    
   1349000   699.62171     -7192793.4      198.38635      201.66481      208.8226      -10995.717    
   1350000   701.2351      -7192504        198.38635      201.66481      208.8226      -10890.072    
   1351000   699.43286     -7192670.6      198.38635      201.66481      208.8226      -11095.583    
   1352000   699.32272     -7192853.5      198.38635      201.66481      208.8226      -11045.523    
   1353000   700.3048      -7192707.1      198.38635      201.66481      208.8226      -10934.537    
   1354000   698.6659      -7192795.5      198.38635      201.66481      208.8226      -11078.912    
   1355000   699.72365     -7192771.2      198.38635      201.66481      208.8226      -11184.214    
   1356000   698.68511     -7192855.1      198.38635      201.66481      208.8226      -10872.279    
   1357000   699.5353      -7192764.5      198.38635      201.66481      208.8226      -10871.095    
   1358000   699.36784     -7192858.3      198.38635      201.66481      208.8226      -11143.324    
   1359000   701.00297     -7192579.8      198.38635      201.66481      208.8226      -10958.056    
   1360000   701.03063     -7192628.7      198.38635      201.66481      208.8226      -10946.029    
   1361000   699.89535     -7192816.4      198.38635      201.66481      208.8226      -11138.517    
   1362000   699.12754     -7192782.2      198.38635      201.66481      208.8226      -11133.728    
   1363000   700.69829     -7192621.7      198.38635      201.66481      208.8226      -11028.763    
   1364000   699.96159     -7192691.1      198.38635      201.66481      208.8226      -10883.673    
   1365000   700.70923     -7192694.4      198.38635      201.66481      208.8226      -11072.135    
   1366000   699.52653     -7192685        198.38635      201.66481      208.8226      -10993.991    
   1367000   700.22522     -7192768.6      198.38635      201.66481      208.8226      -11090.956    
   1368000   698.99086     -7192842.5      198.38635      201.66481      208.8226      -10927.091    
   1369000   701.58469     -7192709        198.38635      201.66481      208.8226      -10988.277    
   1370000   699.24666     -7192735.2      198.38635      201.66481      208.8226      -10893.872    
   1371000   699.64601     -7192736.8      198.38635      201.66481      208.8226      -10861.051    
   1372000   699.99752     -7192678.6      198.38635      201.66481      208.8226      -10998.56     
   1373000   700.02777     -7192688.2      198.38635      201.66481      208.8226      -11015.196    
   1374000   699.75309     -7192781.2      198.38635      201.66481      208.8226      -11052.76     
   1375000   699.33121     -7192766.1      198.38635      201.66481      208.8226      -10900.015    
   1376000   699.82778     -7192793.8      198.38635      201.66481      208.8226      -11043.555    
   1377000   699.66426     -7192680.1      198.38635      201.66481      208.8226      -11119.217    
   1378000   699.22214     -7192860.8      198.38635      201.66481      208.8226      -10908.016    
   1379000   699.49665     -7192882.6      198.38635      201.66481      208.8226      -10938.706    
   1380000   700.00042     -7192849        198.38635      201.66481      208.8226      -11055.485    
   1381000   699.71806     -7192675.2      198.38635      201.66481      208.8226      -11126.822    
   1382000   699.76033     -7192761.9      198.38635      201.66481      208.8226      -10987.983    
   1383000   700.50443     -7192719.6      198.38635      201.66481      208.8226      -11042.102    
   1384000   700.22237     -7192685.2      198.38635      201.66481      208.8226      -11145.653    
   1385000   698.60368     -7192893.5      198.38635      201.66481      208.8226      -11042.84     
   1386000   699.17784     -7192810.6      198.38635      201.66481      208.8226      -11010.972    
   1387000   699.87883     -7192608.1      198.38635      201.66481      208.8226      -11019.736    
   1388000   699.4743      -7192738.6      198.38635      201.66481      208.8226      -11133.188    
   1389000   699.33607     -7192804.3      198.38635      201.66481      208.8226      -10921.743    
   1390000   698.53552     -7192807.9      198.38635      201.66481      208.8226      -10912.25     
   1391000   701.42608     -7192666.6      198.38635      201.66481      208.8226      -11093.345    
   1392000   700.42482     -7192681.6      198.38635      201.66481      208.8226      -10989.213    
   1393000   700.15206     -7192812.7      198.38635      201.66481      208.8226      -10913.775    
   1394000   700.3162      -7192770.7      198.38635      201.66481      208.8226      -11163.698    
   1395000   699.08627     -7192813.9      198.38635      201.66481      208.8226      -11115.312    
   1396000   699.11412     -7192704.5      198.38635      201.66481      208.8226      -10826.198    
   1397000   699.82219     -7192773.8      198.38635      201.66481      208.8226      -11203.556    
   1398000   700.6848      -7192669.6      198.38635      201.66481      208.8226      -11151.811    
   1399000   700.02657     -7192757.9      198.38635      201.66481      208.8226      -10938.218    
   1400000   699.42358     -7192711.6      198.38635      201.66481      208.8226      -10875.081    
   1401000   700.69717     -7192656.4      198.38635      201.66481      208.8226      -11161.77     
   1402000   700.40401     -7192729.4      198.38635      201.66481      208.8226      -10937.772    
   1403000   699.46289     -7192810.4      198.38635      201.66481      208.8226      -11028.453    
   1404000   700.32386     -7192715.3      198.38635      201.66481      208.8226      -10963.292    
   1405000   699.76229     -7192862.1      198.38635      201.66481      208.8226      -11206.087    
   1406000   699.22359     -7192805.6      198.38635      201.66481      208.8226      -10973.282    
   1407000   700.29034     -7192699.6      198.38635      201.66481      208.8226      -10983.734    
   1408000   700.55831     -7192671        198.38635      201.66481      208.8226      -11022.974    
   1409000   700.73968     -7192630.1      198.38635      201.66481      208.8226      -10943.44     
   1410000   699.68779     -7192803.6      198.38635      201.66481      208.8226      -10980.338    
   1411000   700.14198     -7192664.4      198.38635      201.66481      208.8226      -11067.775    
   1412000   701.28017     -7192672.8      198.38635      201.66481      208.8226      -10999.944    
   1413000   699.8084      -7192684.3      198.38635      201.66481      208.8226      -10918.252    
   1414000   700.21651     -7192629.2      198.38635      201.66481      208.8226      -10918.268    
   1415000   700.61467     -7192629.7      198.38635      201.66481      208.8226      -10965.582    
   1416000   700.49852     -7192633.3      198.38635      201.66481      208.8226      -10935.248    
   1417000   700.77258     -7192651.3      198.38635      201.66481      208.8226      -10981.576    
   1418000   700.04224     -7192743.8      198.38635      201.66481      208.8226      -11077.105    
   1419000   700.23207     -7192734.5      198.38635      201.66481      208.8226      -11040.381    
   1420000   700.72697     -7192703.8      198.38635      201.66481      208.8226      -10918.49     
   1421000   699.02955     -7192761.9      198.38635      201.66481      208.8226      -10997.215    
   1422000   699.91476     -7192684.1      198.38635      201.66481      208.8226      -10926.709    
   1423000   700.34954     -7192706.8      198.38635      201.66481      208.8226      -10905.183    
   1424000   700.1648      -7192807.1      198.38635      201.66481      208.8226      -11114.952    
   1425000   699.73579     -7192721.9      198.38635      201.66481      208.8226      -11095.782    
   1426000   699.89636     -7192604.9      198.38635      201.66481      208.8226      -11002.306    
   1427000   699.31043     -7192755.4      198.38635      201.66481      208.8226      -10932.041    
   1428000   699.73587     -7192708.5      198.38635      201.66481      208.8226      -10962.262    
   1429000   700.10952     -7192736.1      198.38635      201.66481      208.8226      -11034.126    
   1430000   700.08866     -7192645.9      198.38635      201.66481      208.8226      -10915.856    
   1431000   700.84704     -7192621.2      198.38635      201.66481      208.8226      -10890.047    
   1432000   699.70597     -7192660.2      198.38635      201.66481      208.8226      -11109.481    
   1433000   699.64127     -7192644.7      198.38635      201.66481      208.8226      -11031.321    
   1434000   700.55361     -7192652.6      198.38635      201.66481      208.8226      -10999.205    
   1435000   699.9035      -7192776.5      198.38635      201.66481      208.8226      -11109.278    
   1436000   701.72873     -7192659.1      198.38635      201.66481      208.8226      -10964.166    
   1437000   700.02552     -7192699.3      198.38635      201.66481      208.8226      -11047.628    
   1438000   699.13667     -7192837.3      198.38635      201.66481      208.8226      -11053.881    
   1439000   699.73532     -7192820.8      198.38635      201.66481      208.8226      -11201.023    
   1440000   699.11692     -7192756.6      198.38635      201.66481      208.8226      -11160.972    
   1441000   700.41911     -7192744.9      198.38635      201.66481      208.8226      -11021.94     
   1442000   700.79459     -7192806        198.38635      201.66481      208.8226      -11059.092    
   1443000   700.17724     -7192716.1      198.38635      201.66481      208.8226      -10954.456    
   1444000   700.13202     -7192635.9      198.38635      201.66481      208.8226      -10979.423    
   1445000   699.87466     -7192810.2      198.38635      201.66481      208.8226      -11064.952    
   1446000   699.94219     -7192655.4      198.38635      201.66481      208.8226      -11007.21     
   1447000   699.54687     -7192802.2      198.38635      201.66481      208.8226      -11079.457    
   1448000   699.11981     -7192803.3      198.38635      201.66481      208.8226      -10957.731    
   1449000   700.83075     -7192650.2      198.38635      201.66481      208.8226      -10920.013    
   1450000   700.10243     -7192798.4      198.38635      201.66481      208.8226      -11071.777    
   1451000   699.73289     -7192768.3      198.38635      201.66481      208.8226      -11052.53     
   1452000   700.20907     -7192836.9      198.38635      201.66481      208.8226      -11039.299    
   1453000   700.00602     -7192801.2      198.38635      201.66481      208.8226      -10914.956    
   1454000   699.15158     -7192796        198.38635      201.66481      208.8226      -11037.446    
   1455000   699.38404     -7192762.6      198.38635      201.66481      208.8226      -11108.926    
   1456000   700.45071     -7192711.4      198.38635      201.66481      208.8226      -10942.676    
   1457000   699.67066     -7192762.5      198.38635      201.66481      208.8226      -11005.138    
   1458000   699.73312     -7192757.1      198.38635      201.66481      208.8226      -11066.135    
   1459000   700.57521     -7192729.9      198.38635      201.66481      208.8226      -11110.868    
   1460000   700.19388     -7192688.8      198.38635      201.66481      208.8226      -11092.089    
   1461000   699.92076     -7192729.7      198.38635      201.66481      208.8226      -11014.978    
   1462000   699.50649     -7192826.5      198.38635      201.66481      208.8226      -11159.046    
   1463000   699.03401     -7192831.8      198.38635      201.66481      208.8226      -10764.68     
   1464000   698.86586     -7192810.4      198.38635      201.66481      208.8226      -10972.042    
   1465000   700.73177     -7192700.6      198.38635      201.66481      208.8226      -11101.214    
   1466000   699.1244      -7192800.6      198.38635      201.66481      208.8226      -11118.347    
   1467000   700.47179     -7192611.9      198.38635      201.66481      208.8226      -11128.341    
   1468000   699.49716     -7192873.8      198.38635      201.66481      208.8226      -11175.529    
   1469000   699.09888     -7192663.3      198.38635      201.66481      208.8226      -10961.928    
   1470000   699.89071     -7192846.5      198.38635      201.66481      208.8226      -11025.459    
   1471000   700.00119     -7192694.5      198.38635      201.66481      208.8226      -10947.995    
   1472000   699.38335     -7192770.3      198.38635      201.66481      208.8226      -11075.268    
   1473000   700.2067      -7192723.9      198.38635      201.66481      208.8226      -11068.247    
   1474000   699.5998      -7192834.8      198.38635      201.66481      208.8226      -11151.602    
   1475000   700.69636     -7192638.2      198.38635      201.66481      208.8226      -11032.972    
   1476000   700.63358     -7192635.9      198.38635      201.66481      208.8226      -10882.324    
   1477000   699.65269     -7192773.4      198.38635      201.66481      208.8226      -10938.973    
   1478000   700.40047     -7192690.3      198.38635      201.66481      208.8226      -11135.181    
   1479000   699.85468     -7192714.2      198.38635      201.66481      208.8226      -11004.263    
   1480000   701.56124     -7192531.9      198.38635      201.66481      208.8226      -10950.402    
   1481000   700.41116     -7192742.7      198.38635      201.66481      208.8226      -11110.236    
   1482000   700.92899     -7192716.6      198.38635      201.66481      208.8226      -11057.98     
   1483000   700.29568     -7192837        198.38635      201.66481      208.8226      -10887.325    
   1484000   700.64915     -7192639.4      198.38635      201.66481      208.8226      -10927.063    
   1485000   700.68394     -7192686.8      198.38635      201.66481      208.8226      -11098.069    
   1486000   700.33815     -7192695.3      198.38635      201.66481      208.8226      -11027.154    
   1487000   700.03054     -7192753.8      198.38635      201.66481      208.8226      -10873.479    
   1488000   700.03101     -7192830.4      198.38635      201.66481      208.8226      -11201.545    
   1489000   699.75824     -7192674.7      198.38635      201.66481      208.8226      -11103.832    
   1490000   699.64461     -7192708.3      198.38635      201.66481      208.8226      -10853.196    
   1491000   700.28137     -7192649        198.38635      201.66481      208.8226      -10851.998    
   1492000   700.3542      -7192713.6      198.38635      201.66481      208.8226      -11133.556    
   1493000   699.8913      -7192737.2      198.38635      201.66481      208.8226      -10954.645    
   1494000   700.02316     -7192701.8      198.38635      201.66481      208.8226      -10851.848    
   1495000   700.34387     -7192640.9      198.38635      201.66481      208.8226      -10987.508    
   1496000   701.18793     -7192635.8      198.38635      201.66481      208.8226      -10967.736    
   1497000   701.03459     -7192702.4      198.38635      201.66481      208.8226      -10969.001    
   1498000   699.53701     -7192812.3      198.38635      201.66481      208.8226      -10971.578    
   1499000   699.70677     -7192705.9      198.38635      201.66481      208.8226      -11070.605    
   1500000   700.67244     -7192646.9      198.38635      201.66481      208.8226      -11014.255    
   1501000   699.52684     -7192861.3      198.38635      201.66481      208.8226      -10829.524    
   1502000   699.79922     -7192784.3      198.38635      201.66481      208.8226      -10951.224    
   1503000   700.74482     -7192644.2      198.38635      201.66481      208.8226      -11197.401    
   1504000   699.78363     -7192803.4      198.38635      201.66481      208.8226      -10914.176    
   1505000   701.32099     -7192715.4      198.38635      201.66481      208.8226      -10984.763    
   1506000   700.72843     -7192618.8      198.38635      201.66481      208.8226      -11248.055    
   1507000   699.59509     -7192748.8      198.38635      201.66481      208.8226      -11037.168    
   1508000   701.19808     -7192660.7      198.38635      201.66481      208.8226      -10723.301    
   1509000   700.20841     -7192678.5      198.38635      201.66481      208.8226      -10991.571    
   1510000   700.18711     -7192844.2      198.38635      201.66481      208.8226      -11074.099    
   1511000   700.11327     -7192782.6      198.38635      201.66481      208.8226      -10876.243    
   1512000   701.19664     -7192636.1      198.38635      201.66481      208.8226      -10836.786    
   1513000   699.65621     -7192669.8      198.38635      201.66481      208.8226      -11213.664    
   1514000   700.60257     -7192675.2      198.38635      201.66481      208.8226      -11141.144    
   1515000   700.25042     -7192906.5      198.38635      201.66481      208.8226      -10891.271    
   1516000   699.89191     -7192812.9      198.38635      201.66481      208.8226      -11028.616    
   1517000   700.49932     -7192780.2      198.38635      201.66481      208.8226      -11192.796    
   1518000   700.50464     -7192726.1      198.38635      201.66481      208.8226      -10977.88     
   1519000   700.34346     -7192793.6      198.38635      201.66481      208.8226      -10834.704    
   1520000   699.47261     -7192841.2      198.38635      201.66481      208.8226      -11021.983    
   1521000   700.07715     -7192732.8      198.38635      201.66481      208.8226      -11276.261    
   1522000   698.92653     -7192873.8      198.38635      201.66481      208.8226      -10912.413    
   1523000   699.9665      -7192771.4      198.38635      201.66481      208.8226      -10869.205    
   1524000   699.1176      -7192850.9      198.38635      201.66481      208.8226      -11107.861    
   1525000   699.87078     -7192749.4      198.38635      201.66481      208.8226      -10986.089    
   1526000   698.95466     -7192820.9      198.38635      201.66481      208.8226      -10816.443    
   1527000   700.43518     -7192712        198.38635      201.66481      208.8226      -10953.982    
   1528000   700.79647     -7192723.7      198.38635      201.66481      208.8226      -11197.736    
   1529000   700.92644     -7192687.3      198.38635      201.66481      208.8226      -11039.432    
   1530000   699.78456     -7192740        198.38635      201.66481      208.8226      -10824.177    
   1531000   700.88079     -7192600.2      198.38635      201.66481      208.8226      -11181.361    
   1532000   700.09136     -7192787.3      198.38635      201.66481      208.8226      -11070.027    
   1533000   698.96166     -7192905.5      198.38635      201.66481      208.8226      -10759.103    
   1534000   699.79533     -7192766.7      198.38635      201.66481      208.8226      -10898.689    
   1535000   701.27754     -7192551.7      198.38635      201.66481      208.8226      -11014.749    
   1536000   700.42322     -7192781.8      198.38635      201.66481      208.8226      -10968.479    
   1537000   699.44389     -7192794.4      198.38635      201.66481      208.8226      -10961.778    
   1538000   700.78925     -7192651.6      198.38635      201.66481      208.8226      -11138.367    
   1539000   699.51017     -7192796.9      198.38635      201.66481      208.8226      -11100.648    
   1540000   699.43352     -7192770.9      198.38635      201.66481      208.8226      -10848.417    
   1541000   700.60265     -7192701.8      198.38635      201.66481      208.8226      -10909.618    
   1542000   699.2348      -7192905.6      198.38635      201.66481      208.8226      -11144.503    
   1543000   701.3993      -7192750.4      198.38635      201.66481      208.8226      -10990.463    
   1544000   700.02629     -7192854.6      198.38635      201.66481      208.8226      -10862.945    
   1545000   700.58776     -7192796.8      198.38635      201.66481      208.8226      -11052.951    
   1546000   700.80642     -7192792.9      198.38635      201.66481      208.8226      -11098.753    
   1547000   699.72926     -7192819.3      198.38635      201.66481      208.8226      -11016.321    
   1548000   699.25379     -7192778.3      198.38635      201.66481      208.8226      -10955.077    
   1549000   700.17409     -7192733.9      198.38635      201.66481      208.8226      -11257.84     
   1550000   699.09822     -7192750.9      198.38635      201.66481      208.8226      -11197.616    
   1551000   699.41869     -7192899.2      198.38635      201.66481      208.8226      -11087.392    
   1552000   700.93032     -7192638.2      198.38635      201.66481      208.8226      -10876.382    
   1553000   699.5381      -7192801.8      198.38635      201.66481      208.8226      -11188.798    
   1554000   699.58061     -7192765.3      198.38635      201.66481      208.8226      -11015.318    
   1555000   700.67913     -7192681.7      198.38635      201.66481      208.8226      -10862.225    
   1556000   699.79103     -7192789.3      198.38635      201.66481      208.8226      -11312.792    
   1557000   701.04849     -7192622.1      198.38635      201.66481      208.8226      -10984.83     
   1558000   701.09316     -7192651.6      198.38635      201.66481      208.8226      -10783.503    
   1559000   699.93609     -7192800.3      198.38635      201.66481      208.8226      -11032.334    
   1560000   700.06824     -7192636.9      198.38635      201.66481      208.8226      -11010.466    
   1561000   699.52987     -7192908.8      198.38635      201.66481      208.8226      -10979.416    
   1562000   700.16514     -7192830.7      198.38635      201.66481      208.8226      -11026.784    
   1563000   699.40392     -7192792.8      198.38635      201.66481      208.8226      -11137.161    
   1564000   699.86173     -7192766.7      198.38635      201.66481      208.8226      -11062.704    
   1565000   700.67555     -7192707.9      198.38635      201.66481      208.8226      -10919.521    
   1566000   700.50504     -7192693.8      198.38635      201.66481      208.8226      -10953.715    
   1567000   700.3558      -7192692.8      198.38635      201.66481      208.8226      -11067.286    
   1568000   699.77512     -7192775.7      198.38635      201.66481      208.8226      -10987.339    
   1569000   700.27952     -7192745.1      198.38635      201.66481      208.8226      -10914.052    
   1570000   700.37778     -7192665.6      198.38635      201.66481      208.8226      -11052.482    
   1571000   699.33883     -7192774.6      198.38635      201.66481      208.8226      -11024.582    
   1572000   700.19614     -7192819.7      198.38635      201.66481      208.8226      -10869.221    
   1573000   699.52236     -7192896.1      198.38635      201.66481      208.8226      -10934.248    
   1574000   699.48844     -7192747.5      198.38635      201.66481      208.8226      -11036.819    
   1575000   699.71456     -7192705.5      198.38635      201.66481      208.8226      -11097.517    
   1576000   701.10712     -7192656.4      198.38635      201.66481      208.8226      -10877.036    
   1577000   700.00954     -7192647.4      198.38635      201.66481      208.8226      -11095.663    
   1578000   700.65349     -7192709.3      198.38635      201.66481      208.8226      -10964.498    
   1579000   700.11198     -7192774.2      198.38635      201.66481      208.8226      -11097.139    
   1580000   699.95012     -7192666.3      198.38635      201.66481      208.8226      -10976.495    
   1581000   699.59474     -7192732.6      198.38635      201.66481      208.8226      -11075.567    
   1582000   699.43333     -7192796.8      198.38635      201.66481      208.8226      -11106.315    
   1583000   699.66062     -7192834.7      198.38635      201.66481      208.8226      -10916.158    
   1584000   700.22845     -7192773.7      198.38635      201.66481      208.8226      -11129.003    
   1585000   700.97052     -7192704.6      198.38635      201.66481      208.8226      -10991.646    
   1586000   699.14407     -7192879.4      198.38635      201.66481      208.8226      -10885.699    
   1587000   700.43804     -7192753.9      198.38635      201.66481      208.8226      -11022.674    
   1588000   699.99342     -7192757.9      198.38635      201.66481      208.8226      -11132.701    
   1589000   699.92653     -7192804.4      198.38635      201.66481      208.8226      -10948.464    
   1590000   700.64965     -7192719.3      198.38635      201.66481      208.8226      -10997.125    
   1591000   699.83214     -7192879.9      198.38635      201.66481      208.8226      -11150.717    
   1592000   699.76414     -7192718        198.38635      201.66481      208.8226      -11009.219    
   1593000   699.22608     -7192926.5      198.38635      201.66481      208.8226      -11058.839    
   1594000   700.29533     -7192794.5      198.38635      201.66481      208.8226      -11102.582    
   1595000   700.41239     -7192713.8      198.38635      201.66481      208.8226      -11029.005    
   1596000   700.64352     -7192699.1      198.38635      201.66481      208.8226      -10913.166    
   1597000   699.88241     -7192862.1      198.38635      201.66481      208.8226      -10977.501    
   1598000   700.20634     -7192813.1      198.38635      201.66481      208.8226      -11074.64     
   1599000   700.30652     -7192852.2      198.38635      201.66481      208.8226      -11209.002    
   1600000   698.90046     -7192853.2      198.38635      201.66481      208.8226      -10762.631    
   1601000   699.8373      -7192779.4      198.38635      201.66481      208.8226      -10895.132    
   1602000   701.12777     -7192639.1      198.38635      201.66481      208.8226      -11139.263    
   1603000   700.94495     -7192688.2      198.38635      201.66481      208.8226      -11035.197    
   1604000   700.74765     -7192631.9      198.38635      201.66481      208.8226      -10909.595    
   1605000   699.89599     -7192813.4      198.38635      201.66481      208.8226      -11205.161    
   1606000   700.15303     -7192701.1      198.38635      201.66481      208.8226      -11106.812    
   1607000   699.42666     -7192807.9      198.38635      201.66481      208.8226      -10732.166    
   1608000   700.40801     -7192822.1      198.38635      201.66481      208.8226      -10836.015    
   1609000   699.15323     -7192875.4      198.38635      201.66481      208.8226      -11266.024    
   1610000   699.41473     -7192811.9      198.38635      201.66481      208.8226      -11110.778    
   1611000   700.14063     -7192782.8      198.38635      201.66481      208.8226      -10990.888    
   1612000   699.40482     -7192791.1      198.38635      201.66481      208.8226      -11143.965    
   1613000   700.40777     -7192632.6      198.38635      201.66481      208.8226      -11249.611    
   1614000   699.83652     -7192866        198.38635      201.66481      208.8226      -11090.258    
   1615000   699.46035     -7192806.6      198.38635      201.66481      208.8226      -10853.989    
   1616000   699.6965      -7192814.8      198.38635      201.66481      208.8226      -11223.328    
   1617000   700.58642     -7192638.6      198.38635      201.66481      208.8226      -10990.649    
   1618000   699.0938      -7192958        198.38635      201.66481      208.8226      -11045.848    
   1619000   700.88302     -7192892.2      198.38635      201.66481      208.8226      -11232.785    
   1620000   698.96732     -7192789.4      198.38635      201.66481      208.8226      -11034.619    
   1621000   699.53526     -7192818.9      198.38635      201.66481      208.8226      -11033.61     
   1622000   700.11093     -7192784.1      198.38635      201.66481      208.8226      -10955.522    
   1623000   699.53611     -7192797.7      198.38635      201.66481      208.8226      -11138.606    
   1624000   699.90159     -7192781.2      198.38635      201.66481      208.8226      -11063.582    
   1625000   701.32715     -7192587.6      198.38635      201.66481      208.8226      -10881.256    
   1626000   700.2889      -7192787.4      198.38635      201.66481      208.8226      -10898.263    
   1627000   699.05035     -7192828.2      198.38635      201.66481      208.8226      -11047.228    
   1628000   699.25322     -7192918        198.38635      201.66481      208.8226      -11050.868    
   1629000   699.76712     -7192742.9      198.38635      201.66481      208.8226      -10958.393    
   1630000   699.4262      -7192862.5      198.38635      201.66481      208.8226      -11132.053    
   1631000   700.45344     -7192795.7      198.38635      201.66481      208.8226      -11110.613    
   1632000   699.72839     -7192865.8      198.38635      201.66481      208.8226      -11098.313    
   1633000   700.8485      -7192836.3      198.38635      201.66481      208.8226      -11002.114    
   1634000   698.57549     -7192915.7      198.38635      201.66481      208.8226      -11130.034    
   1635000   700.84554     -7192705.1      198.38635      201.66481      208.8226      -10987.444    
   1636000   700.56035     -7192720.5      198.38635      201.66481      208.8226      -10939.826    
   1637000   699.39361     -7192835.3      198.38635      201.66481      208.8226      -10965.585    
   1638000   700.98666     -7192738.6      198.38635      201.66481      208.8226      -11222.821    
   1639000   699.87529     -7192891.2      198.38635      201.66481      208.8226      -11011.205    
   1640000   700.34875     -7192716.8      198.38635      201.66481      208.8226      -10824.542    
   1641000   700.29004     -7192728.7      198.38635      201.66481      208.8226      -11063.388    
   1642000   701.57392     -7192639        198.38635      201.66481      208.8226      -10960.56     
   1643000   700.25145     -7192870.7      198.38635      201.66481      208.8226      -11030.204    
   1644000   698.77568     -7192867.3      198.38635      201.66481      208.8226      -11096.012    
   1645000   700.36231     -7192678.3      198.38635      201.66481      208.8226      -11049.41     
   1646000   700.30286     -7192800.6      198.38635      201.66481      208.8226      -11043.096    
   1647000   701.29573     -7192634.9      198.38635      201.66481      208.8226      -11056.726    
   1648000   700.71468     -7192709.1      198.38635      201.66481      208.8226      -10993.549    
   1649000   700.55916     -7192710.9      198.38635      201.66481      208.8226      -11085.385    
   1650000   701.04101     -7192695.1      198.38635      201.66481      208.8226      -10772.544    
   1651000   700.25662     -7192783.3      198.38635      201.66481      208.8226      -10995.497    
   1652000   698.64001     -7192885.6      198.38635      201.66481      208.8226      -11145.462    
   1653000   699.94342     -7192808.5      198.38635      201.66481      208.8226      -10829.147    
   1654000   699.61806     -7192954.5      198.38635      201.66481      208.8226      -10906.003    
   1655000   700.33212     -7192718.4      198.38635      201.66481      208.8226      -11034.445    
   1656000   700.98915     -7192724.3      198.38635      201.66481      208.8226      -10933.587    
   1657000   700.00312     -7192825.4      198.38635      201.66481      208.8226      -10946.424    
   1658000   699.10388     -7192841.5      198.38635      201.66481      208.8226      -11024.926    
   1659000   700.14823     -7192903.5      198.38635      201.66481      208.8226      -11143.662    
   1660000   700.50413     -7192776.5      198.38635      201.66481      208.8226      -10950.329    
   1661000   700.66373     -7192728.9      198.38635      201.66481      208.8226      -11093.208    
   1662000   699.73078     -7192858.7      198.38635      201.66481      208.8226      -11042.312    
   1663000   699.15415     -7192854        198.38635      201.66481      208.8226      -11035.833    
   1664000   699.54794     -7192801.8      198.38635      201.66481      208.8226      -10967.162    
   1665000   701.82937     -7192622        198.38635      201.66481      208.8226      -10969.478    
   1666000   699.67977     -7192754.9      198.38635      201.66481      208.8226      -11012.663    
   1667000   699.3525      -7192842.5      198.38635      201.66481      208.8226      -11005.318    
   1668000   699.64272     -7192692.4      198.38635      201.66481      208.8226      -10962.634    
   1669000   700.1449      -7192638.5      198.38635      201.66481      208.8226      -11077.356    
   1670000   700.34902     -7192881.1      198.38635      201.66481      208.8226      -11001.015    
   1671000   701.27814     -7192605.8      198.38635      201.66481      208.8226      -10885.183    
   1672000   699.01632     -7192803        198.38635      201.66481      208.8226      -11024.68     
   1673000   698.47187     -7192983.6      198.38635      201.66481      208.8226      -11083.152    
   1674000   700.51776     -7192702        198.38635      201.66481      208.8226      -10913.462    
   1675000   699.82915     -7192830.3      198.38635      201.66481      208.8226      -11007.106    
   1676000   700.133       -7192690.8      198.38635      201.66481      208.8226      -10992.729    
   1677000   699.29589     -7192808.1      198.38635      201.66481      208.8226      -10799.522    
   1678000   699.85917     -7192831.6      198.38635      201.66481      208.8226      -10854.209    
   1679000   699.46368     -7192874.7      198.38635      201.66481      208.8226      -11029.335    
   1680000   700.653       -7192625.8      198.38635      201.66481      208.8226      -10988.529    
   1681000   699.50783     -7192803.4      198.38635      201.66481      208.8226      -10941.396    
   1682000   698.82415     -7192826.2      198.38635      201.66481      208.8226      -11149.779    
   1683000   700.65976     -7192636.4      198.38635      201.66481      208.8226      -10939.417    
   1684000   700.05486     -7192800.7      198.38635      201.66481      208.8226      -10943.856    
   1685000   701.24205     -7192867.6      198.38635      201.66481      208.8226      -10787.777    
   1686000   699.96915     -7192817.1      198.38635      201.66481      208.8226      -11112.264    
   1687000   699.95383     -7192770.2      198.38635      201.66481      208.8226      -11032.545    
   1688000   699.43243     -7192897        198.38635      201.66481      208.8226      -10908.68     
   1689000   699.57734     -7192906.3      198.38635      201.66481      208.8226      -10889.616    
   1690000   700.36662     -7192708        198.38635      201.66481      208.8226      -11247.061    
   1691000   699.87254     -7192722.9      198.38635      201.66481      208.8226      -10906.611    
   1692000   700.38986     -7192849.1      198.38635      201.66481      208.8226      -10848.12     
   1693000   699.19043     -7192813.1      198.38635      201.66481      208.8226      -11270.424    
   1694000   699.86884     -7192838.7      198.38635      201.66481      208.8226      -11106.486    
   1695000   699.69113     -7192830.5      198.38635      201.66481      208.8226      -10928.764    
   1696000   700.48431     -7192691.2      198.38635      201.66481      208.8226      -10966.833    
   1697000   700.62938     -7192801.8      198.38635      201.66481      208.8226      -10979.207    
   1698000   699.51385     -7192747.2      198.38635      201.66481      208.8226      -10914.391    
   1699000   699.89066     -7192792.9      198.38635      201.66481      208.8226      -10850.484    
   1700000   699.36006     -7192779.1      198.38635      201.66481      208.8226      -11196.251    
   1701000   700.88927     -7192720.9      198.38635      201.66481      208.8226      -11082.148    
   1702000   699.05325     -7192843.8      198.38635      201.66481      208.8226      -10735.156    
   1703000   699.67267     -7192737.8      198.38635      201.66481      208.8226      -10986.448    
   1704000   699.67207     -7192769.4      198.38635      201.66481      208.8226      -11149.669    
   1705000   699.07804     -7192883.7      198.38635      201.66481      208.8226      -11056.816    
   1706000   700.5401      -7192845.6      198.38635      201.66481      208.8226      -10854.588    
   1707000   701.26096     -7192653.9      198.38635      201.66481      208.8226      -11121.846    
   1708000   699.69593     -7192786.2      198.38635      201.66481      208.8226      -11202.037    
   1709000   699.6984      -7192894.4      198.38635      201.66481      208.8226      -10974.116    
   1710000   699.91392     -7192855.4      198.38635      201.66481      208.8226      -11040.145    
   1711000   699.97041     -7192701.6      198.38635      201.66481      208.8226      -11167.825    
   1712000   698.58736     -7192948.6      198.38635      201.66481      208.8226      -10994.813    
   1713000   700.03857     -7192869.4      198.38635      201.66481      208.8226      -10862.425    
   1714000   699.77639     -7192713        198.38635      201.66481      208.8226      -10935.075    
   1715000   699.63388     -7192666.9      198.38635      201.66481      208.8226      -11088.006    
   1716000   699.5565      -7192901.9      198.38635      201.66481      208.8226      -10930.908    
   1717000   699.49088     -7192865.7      198.38635      201.66481      208.8226      -10924.779    
   1718000   701.26935     -7192643.8      198.38635      201.66481      208.8226      -11084.698    
   1719000   699.14029     -7192832.6      198.38635      201.66481      208.8226      -10961.628    
   1720000   700.07151     -7192838.3      198.38635      201.66481      208.8226      -10823.345    
   1721000   698.5763      -7192843.7      198.38635      201.66481      208.8226      -11130.09     
   1722000   699.2243      -7192733.9      198.38635      201.66481      208.8226      -11134.712    
   1723000   700.04478     -7192773.5      198.38635      201.66481      208.8226      -11111.144    
   1724000   699.15345     -7192892.9      198.38635      201.66481      208.8226      -10977.665    
   1725000   699.10085     -7192704.5      198.38635      201.66481      208.8226      -11030.179    
   1726000   699.38904     -7192749.3      198.38635      201.66481      208.8226      -11069.766    
   1727000   700.10512     -7192788.8      198.38635      201.66481      208.8226      -10896.909    
   1728000   700.45587     -7192717        198.38635      201.66481      208.8226      -10979.024    
   1729000   699.85598     -7192740.7      198.38635      201.66481      208.8226      -11124.686    
   1730000   700.42618     -7192798.1      198.38635      201.66481      208.8226      -10917.463    
   1731000   700.09023     -7192854.1      198.38635      201.66481      208.8226      -10969.314    
   1732000   699.49885     -7192846.2      198.38635      201.66481      208.8226      -11092.853    
   1733000   699.42141     -7192887        198.38635      201.66481      208.8226      -11024.365    
   1734000   699.61049     -7192774        198.38635      201.66481      208.8226      -10952.766    
   1735000   700.28749     -7192836.2      198.38635      201.66481      208.8226      -11094.224    
   1736000   700.28157     -7192788.1      198.38635      201.66481      208.8226      -11162.955    
   1737000   699.93674     -7192775        198.38635      201.66481      208.8226      -11104.079    
   1738000   699.79913     -7192776.8      198.38635      201.66481      208.8226      -10762.518    
   1739000   700.88989     -7192718.9      198.38635      201.66481      208.8226      -11020.575    
   1740000   700.20513     -7192784.2      198.38635      201.66481      208.8226      -11083.516    
   1741000   700.01062     -7192702.7      198.38635      201.66481      208.8226      -10931.298    
   1742000   700.45515     -7192735.2      198.38635      201.66481      208.8226      -10990.016    
   1743000   699.86171     -7192799.1      198.38635      201.66481      208.8226      -11042.905    
   1744000   700.61654     -7192783.3      198.38635      201.66481      208.8226      -11058.597    
   1745000   700.11441     -7192680.8      198.38635      201.66481      208.8226      -10915.175    
   1746000   698.93619     -7192905.4      198.38635      201.66481      208.8226      -11053.955    
   1747000   698.46296     -7192971.2      198.38635      201.66481      208.8226      -11032.823    
   1748000   699.18516     -7192938.6      198.38635      201.66481      208.8226      -11024.277    
   1749000   700.20382     -7192797.5      198.38635      201.66481      208.8226      -10862.614    
   1750000   701.39754     -7192567.5      198.38635      201.66481      208.8226      -11111.637    
   1751000   699.95412     -7192785.6      198.38635      201.66481      208.8226      -11196.451    
   1752000   700.5047      -7192696.8      198.38635      201.66481      208.8226      -10929.458    
   1753000   699.99732     -7192863.3      198.38635      201.66481      208.8226      -10964.591    
   1754000   701.35018     -7192607.8      198.38635      201.66481      208.8226      -11072.063    
   1755000   701.01914     -7192746.5      198.38635      201.66481      208.8226      -10925.113    
   1756000   700.29379     -7192852.9      198.38635      201.66481      208.8226      -11023.044    
   1757000   700.55884     -7192791        198.38635      201.66481      208.8226      -11025.235    
   1758000   699.86587     -7192832.5      198.38635      201.66481      208.8226      -11045.852    
   1759000   700.38066     -7192888.9      198.38635      201.66481      208.8226      -10936.149    
   1760000   701.13755     -7192640.4      198.38635      201.66481      208.8226      -10910.612    
   1761000   700.11526     -7192861.7      198.38635      201.66481      208.8226      -11252.284    
   1762000   699.73045     -7192976.3      198.38635      201.66481      208.8226      -11101.681    
   1763000   699.81954     -7192708.6      198.38635      201.66481      208.8226      -10942.044    
   1764000   701.34133     -7192773.2      198.38635      201.66481      208.8226      -11006.854    
   1765000   699.30619     -7192807.4      198.38635      201.66481      208.8226      -10975.874    
   1766000   699.90508     -7192867.6      198.38635      201.66481      208.8226      -10845.969    
   1767000   699.99564     -7192797.3      198.38635      201.66481      208.8226      -10965.389    
   1768000   701.18011     -7192709.2      198.38635      201.66481      208.8226      -10966.984    
   1769000   699.42877     -7192903.7      198.38635      201.66481      208.8226      -10852.434    
   1770000   700.70333     -7192620.6      198.38635      201.66481      208.8226      -10995.184    
   1771000   698.43902     -7192815.1      198.38635      201.66481      208.8226      -11162.403    
   1772000   699.19969     -7192820.3      198.38635      201.66481      208.8226      -11047.495    
   1773000   700.35416     -7192828.6      198.38635      201.66481      208.8226      -11076.162    
   1774000   699.38003     -7192857.7      198.38635      201.66481      208.8226      -11042.95     
   1775000   699.93207     -7192712.7      198.38635      201.66481      208.8226      -11109.859    
   1776000   701.10755     -7192722.9      198.38635      201.66481      208.8226      -11106.182    
   1777000   698.56062     -7192971.4      198.38635      201.66481      208.8226      -10983.128    
   1778000   700.17371     -7192789.6      198.38635      201.66481      208.8226      -11058.255    
   1779000   698.95466     -7192912.4      198.38635      201.66481      208.8226      -11124.614    
   1780000   699.95694     -7192817.5      198.38635      201.66481      208.8226      -10842.97     
   1781000   700.62687     -7192791.2      198.38635      201.66481      208.8226      -11035.483    
   1782000   700.58916     -7192739.3      198.38635      201.66481      208.8226      -11093.101    
   1783000   699.44778     -7192859.6      198.38635      201.66481      208.8226      -11108.529    
   1784000   699.93609     -7192720.4      198.38635      201.66481      208.8226      -10989.161    
   1785000   700.65488     -7192700.4      198.38635      201.66481      208.8226      -10987.695    
   1786000   701.20454     -7192761.6      198.38635      201.66481      208.8226      -11118.33     
   1787000   699.71101     -7192894        198.38635      201.66481      208.8226      -10998.12     
   1788000   699.70186     -7192839.1      198.38635      201.66481      208.8226      -11063.623    
   1789000   700.78798     -7192763.5      198.38635      201.66481      208.8226      -10966.915    
   1790000   698.9718      -7192881.6      198.38635      201.66481      208.8226      -11039.603    
   1791000   700.07095     -7192825.9      198.38635      201.66481      208.8226      -10978.042    
   1792000   699.94319     -7192784.1      198.38635      201.66481      208.8226      -11081.846    
   1793000   699.83238     -7192737.3      198.38635      201.66481      208.8226      -10899.03     
   1794000   699.9127      -7192920.8      198.38635      201.66481      208.8226      -11055.208    
   1795000   700.24552     -7192867.4      198.38635      201.66481      208.8226      -11085.245    
   1796000   699.83335     -7192750.8      198.38635      201.66481      208.8226      -11047.353    
   1797000   698.10884     -7192884        198.38635      201.66481      208.8226      -11133.434    
   1798000   698.46096     -7192877.7      198.38635      201.66481      208.8226      -11035.095    
   1799000   700.43874     -7192712.3      198.38635      201.66481      208.8226      -10959.367    
   1800000   700.31489     -7192766.2      198.38635      201.66481      208.8226      -10891.567    
   1801000   699.29656     -7192875.6      198.38635      201.66481      208.8226      -11042.709    
   1802000   700.05546     -7192853.5      198.38635      201.66481      208.8226      -11085.213    
   1803000   699.10039     -7192975.3      198.38635      201.66481      208.8226      -11174.04     
   1804000   700.98822     -7192766.6      198.38635      201.66481      208.8226      -10894.66     
   1805000   700.40404     -7192736.9      198.38635      201.66481      208.8226      -10997.693    
   1806000   700.55284     -7192687.4      198.38635      201.66481      208.8226      -10871.417    
   1807000   700.99919     -7192727.4      198.38635      201.66481      208.8226      -10864.51     
   1808000   700.21482     -7192766        198.38635      201.66481      208.8226      -11130.65     
   1809000   700.16314     -7192835        198.38635      201.66481      208.8226      -11145.407    
   1810000   698.17554     -7192935.4      198.38635      201.66481      208.8226      -11010.58     
   1811000   700.0613      -7192733.6      198.38635      201.66481      208.8226      -11001.834    
   1812000   699.87103     -7192760.5      198.38635      201.66481      208.8226      -11140.589    
   1813000   701.13905     -7192699.4      198.38635      201.66481      208.8226      -11106.282    
   1814000   700.25195     -7192822.9      198.38635      201.66481      208.8226      -10988.9      
   1815000   701.58604     -7192666.1      198.38635      201.66481      208.8226      -10998.021    
   1816000   700.48481     -7192776.2      198.38635      201.66481      208.8226      -11007.813    
   1817000   699.6813      -7192838.2      198.38635      201.66481      208.8226      -11054.744    
   1818000   698.69187     -7192907.3      198.38635      201.66481      208.8226      -11007.136    
   1819000   699.59628     -7192838.7      198.38635      201.66481      208.8226      -11014.808    
   1820000   699.74538     -7192823.9      198.38635      201.66481      208.8226      -10950.086    
   1821000   699.24968     -7192821.1      198.38635      201.66481      208.8226      -11075.699    
   1822000   699.38324     -7192919.4      198.38635      201.66481      208.8226      -11086.962    
   1823000   701.0344      -7192618.6      198.38635      201.66481      208.8226      -11081.758    
   1824000   699.5454      -7192822.8      198.38635      201.66481      208.8226      -11034.123    
   1825000   699.06521     -7192831.5      198.38635      201.66481      208.8226      -10911.163    
   1826000   699.07816     -7192950.7      198.38635      201.66481      208.8226      -10987.888    
   1827000   700.349       -7192648        198.38635      201.66481      208.8226      -11085.097    
   1828000   700.04429     -7192771.7      198.38635      201.66481      208.8226      -10976.738    
   1829000   698.73192     -7192955.1      198.38635      201.66481      208.8226      -11033.893    
   1830000   698.88133     -7192913.6      198.38635      201.66481      208.8226      -10973.018    
   1831000   699.98206     -7192788.8      198.38635      201.66481      208.8226      -10970.927    
   1832000   700.31689     -7192828.3      198.38635      201.66481      208.8226      -10851.284    
   1833000   699.69001     -7192798.2      198.38635      201.66481      208.8226      -10884.732    
   1834000   698.72011     -7192866.7      198.38635      201.66481      208.8226      -11159.966    
   1835000   700.33572     -7192766.5      198.38635      201.66481      208.8226      -11025.876    
   1836000   698.78588     -7192897.9      198.38635      201.66481      208.8226      -11139.654    
   1837000   701.03499     -7192796.9      198.38635      201.66481      208.8226      -11137.44     
   1838000   700.41796     -7192695.7      198.38635      201.66481      208.8226      -11054.456    
   1839000   700.87769     -7192649.2      198.38635      201.66481      208.8226      -11027.754    
   1840000   699.89524     -7192849.8      198.38635      201.66481      208.8226      -10934.384    
   1841000   700.36011     -7192797        198.38635      201.66481      208.8226      -11114.494    
   1842000   699.52702     -7192929.2      198.38635      201.66481      208.8226      -11148.853    
   1843000   700.48465     -7192728        198.38635      201.66481      208.8226      -11079.654    
   1844000   700.05688     -7192854.6      198.38635      201.66481      208.8226      -11117.796    
   1845000   699.9197      -7192766.7      198.38635      201.66481      208.8226      -10969.14     
   1846000   699.47828     -7192835.2      198.38635      201.66481      208.8226      -11077.591    
   1847000   700.35233     -7192778.7      198.38635      201.66481      208.8226      -10968.369    
   1848000   699.80146     -7192861.5      198.38635      201.66481      208.8226      -10896.939    
   1849000   699.49889     -7192834.8      198.38635      201.66481      208.8226      -11114.062    
   1850000   700.5229      -7192794        198.38635      201.66481      208.8226      -10830.652    
   1851000   700.91391     -7192667.1      198.38635      201.66481      208.8226      -11101.808    
   1852000   699.23891     -7192790.3      198.38635      201.66481      208.8226      -11048.986    
   1853000   700.89662     -7192813.9      198.38635      201.66481      208.8226      -11048.151    
   1854000   697.8134      -7193031.8      198.38635      201.66481      208.8226      -11087.385    
   1855000   699.61672     -7192913.7      198.38635      201.66481      208.8226      -11159.823    
   1856000   700.12591     -7192833.5      198.38635      201.66481      208.8226      -10929.209    
   1857000   698.98124     -7192856.7      198.38635      201.66481      208.8226      -11043.582    
   1858000   699.41412     -7192902.5      198.38635      201.66481      208.8226      -11176.363    
   1859000   700.71472     -7192658.8      198.38635      201.66481      208.8226      -11020.275    
   1860000   699.28808     -7192863.4      198.38635      201.66481      208.8226      -10996.662    
   1861000   701.11778     -7192728.1      198.38635      201.66481      208.8226      -11044.247    
   1862000   699.76762     -7192954.3      198.38635      201.66481      208.8226      -11142.671    
   1863000   700.34405     -7192797.4      198.38635      201.66481      208.8226      -10902.068    
   1864000   700.98292     -7192630        198.38635      201.66481      208.8226      -10950.282    
   1865000   700.92742     -7192736.6      198.38635      201.66481      208.8226      -10961.949    
   1866000   699.18355     -7192884.3      198.38635      201.66481      208.8226      -11091.39     
   1867000   698.90641     -7192836.3      198.38635      201.66481      208.8226      -10924.435    
   1868000   701.76263     -7192640.8      198.38635      201.66481      208.8226      -11007.196    
   1869000   699.95082     -7192843.6      198.38635      201.66481      208.8226      -10913.058    
   1870000   700.25827     -7192752.8      198.38635      201.66481      208.8226      -10984.617    
   1871000   701.39078     -7192823.1      198.38635      201.66481      208.8226      -10961.843    
   1872000   699.89346     -7192888        198.38635      201.66481      208.8226      -11142.589    
   1873000   700.52824     -7192794.5      198.38635      201.66481      208.8226      -11085.422    
   1874000   699.88092     -7192851.7      198.38635      201.66481      208.8226      -11152.166    
   1875000   699.52763     -7192780.5      198.38635      201.66481      208.8226      -11031.128    
   1876000   699.59436     -7192821.8      198.38635      201.66481      208.8226      -10831.93     
   1877000   700.02154     -7192876.4      198.38635      201.66481      208.8226      -11020.589    
   1878000   700.43623     -7192776.7      198.38635      201.66481      208.8226      -11058.049    
   1879000   700.22073     -7192820.4      198.38635      201.66481      208.8226      -11164.834    
   1880000   700.77614     -7192804.2      198.38635      201.66481      208.8226      -10962.366    
   1881000   699.16793     -7192951.7      198.38635      201.66481      208.8226      -10980.791    
   1882000   700.32297     -7192783.5      198.38635      201.66481      208.8226      -11164.601    
   1883000   699.494       -7192868.9      198.38635      201.66481      208.8226      -11022.129    
   1884000   700.09693     -7192789.7      198.38635      201.66481      208.8226      -11025.921    
   1885000   699.08926     -7192901.4      198.38635      201.66481      208.8226      -10807.248    
   1886000   699.25601     -7192922.7      198.38635      201.66481      208.8226      -10951.696    
   1887000   700.36152     -7192873.3      198.38635      201.66481      208.8226      -11109.98     
   1888000   699.00313     -7192902        198.38635      201.66481      208.8226      -11035.391    
   1889000   699.45095     -7192803.6      198.38635      201.66481      208.8226      -10951.265    
   1890000   699.7903      -7192860.1      198.38635      201.66481      208.8226      -11033.229    
   1891000   700.89166     -7192674.2      198.38635      201.66481      208.8226      -11010.266    
   1892000   700.3572      -7192835        198.38635      201.66481      208.8226      -10922.694    
   1893000   698.63902     -7192818.3      198.38635      201.66481      208.8226      -11004.683    
   1894000   700.13088     -7192715.1      198.38635      201.66481      208.8226      -11091.772    
   1895000   700.5341      -7192743        198.38635      201.66481      208.8226      -11040.039    
   1896000   700.11541     -7192847.5      198.38635      201.66481      208.8226      -11026.871    
   1897000   699.86669     -7192799.5      198.38635      201.66481      208.8226      -11009.587    
   1898000   699.65697     -7192785        198.38635      201.66481      208.8226      -11023.116    
   1899000   699.18287     -7192898.8      198.38635      201.66481      208.8226      -11000.293    
   1900000   699.93258     -7192812.9      198.38635      201.66481      208.8226      -10847.037    
   1901000   698.74276     -7192926.3      198.38635      201.66481      208.8226      -11093.384    
   1902000   699.43004     -7192738.2      198.38635      201.66481      208.8226      -11026.359    
   1903000   700.77899     -7192792.8      198.38635      201.66481      208.8226      -10984.732    
   1904000   700.83273     -7192903.9      198.38635      201.66481      208.8226      -10959.246    
   1905000   699.12284     -7192905.5      198.38635      201.66481      208.8226      -11082.214    
   1906000   699.93636     -7192774.2      198.38635      201.66481      208.8226      -11135.414    
   1907000   699.8138      -7192800.3      198.38635      201.66481      208.8226      -10931.565    
   1908000   698.86702     -7192836.6      198.38635      201.66481      208.8226      -10957.13     
   1909000   700.89755     -7192714.9      198.38635      201.66481      208.8226      -11088.562    
   1910000   700.49505     -7192728.7      198.38635      201.66481      208.8226      -10920.459    
   1911000   700.16342     -7192780.8      198.38635      201.66481      208.8226      -10897.111    
   1912000   700.04265     -7192740.9      198.38635      201.66481      208.8226      -10954.467    
   1913000   700.47216     -7192705.4      198.38635      201.66481      208.8226      -11163.89     
   1914000   700.31845     -7192770        198.38635      201.66481      208.8226      -10830.219    
   1915000   699.648       -7192791.3      198.38635      201.66481      208.8226      -11135.464    
   1916000   700.73723     -7192802.8      198.38635      201.66481      208.8226      -11144.375    
   1917000   700.03739     -7192862.3      198.38635      201.66481      208.8226      -11077.337    
   1918000   697.85631     -7192948.1      198.38635      201.66481      208.8226      -11028.993    
   1919000   700.87314     -7192772.4      198.38635      201.66481      208.8226      -10984.373    
   1920000   698.97013     -7192820.3      198.38635      201.66481      208.8226      -11086.804    
   1921000   700.01699     -7192919.6      198.38635      201.66481      208.8226      -10933.962    
   1922000   700.09426     -7193014.3      198.38635      201.66481      208.8226      -11057.505    
   1923000   699.75472     -7192794.5      198.38635      201.66481      208.8226      -10912.411    
   1924000   700.21558     -7192799.5      198.38635      201.66481      208.8226      -11010.185    
   1925000   700.80109     -7192776.2      198.38635      201.66481      208.8226      -10968.53     
   1926000   700.08367     -7192774.5      198.38635      201.66481      208.8226      -10940.699    
   1927000   700.7761      -7192794.6      198.38635      201.66481      208.8226      -11143.358    
   1928000   701.25582     -7192658.1      198.38635      201.66481      208.8226      -10868.205    
   1929000   699.76825     -7192772.5      198.38635      201.66481      208.8226      -11035.088    
   1930000   700.00889     -7192834        198.38635      201.66481      208.8226      -11044.406    
   1931000   700.47572     -7192751.2      198.38635      201.66481      208.8226      -11138.238    
   1932000   700.50678     -7192827.9      198.38635      201.66481      208.8226      -10896.488    
   1933000   700.50397     -7192704.1      198.38635      201.66481      208.8226      -10845.087    
   1934000   699.48254     -7192838.4      198.38635      201.66481      208.8226      -11001.333    
   1935000   698.93176     -7192853.5      198.38635      201.66481      208.8226      -10829.168    
   1936000   698.97011     -7192896.4      198.38635      201.66481      208.8226      -11059.579    
   1937000   699.39217     -7192839.5      198.38635      201.66481      208.8226      -10962.004    
   1938000   700.65385     -7192688.9      198.38635      201.66481      208.8226      -10947.286    
   1939000   700.19412     -7192794.3      198.38635      201.66481      208.8226      -10863.768    
   1940000   699.61305     -7192966.5      198.38635      201.66481      208.8226      -11154.62     
   1941000   700.21319     -7192754.5      198.38635      201.66481      208.8226      -10828.351    
   1942000   699.57396     -7192943.4      198.38635      201.66481      208.8226      -11012.62     
   1943000   700.1316      -7192746.3      198.38635      201.66481      208.8226      -11186.656    
   1944000   701.37434     -7192691.4      198.38635      201.66481      208.8226      -11047.396    
   1945000   699.63837     -7192848.4      198.38635      201.66481      208.8226      -11085.949    
   1946000   699.39497     -7192869.9      198.38635      201.66481      208.8226      -10994.344    
   1947000   699.93423     -7192715.2      198.38635      201.66481      208.8226      -11110.839    
   1948000   699.32709     -7192738.9      198.38635      201.66481      208.8226      -10967.455    
   1949000   700.20506     -7192708.6      198.38635      201.66481      208.8226      -11056.732    
   1950000   699.62585     -7192890.2      198.38635      201.66481      208.8226      -11090.158    
   1951000   698.63195     -7192844.3      198.38635      201.66481      208.8226      -11013.881    
   1952000   700.16252     -7192791.9      198.38635      201.66481      208.8226      -10967.286    
   1953000   699.25448     -7192885.7      198.38635      201.66481      208.8226      -10990.891    
   1954000   699.22438     -7192933.2      198.38635      201.66481      208.8226      -11058.479    
   1955000   700.00791     -7192793.5      198.38635      201.66481      208.8226      -11115.245    
   1956000   701.07954     -7192664.7      198.38635      201.66481      208.8226      -10875.064    
   1957000   701.24603     -7192694.6      198.38635      201.66481      208.8226      -10970.633    
   1958000   699.51356     -7192925.3      198.38635      201.66481      208.8226      -11026.532    
   1959000   699.96727     -7192913.4      198.38635      201.66481      208.8226      -10997.603    
   1960000   700.5029      -7192790        198.38635      201.66481      208.8226      -10961.265    
   1961000   700.08552     -7192857.3      198.38635      201.66481      208.8226      -10945.417    
   1962000   699.90156     -7192735.5      198.38635      201.66481      208.8226      -11003.881    
   1963000   699.87337     -7192860.7      198.38635      201.66481      208.8226      -11131.521    
   1964000   698.95529     -7192829.3      198.38635      201.66481      208.8226      -10908.176    
   1965000   701.37939     -7192764.1      198.38635      201.66481      208.8226      -10880.783    
   1966000   697.66926     -7192957.4      198.38635      201.66481      208.8226      -11025.658    
   1967000   699.62442     -7192841.1      198.38635      201.66481      208.8226      -11013.512    
   1968000   700.24058     -7192801.5      198.38635      201.66481      208.8226      -10905.458    
   1969000   699.63571     -7192857.9      198.38635      201.66481      208.8226      -11015.458    
   1970000   699.40808     -7192915.3      198.38635      201.66481      208.8226      -11089        
   1971000   698.81104     -7192924.4      198.38635      201.66481      208.8226      -10890.453    
   1972000   699.71791     -7192818.3      198.38635      201.66481      208.8226      -10964.685    
   1973000   700.31942     -7192722.6      198.38635      201.66481      208.8226      -11075.673    
   1974000   700.37674     -7192887.5      198.38635      201.66481      208.8226      -10973.148    
   1975000   698.88632     -7192910.7      198.38635      201.66481      208.8226      -11069.971    
   1976000   698.97623     -7192929        198.38635      201.66481      208.8226      -11097.948    
   1977000   700.01314     -7192922.7      198.38635      201.66481      208.8226      -11073.034    
   1978000   700.32467     -7192781.2      198.38635      201.66481      208.8226      -10861.839    
   1979000   699.94718     -7192873.3      198.38635      201.66481      208.8226      -11030.026    
   1980000   699.89879     -7192759.3      198.38635      201.66481      208.8226      -10992.586    
   1981000   699.37625     -7192896.7      198.38635      201.66481      208.8226      -11114.607    
   1982000   698.04833     -7192925.5      198.38635      201.66481      208.8226      -11151.761    
   1983000   700.4983      -7192781.3      198.38635      201.66481      208.8226      -11156.137    
   1984000   700.43824     -7192849.2      198.38635      201.66481      208.8226      -10998.129    
   1985000   699.40644     -7192851.1      198.38635      201.66481      208.8226      -10891.037    
   1986000   700.97972     -7192868.8      198.38635      201.66481      208.8226      -11105.69     
   1987000   700.00622     -7192843.7      198.38635      201.66481      208.8226      -11085.667    
   1988000   699.26593     -7192892        198.38635      201.66481      208.8226      -11058.142    
   1989000   700.21353     -7192783.4      198.38635      201.66481      208.8226      -11038.928    
   1990000   699.43034     -7192879.2      198.38635      201.66481      208.8226      -11296.926    
   1991000   700.64783     -7192696.7      198.38635      201.66481      208.8226      -11087.035    
   1992000   699.72504     -7192940.8      198.38635      201.66481      208.8226      -11002.515    
   1993000   698.6042      -7192946.1      198.38635      201.66481      208.8226      -11094.295    
   1994000   701.2707      -7192746.1      198.38635      201.66481      208.8226      -11033.691    
   1995000   699.05415     -7192959.3      198.38635      201.66481      208.8226      -10876.138    
   1996000   700.06934     -7192846.9      198.38635      201.66481      208.8226      -10978.232    
   1997000   700.4611      -7192758.1      198.38635      201.66481      208.8226      -11054.602    
   1998000   700.22052     -7192781.6      198.38635      201.66481      208.8226      -11207.855    
   1999000   698.37325     -7192969.5      198.38635      201.66481      208.8226      -10869.228    
   2000000   699.48454     -7192877.3      198.38635      201.66481      208.8226      -11071.856    
   2001000   698.89896     -7192851.5      198.38635      201.66481      208.8226      -11118.519    
   2002000   700.20501     -7192757.7      198.38635      201.66481      208.8226      -11058.629    
   2003000   698.48219     -7193009.3      198.38635      201.66481      208.8226      -10964.47     
   2004000   700.35564     -7192802.5      198.38635      201.66481      208.8226      -11091.259    
   2005000   699.18461     -7192822.9      198.38635      201.66481      208.8226      -11077.917    
   2006000   698.48529     -7192945.3      198.38635      201.66481      208.8226      -10977.531    
   2007000   698.79524     -7192936.9      198.38635      201.66481      208.8226      -11042.983    
   2008000   699.4319      -7192849.7      198.38635      201.66481      208.8226      -11051.532    
   2009000   699.53164     -7192832.8      198.38635      201.66481      208.8226      -10952.452    
   2010000   699.53234     -7192973.6      198.38635      201.66481      208.8226      -11024.792    
   2011000   699.56005     -7192797.7      198.38635      201.66481      208.8226      -11108.079    
   2012000   699.38522     -7192849.8      198.38635      201.66481      208.8226      -11040.104    
   2013000   699.7112      -7192795.3      198.38635      201.66481      208.8226      -10830.086    
   2014000   699.78575     -7192785.9      198.38635      201.66481      208.8226      -11035.908    
   2015000   698.89256     -7192935.7      198.38635      201.66481      208.8226      -11194.703    
   2016000   700.01205     -7192993.8      198.38635      201.66481      208.8226      -11052.088    
   2017000   701.08321     -7192831.7      198.38635      201.66481      208.8226      -10906.069    
   2018000   701.09517     -7192704        198.38635      201.66481      208.8226      -11166.69     
   2019000   699.83833     -7192732.8      198.38635      201.66481      208.8226      -11088.068    
   2020000   700.34076     -7192924.4      198.38635      201.66481      208.8226      -11004.772    
   2021000   699.96181     -7192858.6      198.38635      201.66481      208.8226      -10889.008    
   2022000   700.39229     -7192752.6      198.38635      201.66481      208.8226      -11028.083    
   2023000   699.19795     -7192968.1      198.38635      201.66481      208.8226      -10977.501    
   2024000   700.24861     -7192741.6      198.38635      201.66481      208.8226      -11013.288    
   2025000   701.23634     -7192703.3      198.38635      201.66481      208.8226      -11105.943    
   2026000   699.91362     -7192927.3      198.38635      201.66481      208.8226      -11341.96     
   2027000   699.47707     -7192952.3      198.38635      201.66481      208.8226      -10921.055    
   2028000   700.49092     -7192798.6      198.38635      201.66481      208.8226      -10987.064    
   2029000   700.10539     -7192779.8      198.38635      201.66481      208.8226      -11123.366    
   2030000   698.69167     -7192960.5      198.38635      201.66481      208.8226      -10975.263    
   2031000   700.26197     -7192905.2      198.38635      201.66481      208.8226      -10826.696    
   2032000   700.21419     -7192734.4      198.38635      201.66481      208.8226      -10962.286    
   2033000   699.86128     -7192954.8      198.38635      201.66481      208.8226      -11162.89     
   2034000   699.00731     -7192959.9      198.38635      201.66481      208.8226      -10955.361    
   2035000   700.41693     -7192780        198.38635      201.66481      208.8226      -10789.143    
   2036000   700.21961     -7192863        198.38635      201.66481      208.8226      -11156.036    
   2037000   701.5517      -7192727.4      198.38635      201.66481      208.8226      -11139.614    
   2038000   701.1408      -7192767.8      198.38635      201.66481      208.8226      -10931.429    
   2039000   700.38418     -7192917.5      198.38635      201.66481      208.8226      -11030.748    
   2040000   699.24019     -7192801.9      198.38635      201.66481      208.8226      -11302.881    
   2041000   699.98456     -7192930.6      198.38635      201.66481      208.8226      -11023.582    
   2042000   700.45026     -7192823.3      198.38635      201.66481      208.8226      -10739.105    
   2043000   699.57397     -7192843.7      198.38635      201.66481      208.8226      -11108.952    
   2044000   700.21018     -7192837.5      198.38635      201.66481      208.8226      -11231.796    
   2045000   699.5794      -7192862.8      198.38635      201.66481      208.8226      -10872.055    
   2046000   700.44839     -7192761        198.38635      201.66481      208.8226      -10969.784    
   2047000   700.49658     -7192725.2      198.38635      201.66481      208.8226      -11135.95     
   2048000   700.21306     -7192801.2      198.38635      201.66481      208.8226      -10992.883    
   2049000   700.90707     -7192699        198.38635      201.66481      208.8226      -10761.894    
   2050000   700.92612     -7192741.1      198.38635      201.66481      208.8226      -11057.887    
   2051000   701.20598     -7192716.9      198.38635      201.66481      208.8226      -11076.482    
   2052000   700.35236     -7192801.2      198.38635      201.66481      208.8226      -10943.116    
   2053000   700.39881     -7192849.2      198.38635      201.66481      208.8226      -10979.284    
   2054000   700.76039     -7192744.9      198.38635      201.66481      208.8226      -11137.606    
   2055000   700.10816     -7192873.9      198.38635      201.66481      208.8226      -11125.813    
   2056000   699.96912     -7192918.3      198.38635      201.66481      208.8226      -11176.412    
   2057000   699.72621     -7192896.8      198.38635      201.66481      208.8226      -10949.612    
   2058000   701.8036      -7192648.8      198.38635      201.66481      208.8226      -11088.314    
   2059000   701.81297     -7192663        198.38635      201.66481      208.8226      -10823.596    
   2060000   699.58134     -7192857.6      198.38635      201.66481      208.8226      -10969.742    
   2061000   699.89461     -7192858.8      198.38635      201.66481      208.8226      -11056.562    
   2062000   701.0228      -7192708.3      198.38635      201.66481      208.8226      -11106.874    
   2063000   698.13556     -7192921.8      198.38635      201.66481      208.8226      -10917.468    
   2064000   700.22672     -7192860.8      198.38635      201.66481      208.8226      -11092.693    
   2065000   699.84336     -7192831.3      198.38635      201.66481      208.8226      -10917.321    
   2066000   701.10676     -7192823.6      198.38635      201.66481      208.8226      -10941.829    
   2067000   700.28759     -7192909.9      198.38635      201.66481      208.8226      -11185.108    
   2068000   699.54354     -7192918.5      198.38635      201.66481      208.8226      -11127.318    
   2069000   701.32563     -7192810.3      198.38635      201.66481      208.8226      -10948.128    
   2070000   699.06073     -7192950.6      198.38635      201.66481      208.8226      -10906.806    
   2071000   699.7223      -7192857.8      198.38635      201.66481      208.8226      -11065.676    
   2072000   700.72588     -7192892.1      198.38635      201.66481      208.8226      -11159.921    
   2073000   699.34614     -7192943.6      198.38635      201.66481      208.8226      -10881.604    
   2074000   700.25939     -7192863.5      198.38635      201.66481      208.8226      -10990.908    
   2075000   699.88334     -7192897.8      198.38635      201.66481      208.8226      -11104.643    
   2076000   699.57399     -7192925.4      198.38635      201.66481      208.8226      -11142.929    
   2077000   701.90901     -7192764.4      198.38635      201.66481      208.8226      -10963.05     
   2078000   699.96862     -7192730.2      198.38635      201.66481      208.8226      -10994.296    
   2079000   699.59295     -7192797.1      198.38635      201.66481      208.8226      -11124.175    
   2080000   699.25529     -7192896.7      198.38635      201.66481      208.8226      -10761.797    
   2081000   699.84897     -7192770.7      198.38635      201.66481      208.8226      -10991.374    
   2082000   699.74386     -7192823.9      198.38635      201.66481      208.8226      -11159.743    
   2083000   699.12655     -7193002.3      198.38635      201.66481      208.8226      -11076.408    
   2084000   699.92192     -7192923.3      198.38635      201.66481      208.8226      -10844.673    
   2085000   698.95284     -7192890.9      198.38635      201.66481      208.8226      -11060.573    
   2086000   700.31996     -7192853.4      198.38635      201.66481      208.8226      -11158.962    
   2087000   699.94826     -7192746.4      198.38635      201.66481      208.8226      -10939.018    
   2088000   699.35151     -7192811        198.38635      201.66481      208.8226      -10775.855    
   2089000   700.45033     -7192897.9      198.38635      201.66481      208.8226      -11085.813    
   2090000   699.79786     -7192976.8      198.38635      201.66481      208.8226      -11018.119    
   2091000   699.23298     -7192920.1      198.38635      201.66481      208.8226      -10917.952    
   2092000   699.81313     -7192925.9      198.38635      201.66481      208.8226      -11140.895    
   2093000   699.31772     -7192868.8      198.38635      201.66481      208.8226      -11129.712    
   2094000   699.91223     -7192783.1      198.38635      201.66481      208.8226      -11048.631    
   2095000   700.84196     -7192841.1      198.38635      201.66481      208.8226      -10846.799    
   2096000   699.84792     -7192780.7      198.38635      201.66481      208.8226      -11151.408    
   2097000   700.24742     -7192813.9      198.38635      201.66481      208.8226      -11132.776    
   2098000   700.98212     -7192969.1      198.38635      201.66481      208.8226      -10813.412    
   2099000   702.08605     -7192752.3      198.38635      201.66481      208.8226      -11033.028    
   2100000   700.84662     -7192776.2      198.38635      201.66481      208.8226      -11269.328    
   2101000   699.18912     -7192969.9      198.38635      201.66481      208.8226      -10985.588    
   2102000   701.05639     -7192864.6      198.38635      201.66481      208.8226      -10911.576    
   2103000   699.45693     -7192884.1      198.38635      201.66481      208.8226      -11162.829    
   2104000   698.65427     -7192998        198.38635      201.66481      208.8226      -11209.59     
   2105000   701.25342     -7192797.7      198.38635      201.66481      208.8226      -10831.481    
   2106000   700.62946     -7192837.1      198.38635      201.66481      208.8226      -10977.447    
   2107000   699.21134     -7192869.4      198.38635      201.66481      208.8226      -11083.993    
   2108000   700.77533     -7192902.4      198.38635      201.66481      208.8226      -10985.938    
   2109000   700.40311     -7192835.9      198.38635      201.66481      208.8226      -11109.407    
   2110000   698.83905     -7192900.5      198.38635      201.66481      208.8226      -11131.855    
   2111000   700.04748     -7192744.9      198.38635      201.66481      208.8226      -11049.706    
   2112000   700.69257     -7192835.1      198.38635      201.66481      208.8226      -10835.732    
   2113000   699.5318      -7192870.5      198.38635      201.66481      208.8226      -11020.806    
   2114000   700.57483     -7192698.3      198.38635      201.66481      208.8226      -11001.631    
   2115000   700.01469     -7192906.8      198.38635      201.66481      208.8226      -11014.3      
   2116000   700.60877     -7192677.7      198.38635      201.66481      208.8226      -10931.39     
   2117000   699.86179     -7192902.3      198.38635      201.66481      208.8226      -10933.167    
   2118000   700.00523     -7192786.1      198.38635      201.66481      208.8226      -11044.71     
   2119000   700.8894      -7192876.1      198.38635      201.66481      208.8226      -11051.177    
   2120000   700.99343     -7192760        198.38635      201.66481      208.8226      -10828.901    
   2121000   698.98017     -7192962.1      198.38635      201.66481      208.8226      -11091.694    
   2122000   699.39029     -7192935.5      198.38635      201.66481      208.8226      -11123.843    
   2123000   699.99678     -7192939        198.38635      201.66481      208.8226      -11040.924    
   2124000   699.88069     -7192846.1      198.38635      201.66481      208.8226      -11033.295    
   2125000   700.09366     -7192843.1      198.38635      201.66481      208.8226      -11154.327    
   2126000   700.58724     -7192792        198.38635      201.66481      208.8226      -10926.811    
   2127000   699.11187     -7193029.8      198.38635      201.66481      208.8226      -10835.341    
   2128000   698.74881     -7192969.8      198.38635      201.66481      208.8226      -11193.983    
   2129000   700.13011     -7192961.7      198.38635      201.66481      208.8226      -11224.067    
   2130000   699.72366     -7192961.8      198.38635      201.66481      208.8226      -10886.045    
   2131000   700.88539     -7192798.6      198.38635      201.66481      208.8226      -11027.859    
   2132000   700.68797     -7192820.4      198.38635      201.66481      208.8226      -11182.359    
   2133000   700.07683     -7192738.4      198.38635      201.66481      208.8226      -10918.604    
   2134000   700.7533      -7192881.1      198.38635      201.66481      208.8226      -10936.274    
   2135000   700.54785     -7192817.5      198.38635      201.66481      208.8226      -11185.252    
   2136000   700.1845      -7192898.5      198.38635      201.66481      208.8226      -11147.973    
   2137000   700.13146     -7192894        198.38635      201.66481      208.8226      -11009.233    
   2138000   699.30371     -7192920.7      198.38635      201.66481      208.8226      -10939.52     
   2139000   698.58833     -7192999.3      198.38635      201.66481      208.8226      -11226.133    
   2140000   700.3622      -7192845.5      198.38635      201.66481      208.8226      -11008.454    
   2141000   700.63256     -7192845.5      198.38635      201.66481      208.8226      -10841.84     
   2142000   700.34196     -7192748.4      198.38635      201.66481      208.8226      -11044.967    
   2143000   699.42826     -7193010.4      198.38635      201.66481      208.8226      -11262.157    
   2144000   699.66965     -7192874.2      198.38635      201.66481      208.8226      -10901.531    
   2145000   699.6634      -7192948.5      198.38635      201.66481      208.8226      -10940.404    
   2146000   700.48483     -7192781.7      198.38635      201.66481      208.8226      -11050.837    
   2147000   699.68238     -7192907.5      198.38635      201.66481      208.8226      -10993.864    
   2148000   699.44233     -7192863.2      198.38635      201.66481      208.8226      -10833.227    
   2149000   700.68806     -7192827.9      198.38635      201.66481      208.8226      -11047.326    
   2150000   699.02924     -7192891.7      198.38635      201.66481      208.8226      -11118.708    
   2151000   699.80645     -7192967.9      198.38635      201.66481      208.8226      -10989.092    
   2152000   700.86225     -7192748        198.38635      201.66481      208.8226      -10913.994    
   2153000   699.50436     -7192783.8      198.38635      201.66481      208.8226      -11173.633    
   2154000   700.14533     -7192773        198.38635      201.66481      208.8226      -11055.171    
   2155000   699.90323     -7192889.7      198.38635      201.66481      208.8226      -10980.157    
   2156000   700.67153     -7192829.5      198.38635      201.66481      208.8226      -11039.931    
   2157000   701.093       -7192724.8      198.38635      201.66481      208.8226      -11320.238    
   2158000   699.85219     -7192917.8      198.38635      201.66481      208.8226      -11056.293    
   2159000   698.85006     -7193027.8      198.38635      201.66481      208.8226      -10951.676    
   2160000   700.4449      -7192847.8      198.38635      201.66481      208.8226      -11060.07     
   2161000   699.67182     -7192900.2      198.38635      201.66481      208.8226      -11193.356    
   2162000   700.31292     -7192860.1      198.38635      201.66481      208.8226      -10996.985    
   2163000   699.17708     -7192876.4      198.38635      201.66481      208.8226      -10934.08     
   2164000   699.91284     -7192848.3      198.38635      201.66481      208.8226      -11169.035    
   2165000   701.43965     -7192760.9      198.38635      201.66481      208.8226      -10998.604    
   2166000   699.64613     -7192931.6      198.38635      201.66481      208.8226      -10815.309    
   2167000   700.15171     -7192755.3      198.38635      201.66481      208.8226      -11130.025    
   2168000   699.54857     -7192859.1      198.38635      201.66481      208.8226      -11160.948    
   2169000   700.81149     -7192879.2      198.38635      201.66481      208.8226      -11078.673    
   2170000   700.29536     -7192801        198.38635      201.66481      208.8226      -10909.62     
   2171000   700.86613     -7192792.8      198.38635      201.66481      208.8226      -11115.855    
   2172000   701.27881     -7192750.7      198.38635      201.66481      208.8226      -11046.496    
   2173000   700.20827     -7192881.3      198.38635      201.66481      208.8226      -11003.65     
   2174000   700.93099     -7192786.3      198.38635      201.66481      208.8226      -10983.976    
   2175000   698.86534     -7192878.8      198.38635      201.66481      208.8226      -11167.036    
   2176000   700.21836     -7192769.7      198.38635      201.66481      208.8226      -11088.515    
   2177000   700.69472     -7192848.1      198.38635      201.66481      208.8226      -10873.931    
   2178000   701.55674     -7192714.4      198.38635      201.66481      208.8226      -11098.277    
   2179000   699.35171     -7192836.6      198.38635      201.66481      208.8226      -11103.027    
   2180000   701.29218     -7192774.6      198.38635      201.66481      208.8226      -10837.928    
   2181000   699.44172     -7192978.4      198.38635      201.66481      208.8226      -10998.999    
   2182000   699.81344     -7192818.8      198.38635      201.66481      208.8226      -11161.625    
   2183000   701.25127     -7192788.8      198.38635      201.66481      208.8226      -11085.894    
   2184000   699.85506     -7193007.1      198.38635      201.66481      208.8226      -10964.236    
   2185000   701.28478     -7192785.3      198.38635      201.66481      208.8226      -10965.179    
   2186000   700.20571     -7192673.2      198.38635      201.66481      208.8226      -11144.432    
   2187000   699.36566     -7192888.4      198.38635      201.66481      208.8226      -10912.486    
   2188000   700.73522     -7192841.2      198.38635      201.66481      208.8226      -10876.641    
   2189000   700.00524     -7192963.5      198.38635      201.66481      208.8226      -11028.795    
   2190000   699.84149     -7192943.1      198.38635      201.66481      208.8226      -11105.817    
   2191000   700.07049     -7192969.8      198.38635      201.66481      208.8226      -11043.998    
   2192000   699.48752     -7192968.3      198.38635      201.66481      208.8226      -11182.602    
   2193000   699.6234      -7192917.6      198.38635      201.66481      208.8226      -11262.661    
   2194000   698.56912     -7193017.7      198.38635      201.66481      208.8226      -11140.089    
   2195000   700.61776     -7192928.2      198.38635      201.66481      208.8226      -10943.702    
   2196000   701.35267     -7192683.3      198.38635      201.66481      208.8226      -11028.272    
   2197000   699.18013     -7192815.9      198.38635      201.66481      208.8226      -11168.449    
   2198000   700.75539     -7192801.1      198.38635      201.66481      208.8226      -10808.011    
   2199000   699.84778     -7192878.5      198.38635      201.66481      208.8226      -11009.281    
   2200000   698.39547     -7192980        198.38635      201.66481      208.8226      -11129.831    
   2201000   701.00843     -7192760        198.38635      201.66481      208.8226      -11109.325    
   2202000   699.0802      -7192916.8      198.38635      201.66481      208.8226      -11081.05     
   2203000   700.97963     -7192758.5      198.38635      201.66481      208.8226      -11015.55     
   2204000   700.37747     -7192760.5      198.38635      201.66481      208.8226      -11052.878    
   2205000   698.90196     -7192963.8      198.38635      201.66481      208.8226      -10981.045    
   2206000   701.03489     -7192807        198.38635      201.66481      208.8226      -10997.869    
   2207000   699.99471     -7192782.3      198.38635      201.66481      208.8226      -10986.044    
   2208000   700.13553     -7192892.6      198.38635      201.66481      208.8226      -11044.836    
   2209000   700.0471      -7192882.1      198.38635      201.66481      208.8226      -11019.837    
   2210000   698.97003     -7192962.1      198.38635      201.66481      208.8226      -11057.861    
   2211000   700.44789     -7192857.3      198.38635      201.66481      208.8226      -10942.83     
   2212000   700.19074     -7192828.8      198.38635      201.66481      208.8226      -10976.01     
   2213000   700.1224      -7192905.4      198.38635      201.66481      208.8226      -11052.35     
   2214000   698.55315     -7192882        198.38635      201.66481      208.8226      -10974.673    
   2215000   699.57078     -7192945.8      198.38635      201.66481      208.8226      -10958.792    
   2216000   699.928       -7192921.5      198.38635      201.66481      208.8226      -11017.758    
   2217000   701.01032     -7192756.6      198.38635      201.66481      208.8226      -10980.315    
   2218000   700.36272     -7192851.3      198.38635      201.66481      208.8226      -11094.129    
   2219000   699.6218      -7192911.5      198.38635      201.66481      208.8226      -11027.273    
   2220000   700.44455     -7192855.7      198.38635      201.66481      208.8226      -11101.689    
   2221000   699.01773     -7192954.7      198.38635      201.66481      208.8226      -10984.663    
   2222000   699.99723     -7192917.7      198.38635      201.66481      208.8226      -11174.731    
   2223000   699.73628     -7192974.9      198.38635      201.66481      208.8226      -11001.235    
   2224000   699.7757      -7192962.4      198.38635      201.66481      208.8226      -10998.291    
   2225000   700.56431     -7192836.7      198.38635      201.66481      208.8226      -10940.261    
   2226000   700.27534     -7192862.7      198.38635      201.66481      208.8226      -10985.849    
   2227000   699.06064     -7192858.5      198.38635      201.66481      208.8226      -11017.728    
   2228000   700.6165      -7192803.8      198.38635      201.66481      208.8226      -10952.945    
   2229000   699.66289     -7192904.6      198.38635      201.66481      208.8226      -11084.43     
   2230000   699.1677      -7192951.3      198.38635      201.66481      208.8226      -11205.898    
   2231000   700.61583     -7192778.4      198.38635      201.66481      208.8226      -10901.206    
   2232000   698.96622     -7192909.4      198.38635      201.66481      208.8226      -11082.201    
   2233000   699.23842     -7193000.4      198.38635      201.66481      208.8226      -11050.253    
   2234000   700.02483     -7192966.2      198.38635      201.66481      208.8226      -10959.29     
   2235000   700.11578     -7192878        198.38635      201.66481      208.8226      -11069.872    
   2236000   700.37728     -7192876.4      198.38635      201.66481      208.8226      -11068.211    
   2237000   699.3365      -7192904.7      198.38635      201.66481      208.8226      -11054.986    
   2238000   699.71484     -7192919.8      198.38635      201.66481      208.8226      -10999.337    
   2239000   699.56103     -7192901.8      198.38635      201.66481      208.8226      -10886.034    
   2240000   699.28651     -7192955.6      198.38635      201.66481      208.8226      -11120.267    
   2241000   699.27859     -7193058.2      198.38635      201.66481      208.8226      -10952.626    
   2242000   699.08898     -7192959.3      198.38635      201.66481      208.8226      -11105.45     
   2243000   700.06794     -7192820        198.38635      201.66481      208.8226      -11033.99     
   2244000   698.90642     -7192825.3      198.38635      201.66481      208.8226      -11159.827    
   2245000   699.67821     -7192981        198.38635      201.66481      208.8226      -10927.485    
   2246000   699.89024     -7192949.4      198.38635      201.66481      208.8226      -10943.177    
   2247000   700.85443     -7192828.8      198.38635      201.66481      208.8226      -11044.347    
   2248000   700.86036     -7192843.4      198.38635      201.66481      208.8226      -10942.763    
   2249000   700.27678     -7192773.9      198.38635      201.66481      208.8226      -10935.741    
   2250000   700.09465     -7192714.1      198.38635      201.66481      208.8226      -11137.617    
   2251000   699.2318      -7192880.2      198.38635      201.66481      208.8226      -11045.981    
   2252000   700.16393     -7192801        198.38635      201.66481      208.8226      -11033.655    
   2253000   700.31348     -7192771.8      198.38635      201.66481      208.8226      -11014.667    
   2254000   699.24379     -7192925.7      198.38635      201.66481      208.8226      -11066.699    
   2255000   701.51825     -7192722.2      198.38635      201.66481      208.8226      -10854.189    
   2256000   698.87937     -7192966.4      198.38635      201.66481      208.8226      -10972.984    
   2257000   701.20829     -7192722.5      198.38635      201.66481      208.8226      -11015.506    
   2258000   699.8731      -7192936.3      198.38635      201.66481      208.8226      -11217.317    
   2259000   698.99246     -7193056        198.38635      201.66481      208.8226      -11082.273    
   2260000   700.71216     -7192894.9      198.38635      201.66481      208.8226      -10918.217    
   2261000   700.28806     -7192824.3      198.38635      201.66481      208.8226      -11048.557    
   2262000   700.21053     -7192767.3      198.38635      201.66481      208.8226      -11059.996    
   2263000   699.47141     -7193022.8      198.38635      201.66481      208.8226      -10931.88     
   2264000   701.45246     -7192736        198.38635      201.66481      208.8226      -11037.759    
   2265000   699.96673     -7192790.3      198.38635      201.66481      208.8226      -11112.399    
   2266000   700.26984     -7192922.5      198.38635      201.66481      208.8226      -10980.825    
   2267000   700.65962     -7192914.5      198.38635      201.66481      208.8226      -10839.489    
   2268000   699.47867     -7192931.4      198.38635      201.66481      208.8226      -11016.386    
   2269000   700.93231     -7192752.4      198.38635      201.66481      208.8226      -11082.589    
   2270000   699.92363     -7192926.1      198.38635      201.66481      208.8226      -10924.966    
   2271000   698.95179     -7193012.2      198.38635      201.66481      208.8226      -11020.402    
   2272000   699.72441     -7192831        198.38635      201.66481      208.8226      -11258.94     
   2273000   700.57816     -7192778.4      198.38635      201.66481      208.8226      -11161.434    
   2274000   699.91701     -7192877.1      198.38635      201.66481      208.8226      -10910.83     
   2275000   699.15927     -7193021.3      198.38635      201.66481      208.8226      -10973.737    
   2276000   699.73153     -7192893.4      198.38635      201.66481      208.8226      -11112.114    
   2277000   700.40702     -7193012        198.38635      201.66481      208.8226      -10932.78     
   2278000   700.80204     -7192849.4      198.38635      201.66481      208.8226      -10986.349    
   2279000   699.63568     -7192869.7      198.38635      201.66481      208.8226      -11245.186    
   2280000   700.06005     -7192811.5      198.38635      201.66481      208.8226      -11039.416    
   2281000   699.37488     -7192999.2      198.38635      201.66481      208.8226      -10976.265    
   2282000   698.66979     -7192952.6      198.38635      201.66481      208.8226      -11064.097    
   2283000   699.74915     -7192952.9      198.38635      201.66481      208.8226      -11150.251    
   2284000   699.84177     -7192910.9      198.38635      201.66481      208.8226      -10947.31     
   2285000   700.32752     -7192848.5      198.38635      201.66481      208.8226      -10990.716    
   2286000   700.91825     -7192786.2      198.38635      201.66481      208.8226      -11232.634    
   2287000   699.84255     -7192921.3      198.38635      201.66481      208.8226      -11092.892    
   2288000   699.60702     -7192993.1      198.38635      201.66481      208.8226      -11153.669    
   2289000   699.04603     -7192961.1      198.38635      201.66481      208.8226      -10935.232    
   2290000   700.38306     -7192948.8      198.38635      201.66481      208.8226      -11182.469    
   2291000   698.78479     -7192893.6      198.38635      201.66481      208.8226      -11028.953    
   2292000   700.27287     -7192819.2      198.38635      201.66481      208.8226      -10943.988    
   2293000   700.74866     -7192759.9      198.38635      201.66481      208.8226      -11087.908    
   2294000   701.20266     -7192693.8      198.38635      201.66481      208.8226      -11031.416    
   2295000   698.20303     -7193038.4      198.38635      201.66481      208.8226      -11087.397    
   2296000   700.41786     -7192755.6      198.38635      201.66481      208.8226      -11004.886    
   2297000   700.53718     -7192820.4      198.38635      201.66481      208.8226      -11100.701    
   2298000   699.94785     -7192933.3      198.38635      201.66481      208.8226      -11052.563    
   2299000   700.76075     -7192849.2      198.38635      201.66481      208.8226      -10898.911    
   2300000   700.55968     -7192769.5      198.38635      201.66481      208.8226      -11049.583    
   2301000   699.85924     -7192974.3      198.38635      201.66481      208.8226      -11195.98     
   2302000   699.97864     -7192944.7      198.38635      201.66481      208.8226      -11082.4      
   2303000   699.41731     -7192841.3      198.38635      201.66481      208.8226      -10900.281    
   2304000   700.68438     -7192786        198.38635      201.66481      208.8226      -11044.181    
   2305000   700.37845     -7192904.9      198.38635      201.66481      208.8226      -10965.078    
   2306000   700.32123     -7192915.1      198.38635      201.66481      208.8226      -10859.958    
   2307000   698.80121     -7192945.7      198.38635      201.66481      208.8226      -11124.973    
   2308000   700.77173     -7192870.8      198.38635      201.66481      208.8226      -11049.754    
   2309000   700.15069     -7192872.1      198.38635      201.66481      208.8226      -10917.486    
   2310000   699.20362     -7192945.4      198.38635      201.66481      208.8226      -10977.163    
   2311000   699.89119     -7192779        198.38635      201.66481      208.8226      -11045.314    
   2312000   700.43663     -7192812.9      198.38635      201.66481      208.8226      -11000.522    
   2313000   700.13215     -7192942.1      198.38635      201.66481      208.8226      -10957.969    
   2314000   699.3223      -7193005.5      198.38635      201.66481      208.8226      -11148.868    
   2315000   701.24606     -7192801.4      198.38635      201.66481      208.8226      -10983.861    
   2316000   700.51282     -7192922.2      198.38635      201.66481      208.8226      -10944.088    
   2317000   700.12432     -7192848.9      198.38635      201.66481      208.8226      -10995.594    
   2318000   700.83064     -7192761.2      198.38635      201.66481      208.8226      -11060.213    
   2319000   699.33756     -7192867.5      198.38635      201.66481      208.8226      -11135.76     
   2320000   699.52986     -7193028.4      198.38635      201.66481      208.8226      -10866.129    
   2321000   700.65178     -7192813.7      198.38635      201.66481      208.8226      -11010.481    
   2322000   700.25083     -7192845.9      198.38635      201.66481      208.8226      -11114.315    
   2323000   698.55381     -7193088        198.38635      201.66481      208.8226      -11147.639    
   2324000   699.47527     -7192958.5      198.38635      201.66481      208.8226      -10988.005    
   2325000   701.03049     -7192733.4      198.38635      201.66481      208.8226      -11086.045    
   2326000   699.15909     -7192863.6      198.38635      201.66481      208.8226      -11189.343    
   2327000   701.07113     -7192924.8      198.38635      201.66481      208.8226      -10892.736    
   2328000   701.78963     -7192766.6      198.38635      201.66481      208.8226      -10890.898    
   2329000   701.27576     -7192707.9      198.38635      201.66481      208.8226      -11086.588    
   2330000   701.23632     -7192740.5      198.38635      201.66481      208.8226      -10949.637    
   2331000   701.50364     -7192796        198.38635      201.66481      208.8226      -10949.519    
   2332000   699.53812     -7192877.1      198.38635      201.66481      208.8226      -11193.366    
   2333000   698.58122     -7192972.1      198.38635      201.66481      208.8226      -11125.607    
   2334000   699.72505     -7192909.4      198.38635      201.66481      208.8226      -10944.868    
   2335000   699.58402     -7192943.1      198.38635      201.66481      208.8226      -11056.799    
   2336000   700.11681     -7192848.6      198.38635      201.66481      208.8226      -11172.565    
   2337000   700.43971     -7192779.2      198.38635      201.66481      208.8226      -10829.475    
   2338000   700.27833     -7192786.9      198.38635      201.66481      208.8226      -10990.76     
   2339000   700.49324     -7192826.7      198.38635      201.66481      208.8226      -11171.376    
   2340000   699.07473     -7193022.3      198.38635      201.66481      208.8226      -11195.234    
   2341000   700.41853     -7192912.4      198.38635      201.66481      208.8226      -11015.757    
   2342000   700.38154     -7192871.7      198.38635      201.66481      208.8226      -11101.888    
   2343000   700.47656     -7192873        198.38635      201.66481      208.8226      -11026.134    
   2344000   699.46614     -7192963.8      198.38635      201.66481      208.8226      -11084.422    
   2345000   700.52589     -7192881.2      198.38635      201.66481      208.8226      -11047.31     
   2346000   700.12024     -7192864.1      198.38635      201.66481      208.8226      -11054.024    
   2347000   700.18244     -7192886        198.38635      201.66481      208.8226      -11030.657    
   2348000   700.16231     -7192925.5      198.38635      201.66481      208.8226      -10975.037    
   2349000   700.09386     -7192910.2      198.38635      201.66481      208.8226      -11015.963    
   2350000   699.30381     -7192904.7      198.38635      201.66481      208.8226      -11016.575    
   2351000   699.28895     -7193015.4      198.38635      201.66481      208.8226      -11016.156    
   2352000   699.24749     -7192943.9      198.38635      201.66481      208.8226      -11071.326    
   2353000   699.51397     -7192899.7      198.38635      201.66481      208.8226      -10911.217    
   2354000   699.34658     -7192838.5      198.38635      201.66481      208.8226      -10818.716    
   2355000   699.94761     -7192912.9      198.38635      201.66481      208.8226      -11103.337    
   2356000   700.36742     -7192829        198.38635      201.66481      208.8226      -10933.571    
   2357000   700.40817     -7192865.5      198.38635      201.66481      208.8226      -11171.417    
   2358000   699.67137     -7192846.1      198.38635      201.66481      208.8226      -11051.098    
   2359000   700.39995     -7192873        198.38635      201.66481      208.8226      -11061.298    
   2360000   699.80772     -7193030.1      198.38635      201.66481      208.8226      -11123.593    
   2361000   699.17053     -7193062.8      198.38635      201.66481      208.8226      -11173.191    
   2362000   698.70521     -7192994.6      198.38635      201.66481      208.8226      -11188.672    
   2363000   700.158       -7192730.4      198.38635      201.66481      208.8226      -10908.128    
   2364000   698.89864     -7193013.5      198.38635      201.66481      208.8226      -11140.715    
   2365000   700.67143     -7192920        198.38635      201.66481      208.8226      -11013.936    
   2366000   700.23052     -7192842.3      198.38635      201.66481      208.8226      -11031.567    
   2367000   699.3266      -7192946.4      198.38635      201.66481      208.8226      -10972.113    
   2368000   700.07762     -7192738        198.38635      201.66481      208.8226      -10945.784    
   2369000   702.02623     -7192780.4      198.38635      201.66481      208.8226      -11119.355    
   2370000   700.82816     -7192851.3      198.38635      201.66481      208.8226      -11073.664    
   2371000   700.4773      -7192886.7      198.38635      201.66481      208.8226      -11009.361    
   2372000   701.4889      -7192805.1      198.38635      201.66481      208.8226      -11200.559    
   2373000   699.35063     -7193019.6      198.38635      201.66481      208.8226      -11209.51     
   2374000   699.53562     -7192942.6      198.38635      201.66481      208.8226      -10943.707    
   2375000   700.28958     -7192795.9      198.38635      201.66481      208.8226      -11049.305    
   2376000   699.93171     -7192843.9      198.38635      201.66481      208.8226      -11043.291    
   2377000   699.52853     -7192975        198.38635      201.66481      208.8226      -11070.802    
   2378000   699.64964     -7192930.6      198.38635      201.66481      208.8226      -10967.64     
   2379000   699.58637     -7192919.4      198.38635      201.66481      208.8226      -11069.556    
   2380000   699.95105     -7192829.6      198.38635      201.66481      208.8226      -10948.887    
   2381000   701.05851     -7192822.5      198.38635      201.66481      208.8226      -10951.854    
   2382000   699.36445     -7192925.4      198.38635      201.66481      208.8226      -11135.81     
   2383000   698.91273     -7192966.2      198.38635      201.66481      208.8226      -11070.665    
   2384000   699.50454     -7192974.1      198.38635      201.66481      208.8226      -10983.617    
   2385000   701.09997     -7192879.6      198.38635      201.66481      208.8226      -10911.833    
   2386000   700.80347     -7192800.2      198.38635      201.66481      208.8226      -11012.103    
   2387000   699.06405     -7192879.7      198.38635      201.66481      208.8226      -10947.632    
   2388000   700.7397      -7192808.4      198.38635      201.66481      208.8226      -10986.125    
   2389000   698.70268     -7192971        198.38635      201.66481      208.8226      -11071.488    
   2390000   699.80877     -7192873.7      198.38635      201.66481      208.8226      -10977.676    
   2391000   700.12888     -7192880.7      198.38635      201.66481      208.8226      -10834.493    
   2392000   700.5504      -7192893.8      198.38635      201.66481      208.8226      -10862.637    
   2393000   700.75506     -7192804.6      198.38635      201.66481      208.8226      -11140.462    
   2394000   701.2151      -7192742.5      198.38635      201.66481      208.8226      -11041.193    
   2395000   700.58602     -7192860.2      198.38635      201.66481      208.8226      -11031.441    
   2396000   698.83991     -7192966.8      198.38635      201.66481      208.8226      -11072.862    
   2397000   698.72248     -7192960        198.38635      201.66481      208.8226      -11088.733    
   2398000   700.03305     -7192883.2      198.38635      201.66481      208.8226      -11089.834    
   2399000   700.4314      -7192992.5      198.38635      201.66481      208.8226      -11139.741    
   2400000   699.6658      -7192871.3      198.38635      201.66481      208.8226      -11007.578    
   2401000   700.03623     -7192975.3      198.38635      201.66481      208.8226      -10908.455    
   2402000   700.16113     -7192861.2      198.38635      201.66481      208.8226      -11178.695    
   2403000   700.37753     -7192895.4      198.38635      201.66481      208.8226      -11095.19     
   2404000   700.15269     -7192980.4      198.38635      201.66481      208.8226      -11143.79     
   2405000   700.42839     -7192792.5      198.38635      201.66481      208.8226      -11013.699    
   2406000   700.63161     -7192809.7      198.38635      201.66481      208.8226      -10948.777    
   2407000   700.15944     -7192867.9      198.38635      201.66481      208.8226      -11153.286    
   2408000   699.79951     -7192944.5      198.38635      201.66481      208.8226      -10998.659    
   2409000   698.81713     -7192885.3      198.38635      201.66481      208.8226      -10911.396    
   2410000   699.80566     -7192810.8      198.38635      201.66481      208.8226      -10988.895    
   2411000   699.99813     -7192918.3      198.38635      201.66481      208.8226      -11132.5      
   2412000   700.09135     -7192931.8      198.38635      201.66481      208.8226      -10994.48     
   2413000   699.66661     -7192995.7      198.38635      201.66481      208.8226      -11053.27     
   2414000   699.26588     -7192980.5      198.38635      201.66481      208.8226      -11066.084    
   2415000   699.66592     -7192981.5      198.38635      201.66481      208.8226      -10935.442    
   2416000   701.01113     -7192879.8      198.38635      201.66481      208.8226      -11075.811    
   2417000   700.28132     -7192760.1      198.38635      201.66481      208.8226      -11047.116    
   2418000   701.2146      -7192781.3      198.38635      201.66481      208.8226      -11032.09     
   2419000   700.43534     -7192780.9      198.38635      201.66481      208.8226      -10924.437    
   2420000   699.92523     -7192852.7      198.38635      201.66481      208.8226      -10942.494    
   2421000   700.27619     -7192877        198.38635      201.66481      208.8226      -11198.917    
   2422000   700.81435     -7192764.2      198.38635      201.66481      208.8226      -10966.559    
   2423000   700.35629     -7192885.1      198.38635      201.66481      208.8226      -11012.246    
   2424000   700.15729     -7192920.7      198.38635      201.66481      208.8226      -11138.711    
   2425000   699.43566     -7192952.2      198.38635      201.66481      208.8226      -11143.175    
   2426000   701.47184     -7192824.1      198.38635      201.66481      208.8226      -11001.592    
   2427000   700.56029     -7192840.4      198.38635      201.66481      208.8226      -10965.281    
   2428000   701.02051     -7192839.9      198.38635      201.66481      208.8226      -11106.769    
   2429000   700.3744      -7192807.7      198.38635      201.66481      208.8226      -11107.616    
   2430000   700.22309     -7192901        198.38635      201.66481      208.8226      -10981.172    
   2431000   700.97411     -7192799.1      198.38635      201.66481      208.8226      -11121.239    
   2432000   700.4466      -7192882        198.38635      201.66481      208.8226      -11156.676    
   2433000   700.5848      -7192921.9      198.38635      201.66481      208.8226      -10985.29     
   2434000   700.35809     -7192866.2      198.38635      201.66481      208.8226      -10795.748    
   2435000   700.41662     -7192883.7      198.38635      201.66481      208.8226      -11069.07     
   2436000   699.42987     -7192948.3      198.38635      201.66481      208.8226      -10976.276    
   2437000   699.29951     -7192907.2      198.38635      201.66481      208.8226      -10934.555    
   2438000   700.10373     -7192937.8      198.38635      201.66481      208.8226      -11058.042    
   2439000   700.38215     -7192836.9      198.38635      201.66481      208.8226      -11309.439    
   2440000   700.74119     -7192870.5      198.38635      201.66481      208.8226      -10991.889    
   2441000   698.44943     -7193047        198.38635      201.66481      208.8226      -10935.754    
   2442000   700.26741     -7192841.7      198.38635      201.66481      208.8226      -11056.548    
   2443000   700.62597     -7192874.2      198.38635      201.66481      208.8226      -11078.779    
   2444000   699.35901     -7192983.4      198.38635      201.66481      208.8226      -10879.58     
   2445000   699.95022     -7192875.2      198.38635      201.66481      208.8226      -10942.036    
   2446000   699.7537      -7192907.1      198.38635      201.66481      208.8226      -11157.949    
   2447000   699.76644     -7192760.4      198.38635      201.66481      208.8226      -11073.199    
   2448000   700.39534     -7192794.5      198.38635      201.66481      208.8226      -10791.937    
   2449000   698.91741     -7192920.8      198.38635      201.66481      208.8226      -10979.126    
   2450000   700.02884     -7192917.4      198.38635      201.66481      208.8226      -11061.594    
   2451000   699.64256     -7192789.9      198.38635      201.66481      208.8226      -10923.607    
   2452000   700.71564     -7192839.3      198.38635      201.66481      208.8226      -10893.737    
   2453000   700.22107     -7192861.4      198.38635      201.66481      208.8226      -11105.167    
   2454000   699.80144     -7192790.6      198.38635      201.66481      208.8226      -11060.677    
   2455000   698.97289     -7192982.2      198.38635      201.66481      208.8226      -10938.624    
   2456000   699.38746     -7192907.1      198.38635      201.66481      208.8226      -11016.627    
   2457000   700.86107     -7192718.6      198.38635      201.66481      208.8226      -11128.008    
   2458000   699.91433     -7192928.6      198.38635      201.66481      208.8226      -11007.739    
   2459000   700.0746      -7192864.6      198.38635      201.66481      208.8226      -10957.245    
   2460000   701.13527     -7192759.4      198.38635      201.66481      208.8226      -11068.925    
   2461000   701.22454     -7192861.4      198.38635      201.66481      208.8226      -11236.599    
   2462000   699.76877     -7192845.5      198.38635      201.66481      208.8226      -10903.765    
   2463000   699.40562     -7192933.4      198.38635      201.66481      208.8226      -10924.599    
   2464000   698.46968     -7192936.5      198.38635      201.66481      208.8226      -11088.748    
   2465000   701.13383     -7192689.9      198.38635      201.66481      208.8226      -10874.064    
   2466000   700.51483     -7192947.4      198.38635      201.66481      208.8226      -11008.661    
   2467000   699.86772     -7192925.6      198.38635      201.66481      208.8226      -11108.557    
   2468000   700.00679     -7192826.8      198.38635      201.66481      208.8226      -11187.623    
   2469000   699.99233     -7192874.8      198.38635      201.66481      208.8226      -10859.848    
   2470000   700.73363     -7192856.1      198.38635      201.66481      208.8226      -10813.16     
   2471000   699.54648     -7192935.2      198.38635      201.66481      208.8226      -11226.385    
   2472000   700.46496     -7192850.1      198.38635      201.66481      208.8226      -11056.444    
   2473000   699.67906     -7193002.1      198.38635      201.66481      208.8226      -10884.144    
   2474000   700.36267     -7192993.8      198.38635      201.66481      208.8226      -11007.978    
   2475000   700.32974     -7192883.5      198.38635      201.66481      208.8226      -11272.564    
   2476000   700.83527     -7192906        198.38635      201.66481      208.8226      -11080.672    
   2477000   700.63232     -7192851.7      198.38635      201.66481      208.8226      -10839.103    
   2478000   698.99013     -7192967.3      198.38635      201.66481      208.8226      -10960.36     
   2479000   699.07199     -7192876.7      198.38635      201.66481      208.8226      -11157.683    
   2480000   699.47213     -7193008.7      198.38635      201.66481      208.8226      -10939.527    
   2481000   700.18918     -7193034.3      198.38635      201.66481      208.8226      -10978.037    
   2482000   700.72186     -7192741.4      198.38635      201.66481      208.8226      -11144.462    
   2483000   699.71858     -7192926.6      198.38635      201.66481      208.8226      -11173.281    
   2484000   699.85272     -7192930.9      198.38635      201.66481      208.8226      -10978.542    
   2485000   700.7205      -7192693.3      198.38635      201.66481      208.8226      -10968.783    
   2486000   700.1712      -7192833.3      198.38635      201.66481      208.8226      -11096.803    
   2487000   699.45522     -7193084.6      198.38635      201.66481      208.8226      -11004.434    
   2488000   700.52691     -7192897.3      198.38635      201.66481      208.8226      -10930.7      
   2489000   700.52527     -7192890.9      198.38635      201.66481      208.8226      -11151.296    
   2490000   700.67889     -7192893.7      198.38635      201.66481      208.8226      -11103.545    
   2491000   700.37838     -7192885.5      198.38635      201.66481      208.8226      -10882.535    
   2492000   699.9038      -7192940.2      198.38635      201.66481      208.8226      -11051.754    
   2493000   698.45324     -7192916.4      198.38635      201.66481      208.8226      -11053.836    
   2494000   700.24305     -7192861.9      198.38635      201.66481      208.8226      -11077.437    
   2495000   700.82949     -7192846.8      198.38635      201.66481      208.8226      -10854.951    
   2496000   700.27546     -7192899        198.38635      201.66481      208.8226      -10946.99     
   2497000   701.18778     -7192788.3      198.38635      201.66481      208.8226      -11169.456    
   2498000   699.6988      -7192900.8      198.38635      201.66481      208.8226      -10997.257    
   2499000   699.9581      -7192866.5      198.38635      201.66481      208.8226      -11071.274    
   2500000   699.59762     -7193031.4      198.38635      201.66481      208.8226      -11102.782    
   2501000   699.97315     -7192873.5      198.38635      201.66481      208.8226      -10975.804    
   2502000   699.04208     -7193047.8      198.38635      201.66481      208.8226      -11033.439    
   2503000   699.79082     -7192958.9      198.38635      201.66481      208.8226      -11134.739    
   2504000   699.63329     -7192883.4      198.38635      201.66481      208.8226      -11060.557    
   2505000   700.38514     -7192853.6      198.38635      201.66481      208.8226      -11075.981    
   2506000   700.13759     -7192930        198.38635      201.66481      208.8226      -10953.335    
   2507000   700.64638     -7192787.3      198.38635      201.66481      208.8226      -11078.143    
   2508000   699.23575     -7192861.7      198.38635      201.66481      208.8226      -10951.72     
   2509000   699.22111     -7192965.5      198.38635      201.66481      208.8226      -11181.425    
   2510000   700.32154     -7192922.1      198.38635      201.66481      208.8226      -10996.256    
Loop time of 201340 on 32768 procs for 2500000 steps with 634500 atoms

Performance: 2.146 ns/day, 11.186 hours/ns, 12.417 timesteps/s, 7.878 Matom-step/s
76.6% CPU use with 256 MPI tasks x 128 OpenMP threads

MPI task timing breakdown:
Section |  min time  |  avg time  |  max time  |%varavg| %total
---------------------------------------------------------------
Pair    | 37942      | 76456      | 92594      |5270.8 | 37.97
Bond    | 0.29197    | 0.51351    | 0.80114    |  13.4 |  0.00
Kspace  | 95128      | 1.1248e+05 | 1.5567e+05 |4880.0 | 55.87
Neigh   | 4175.8     | 8678.9     | 10020      |1929.4 |  4.31
Comm    | 2179.5     | 3022.6     | 3366.2     | 443.1 |  1.50
Output  | 0.39974    | 0.44058    | 0.44541    |   0.5 |  0.00
Modify  | 304.05     | 455.74     | 901.5      | 657.8 |  0.23
Other   |            | 246.1      |            |       |  0.12

Nlocal:        2478.52 ave        2707 max        1732 min
Histogram: 32 0 0 29 3 0 0 0 3 189
Nghost:        10210.8 ave       11505 max        6260 min
Histogram: 32 32 0 0 0 0 0 0 0 192
Neighs:         631289 ave      719971 max      347672 min
Histogram: 32 0 0 0 21 11 0 0 50 142

Total # of neighbors = 1.6161e+08
Ave neighs/atom = 254.7045
Ave special neighs/atom = 0
Neighbor list builds = 426794
Dangerous builds = 0
Total wall time: 56:31:15
