LAMMPS (8 Feb 2023)
WARNING: Using I/O redirection is unreliable with parallel runs. Better to use the -in switch to read input files. (src/src/lammps.cpp:531)
  using 128 OpenMP thread(s) per MPI task
Reading data file ...
  orthogonal box = (-0.50903818 -0.50903818 -0.50903818) to (195.50904 195.50904 195.50904)
  4 by 4 by 8 MPI processor grid
  reading atoms ...
  632628 atoms
  reading velocities ...
  632628 velocities
Finding 1-2 1-3 1-4 neighbors ...
  special bond factors lj:    0        0        0       
  special bond factors coul:  0        0        0       
     0 = max # of 1-2 neighbors
     0 = max # of 1-3 neighbors
     0 = max # of 1-4 neighbors
     1 = max # of special neighbors
  special bonds CPU = 0.084 seconds
  read_data CPU = 4.292 seconds
168253 atoms in group Li
323042 atoms in group O
PPPM initialization ...
  using 12-bit tables for long-range coulomb (src/src/kspace.cpp:342)
  G vector (1/distance) = 0.27716824
  grid = 135 135 135
  stencil order = 5
  estimated absolute RMS force accuracy = 0.0018359093
  estimated relative force accuracy = 0.00012749684
  using double precision MKL FFT
  3d grid and FFT values/proc = 36800 36450
Generated 0 of 10 mixed pair_coeff terms from geometric mixing rule
Neighbor list info ...
  update: every = 1 steps, delay = 0 steps, check = yes
  max neighbors/atom: 5000, page size: 100000
  master list distance cutoff = 11.5
  ghost atom cutoff = 11.5
  binsize = 5.75, bins = 35 35 35
  3 neighbor lists, perpetual/occasional/extra = 3 0 0
  (1) pair buck/coul/long, perpetual
      attributes: half, newton on
      pair build: half/bin/newton
      stencil: half/bin/3d
      bin: standard
  (2) pair lennard/mdf, perpetual, skip from (3)
      attributes: half, newton on, cut 4
      pair build: skip
      stencil: none
      bin: none
  (3) neighbor class addition, perpetual, trim from (1)
      attributes: half, newton on, cut 4
      pair build: trim
      stencil: none
      bin: none
Setting up cg style minimization ...
  Unit style    : metal
  Current step  : 0
Per MPI rank memory allocation (min/avg/max) = 299.3 | 299.7 | 301.5 Mbytes
   Step          Temp          E_pair         E_mol          TotEng         Press     
         0   300.38452     -7266466.6      0             -7241903.1     -366.64299    
       399   300.38452     -7291165        0             -7266601.5     -11277.987    
Loop time of 65.8945 on 16384 procs for 399 steps with 632628 atoms

92.2% CPU use with 128 MPI tasks x 128 OpenMP threads

Minimization stats:
  Stopping criterion = linesearch alpha is zero
  Energy initial, next-to-last, final = 
     -7266466.60707019  -7291164.96177537  -7291164.96177537
  Force two-norm initial, final = 764.9987 0.4702434
  Force max component initial, final = 4.18681 0.24646052
  Final line search alpha, max atom move = 4.6486437e-08 1.1457071e-08
  Iterations, force evaluations = 399 733

MPI task timing breakdown:
Section |  min time  |  avg time  |  max time  |%varavg| %total
---------------------------------------------------------------
Pair    | 47.91      | 51.11      | 52.976     |  14.9 | 77.56
Bond    | 0.00013851 | 0.00018498 | 0.00029048 |   0.0 |  0.00
Kspace  | 9.9063     | 11.791     | 15.087     |  31.7 | 17.89
Neigh   | 1.0361     | 1.1017     | 1.1441     |   1.9 |  1.67
Comm    | 1.3606     | 1.4711     | 1.5747     |   4.2 |  2.23
Output  | 0          | 0          | 0          |   0.0 |  0.00
Modify  | 0          | 0          | 0          |   0.0 |  0.00
Other   |            | 0.4203     |            |       |  0.64

Nlocal:        4942.41 ave        5012 max        4804 min
Histogram: 3 1 6 7 14 19 19 12 20 27
Nghost:        15734.3 ave       15924 max       15458 min
Histogram: 1 1 12 7 22 25 23 18 3 16
Neighs:    1.32757e+06 ave 1.38465e+06 max 1.23865e+06 min
Histogram: 2 3 5 13 14 22 24 16 21 8

Total # of neighbors = 1.6992855e+08
Ave neighs/atom = 268.60738
Ave special neighs/atom = 0
Neighbor list builds = 26
Dangerous builds = 0
PPPM initialization ...
  using 12-bit tables for long-range coulomb (src/src/kspace.cpp:342)
  G vector (1/distance) = 0.27716824
  grid = 135 135 135
  stencil order = 5
  estimated absolute RMS force accuracy = 0.0018359093
  estimated relative force accuracy = 0.00012749684
  using double precision MKL FFT
  3d grid and FFT values/proc = 36800 36450
Generated 0 of 10 mixed pair_coeff terms from geometric mixing rule
Setting up Verlet run ...
  Unit style    : metal
  Current step  : 0
  Time step     : 0.002
Per MPI rank memory allocation (min/avg/max) = 297.1 | 297.4 | 299.2 Mbytes
   Step          Temp          TotEng           Lx             Ly             Lz           Press     
         0   300.38452     -7266601.5      196.01808      196.01808      196.01808     -11277.987    
      1000   306.83228     -7240700.1      196.0166       196.0166       196.0166       84.926773    
      2000   315.78489     -7239167.6      196.0541       196.0541       196.0541      -142.41114    
      3000   323.80285     -7237795.4      196.08203      196.08203      196.08203     -30.327105    
      4000   332.42545     -7236359        196.09508      196.09508      196.09508      145.95254    
      5000   340.6357      -7234960.8      196.134        196.134        196.134        34.344122    
      6000   347.75688     -7233732.2      196.1532       196.1532       196.1532       56.974894    
      7000   356.36866     -7232359.8      196.18077      196.18077      196.18077      36.340166    
      8000   363.47838     -7231010.6      196.21176      196.21176      196.21176      77.401866    
      9000   372.04346     -7229594.7      196.23046      196.23046      196.23046      85.68918     
     10000   379.47055     -7228236.5      196.27124      196.27124      196.27124     -0.87604842   
     11000   388.08342     -7226871.1      196.28959      196.28959      196.28959      135.40065    
     12000   395.90852     -7225531.6      196.32893      196.32893      196.32893     -136.6059     
     13000   404.02822     -7224089.1      196.35553      196.35553      196.35553     -98.526611    
     14000   412.3858      -7222724.6      196.38134      196.38134      196.38134     -16.190088    
     15000   420.03886     -7221356.4      196.40487      196.40487      196.40487      35.055777    
     16000   427.76408     -7220025.2      196.44233      196.44233      196.44233     -65.148659    
     17000   436.21448     -7218624.2      196.46417      196.46417      196.46417     -86.221642    
     18000   444.5101      -7217179.4      196.50243      196.50243      196.50243     -200.50137    
     19000   452.54128     -7215866.5      196.5045       196.5045       196.5045       133.97228    
     20000   460.32727     -7214520.8      196.54077      196.54077      196.54077      1.244743     
     21000   467.32399     -7213196.9      196.5592       196.5592       196.5592       221.27152    
     22000   475.56071     -7211768.8      196.59434      196.59434      196.59434      261.19404    
     23000   484.23824     -7210369.2      196.63144      196.63144      196.63144     -59.116422    
     24000   492.08525     -7208956.6      196.66603      196.66603      196.66603     -129.15731    
     25000   499.6085      -7207598.6      196.67533      196.67533      196.67533      253.52359    
     26000   508.07269     -7206225        196.70835      196.70835      196.70835     -31.674268    
     27000   515.47418     -7204774.4      196.74548      196.74548      196.74548      77.018607    
     28000   523.76444     -7203431.7      196.77551      196.77551      196.77551     -16.044604    
     29000   532.45842     -7202061.9      196.79955      196.79955      196.79955      161.56986    
     30000   539.75119     -7200639.9      196.82632      196.82632      196.82632      83.771696    
     31000   547.0001      -7199412.9      196.85635      196.85635      196.85635      97.15017     
     32000   555.90795     -7197869.1      196.88188      196.88188      196.88188      25.693846    
     33000   563.8198      -7196480.6      196.92944      196.92944      196.92944     -200.45058    
     34000   571.7769      -7195051.9      196.95585      196.95585      196.95585     -64.539339    
     35000   579.79022     -7193685.4      196.98038      196.98038      196.98038      31.97878     
     36000   587.64539     -7192375.3      197.00433      197.00433      197.00433      127.86346    
     37000   595.23846     -7191058.1      197.03944      197.03944      197.03944     -105.59586    
     38000   603.30224     -7189586.4      197.05897      197.05897      197.05897      28.201213    
     39000   611.93014     -7188182.7      197.0895       197.0895       197.0895       191.69003    
     40000   619.37885     -7186775.5      197.12248      197.12248      197.12248     -50.646115    
     41000   628.81252     -7185234.9      197.16454      197.16454      197.16454     -153.2619     
     42000   635.34857     -7184098.9      197.17574      197.17574      197.17574      25.491311    
     43000   644.73569     -7182497.5      197.21943      197.21943      197.21943     -150.37564    
     44000   652.2918      -7181197.5      197.23892      197.23892      197.23892     -3.2342831    
     45000   660.77988     -7179750.6      197.26739      197.26739      197.26739      13.780942    
     46000   668.09654     -7178444.7      197.28177      197.28177      197.28177      227.70054    
     47000   676.32086     -7177046.3      197.3422       197.3422       197.3422      -249.40662    
     48000   684.83184     -7175650        197.36352      197.36352      197.36352     -97.793267    
     49000   690.63504     -7174365.7      197.37388      197.37388      197.37388      229.66597    
     50000   699.70629     -7173029.6      197.41502      197.41502      197.41502      89.054129    
Loop time of 4379.79 on 16384 procs for 50000 steps with 632628 atoms

Performance: 1.973 ns/day, 12.166 hours/ns, 11.416 timesteps/s, 7.222 Matom-step/s
89.9% CPU use with 128 MPI tasks x 128 OpenMP threads

MPI task timing breakdown:
Section |  min time  |  avg time  |  max time  |%varavg| %total
---------------------------------------------------------------
Pair    | 2613.8     | 2779.9     | 2882.8     | 103.9 | 63.47
Bond    | 0.009461   | 0.013316   | 0.019478   |   2.0 |  0.00
Kspace  | 704.42     | 814.32     | 999.85     | 210.2 | 18.59
Neigh   | 303.78     | 319.91     | 330.44     |  30.0 |  7.30
Comm    | 107        | 115.95     | 124.82     |  44.3 |  2.65
Output  | 0.0072685  | 0.0076472  | 0.0089219  |   0.2 |  0.00
Modify  | 171.66     | 198.84     | 344.07     | 239.2 |  4.54
Other   |            | 150.8      |            |       |  3.44

Nlocal:        4942.41 ave        5009 max        4806 min
Histogram: 2 2 3 6 17 15 20 15 29 19
Nghost:        15570.4 ave       15756 max       15331 min
Histogram: 1 6 6 15 20 28 23 11 5 13
Neighs:    1.29894e+06 ave  1.3484e+06 max 1.21758e+06 min
Histogram: 2 3 5 12 12 24 21 16 18 15

Total # of neighbors = 1.6626441e+08
Ave neighs/atom = 262.81544
Ave special neighs/atom = 0
Neighbor list builds = 7372
Dangerous builds = 0
PPPM initialization ...
  using 12-bit tables for long-range coulomb (src/src/kspace.cpp:342)
  G vector (1/distance) = 0.27666265
  grid = 135 135 135
  stencil order = 5
  estimated absolute RMS force accuracy = 0.0018749466
  estimated relative force accuracy = 0.00013020783
  using double precision MKL FFT
  3d grid and FFT values/proc = 36800 36450
Generated 0 of 10 mixed pair_coeff terms from geometric mixing rule
Setting up Verlet run ...
  Unit style    : metal
  Current step  : 0
  Time step     : 0.002
Per MPI rank memory allocation (min/avg/max) = 298.8 | 299.2 | 300.9 Mbytes
   Step          Temp          TotEng           Lx             Ly             Lz           Press     
         0   699.70629     -7173030.7      197.41502      197.41502      197.41502      87.27183     
      1000   699.00695     -7172946.7      197.41325      197.41325      197.41325     -82.820212    
      2000   699.95508     -7172910        197.40896      197.40896      197.40896      175.12514    
      3000   698.90447     -7172829.8      197.42174      197.42174      197.42174      37.659718    
      4000   698.77166     -7173028.8      197.41882      197.41882      197.41882     -20.148111    
      5000   699.41023     -7172902.4      197.40493      197.40493      197.40493      145.80228    
      6000   698.52517     -7173008.6      197.42152      197.42152      197.42152      115.40376    
      7000   699.35679     -7173064.4      197.42224      197.42224      197.42224     -150.89393    
      8000   699.78921     -7173021.5      197.42409      197.42409      197.42409     -20.369748    
      9000   699.06317     -7173028        197.39848      197.39848      197.39848      256.99574    
     10000   699.18352     -7172954.5      197.41261      197.41261      197.41261     -7.6880809    
     11000   699.29695     -7173045.8      197.43368      197.43368      197.43368     -229.73279    
     12000   699.16042     -7173178.1      197.40639      197.40639      197.40639      127.63697    
     13000   700.0392      -7172958.1      197.41485      197.41485      197.41485      145.88954    
     14000   699.28364     -7173089.8      197.41444      197.41444      197.41444      134.04666    
     15000   699.92903     -7173155.2      197.41106      197.41106      197.41106      110.80231    
     16000   699.72059     -7173037.7      197.41551      197.41551      197.41551     -1.7356251    
     17000   698.25309     -7173126.1      197.42081      197.42081      197.42081     -271.84418    
     18000   700.02968     -7173049.9      197.41934      197.41934      197.41934     -138.26973    
     19000   700.79321     -7173033.7      197.4143       197.4143       197.4143      -19.420939    
     20000   699.73738     -7173076.9      197.41357      197.41357      197.41357      56.093077    
     21000   699.44503     -7173054.8      197.41775      197.41775      197.41775     -3.7829993    
     22000   699.61375     -7173070.7      197.42742      197.42742      197.42742     -176.35227    
     23000   699.06297     -7173216.5      197.4001       197.4001       197.4001       142.6355     
     24000   699.48848     -7173077.7      197.42369      197.42369      197.42369     -49.967221    
     25000   699.32718     -7173169.6      197.42028      197.42028      197.42028     -149.3239     
     26000   700.15345     -7173185.2      197.40236      197.40236      197.40236      78.737722    
     27000   698.54428     -7173167.6      197.41284      197.41284      197.41284     -105.02729    
     28000   699.93533     -7173107.1      197.40868      197.40868      197.40868     -108.5925     
     29000   699.8327      -7173111.2      197.42212      197.42212      197.42212     -414.53767    
     30000   698.65741     -7173263.9      197.40929      197.40929      197.40929      35.028122    
     31000   699.90913     -7173015.3      197.40678      197.40678      197.40678      135.85978    
     32000   700.84594     -7173009.9      197.4083       197.4083       197.4083       76.755976    
     33000   700.56218     -7173047.6      197.41766      197.41766      197.41766     -127.32233    
     34000   700.3222      -7173116.9      197.40761      197.40761      197.40761      68.179159    
     35000   698.73767     -7173202.4      197.42611      197.42611      197.42611     -265.29229    
     36000   701.14102     -7173133.2      197.39108      197.39108      197.39108      306.71363    
     37000   699.56369     -7173241.9      197.41104      197.41104      197.41104     -51.258631    
     38000   698.49944     -7173336.6      197.4163       197.4163       197.4163      -194.46564    
     39000   698.41833     -7173336.2      197.40118      197.40118      197.40118      79.950767    
     40000   700.28982     -7173171.9      197.39896      197.39896      197.39896      47.937115    
     41000   701.4115      -7173158        197.40134      197.40134      197.40134      92.680193    
     42000   700.38069     -7173067.8      197.41238      197.41238      197.41238     -10.468703    
     43000   699.50237     -7173162        197.40512      197.40512      197.40512      136.9695     
     44000   700.11962     -7173175.2      197.41192      197.41192      197.41192     -113.37652    
     45000   699.46719     -7173303.9      197.40213      197.40213      197.40213      3.2378863    
     46000   700.29114     -7173185.4      197.41018      197.41018      197.41018     -84.466845    
     47000   699.21681     -7173415.7      197.40435      197.40435      197.40435      25.316147    
     48000   699.27893     -7173320.2      197.40613      197.40613      197.40613     -21.613598    
     49000   698.21741     -7173263.3      197.4245       197.4245       197.4245      -182.80252    
     50000   701.00356     -7173221.4      197.39708      197.39708      197.39708      116.21373    
     51000   699.58524     -7173309.7      197.40393      197.40393      197.40393     -5.3306195    
     52000   700.91605     -7173059.2      197.39763      197.39763      197.39763      118.50937    
     53000   700.3187      -7173345.3      197.40648      197.40648      197.40648     -56.608085    
     54000   699.53486     -7173290        197.40485      197.40485      197.40485      46.505075    
     55000   701.23414     -7173008.5      197.40902      197.40902      197.40902     -139.49681    
     56000   701.18517     -7173092        197.40082      197.40082      197.40082      16.35835     
     57000   700.33568     -7173266.7      197.39954      197.39954      197.39954     -105.2837     
     58000   698.80118     -7173377        197.39993      197.39993      197.39993     -43.818363    
     59000   700.61259     -7173160.4      197.40983      197.40983      197.40983     -98.250192    
     60000   698.71971     -7173380.4      197.40321      197.40321      197.40321     -116.50879    
     61000   700.14561     -7173186.8      197.38925      197.38925      197.38925      208.13373    
     62000   700.43242     -7173138.1      197.40723      197.40723      197.40723     -89.422652    
     63000   700.59316     -7173017.8      197.40251      197.40251      197.40251      49.087227    
     64000   700.72816     -7173205.1      197.39725      197.39725      197.39725      146.679      
     65000   698.37575     -7173339.5      197.39708      197.39708      197.39708      24.774378    
     66000   699.79603     -7173281.3      197.37979      197.37979      197.37979      345.41893    
     67000   699.16885     -7173391.2      197.38986      197.38986      197.38986     -13.934954    
     68000   700.12397     -7173349.9      197.39156      197.39156      197.39156      192.81493    
     69000   701.48174     -7173154.3      197.39635      197.39635      197.39635     -138.28259    
     70000   700.3161      -7173310.5      197.40144      197.40144      197.40144     -222.52111    
     71000   699.16791     -7173287.2      197.39551      197.39551      197.39551      57.910814    
     72000   700.63259     -7173214.1      197.4124       197.4124       197.4124      -170.94932    
     73000   701.12143     -7173184        197.41185      197.41185      197.41185     -206.41778    
     74000   701.07428     -7173222.6      197.39242      197.39242      197.39242      12.231813    
     75000   700.51181     -7173313.1      197.39249      197.39249      197.39249     -15.229698    
     76000   700.434       -7173280.7      197.4041       197.4041       197.4041      -52.867251    
     77000   699.66153     -7173285.2      197.40084      197.40084      197.40084      15.525206    
     78000   699.47634     -7173379.5      197.39649      197.39649      197.39649      44.559396    
     79000   700.57131     -7173400.8      197.39049      197.39049      197.39049      225.95541    
     80000   699.81302     -7173380.6      197.40471      197.40471      197.40471     -11.510372    
     81000   699.70208     -7173325.7      197.39734      197.39734      197.39734      52.544313    
     82000   699.36542     -7173340.8      197.40183      197.40183      197.40183     -177.89348    
     83000   698.78986     -7173499.3      197.39464      197.39464      197.39464     -36.746631    
     84000   700.62376     -7173263.6      197.4025       197.4025       197.4025      -73.886508    
     85000   699.63927     -7173342.9      197.40052      197.40052      197.40052     -102.28562    
     86000   700.08094     -7173353.2      197.3866       197.3866       197.3866       107.14301    
     87000   700.96957     -7173260.8      197.40896      197.40896      197.40896     -105.50567    
     88000   700.99977     -7173183.1      197.4043       197.4043       197.4043      -103.72663    
     89000   700.38349     -7173192.3      197.382        197.382        197.382        191.71198    
     90000   699.76926     -7173349.6      197.39317      197.39317      197.39317     -131.41122    
     91000   700.36353     -7173298.1      197.38972      197.38972      197.38972      122.18908    
     92000   699.61865     -7173430.4      197.39877      197.39877      197.39877     -114.32978    
     93000   699.72192     -7173372.9      197.40079      197.40079      197.40079     -19.552969    
     94000   700.49956     -7173375.2      197.39253      197.39253      197.39253      51.579418    
     95000   698.45765     -7173565.7      197.39123      197.39123      197.39123     -216.46002    
     96000   701.20956     -7173244        197.39161      197.39161      197.39161      126.90487    
     97000   700.17148     -7173403.1      197.40599      197.40599      197.40599     -270.9394     
     98000   697.55257     -7173608.2      197.39133      197.39133      197.39133     -76.219238    
     99000   699.77001     -7173368.4      197.40214      197.40214      197.40214     -39.202938    
    100000   699.258       -7173452.8      197.3871       197.3871       197.3871       45.722721    
    101000   700.13865     -7173361.2      197.39921      197.39921      197.39921     -193.50012    
    102000   699.61553     -7173374.2      197.39743      197.39743      197.39743      53.082337    
    103000   698.38265     -7173495.5      197.3957       197.3957       197.3957       20.07839     
    104000   700.04296     -7173325.5      197.40156      197.40156      197.40156      124.36835    
    105000   698.97052     -7173511.2      197.40238      197.40238      197.40238     -89.408885    
    106000   701.05416     -7173251.4      197.40578      197.40578      197.40578     -52.930043    
    107000   699.95915     -7173368        197.38787      197.38787      197.38787     -16.667129    
    108000   700.40526     -7173433.7      197.37114      197.37114      197.37114      315.83815    
    109000   699.52347     -7173437.6      197.39146      197.39146      197.39146     -19.099555    
    110000   698.82658     -7173595.2      197.36673      197.36673      197.36673      364.06146    
    111000   699.10829     -7173567.5      197.39677      197.39677      197.39677     -55.354222    
    112000   700.59957     -7173312.7      197.39392      197.39392      197.39392     -15.096682    
    113000   700.36001     -7173400.6      197.38912      197.38912      197.38912     -58.37452     
    114000   700.2811      -7173490.4      197.39076      197.39076      197.39076      91.542012    
    115000   701.27523     -7173324.5      197.37718      197.37718      197.37718      260.33918    
    116000   700.19698     -7173493.1      197.37741      197.37741      197.37741      175.35285    
    117000   701.05108     -7173415.4      197.38892      197.38892      197.38892     -62.565102    
    118000   699.84783     -7173532.3      197.38153      197.38153      197.38153      217.43303    
    119000   700.52509     -7173402.6      197.39078      197.39078      197.39078      51.719723    
    120000   698.76278     -7173516.6      197.39363      197.39363      197.39363      31.328902    
    121000   697.95808     -7173624        197.39505      197.39505      197.39505     -22.008943    
    122000   699.97851     -7173368        197.40492      197.40492      197.40492     -208.2259     
    123000   699.60405     -7173342.4      197.40132      197.40132      197.40132     -7.8478983    
    124000   700.73368     -7173292.9      197.40297      197.40297      197.40297     -92.839808    
    125000   701.15732     -7173318.7      197.40438      197.40438      197.40438     -281.13991    
    126000   700.17121     -7173460.8      197.38254      197.38254      197.38254      140.79292    
    127000   700.40448     -7173500.8      197.38858      197.38858      197.38858     -70.876693    
    128000   700.35064     -7173468.5      197.3896       197.3896       197.3896      -21.841098    
    129000   700.27828     -7173333.3      197.39609      197.39609      197.39609     -8.364195     
    130000   699.88785     -7173620.6      197.39329      197.39329      197.39329     -51.199208    
    131000   701.48332     -7173325        197.38524      197.38524      197.38524      170.32104    
    132000   700.02239     -7173562.4      197.38876      197.38876      197.38876     -133.87784    
    133000   699.9213      -7173498.4      197.39192      197.39192      197.39192     -71.093769    
    134000   700.59383     -7173335.7      197.40243      197.40243      197.40243     -112.43536    
    135000   700.14439     -7173356.5      197.39061      197.39061      197.39061      2.5537538    
    136000   699.3437      -7173596.4      197.38577      197.38577      197.38577      93.172183    
    137000   699.56431     -7173483.2      197.36298      197.36298      197.36298      511.77942    
    138000   698.66322     -7173474.2      197.37658      197.37658      197.37658      168.12355    
    139000   700.25061     -7173398.4      197.3893       197.3893       197.3893      -136.41366    
    140000   700.02682     -7173488.9      197.39063      197.39063      197.39063      24.966665    
    141000   698.41363     -7173660.4      197.38361      197.38361      197.38361      71.824626    
    142000   700.84558     -7173341.8      197.38431      197.38431      197.38431      78.499975    
    143000   699.58474     -7173558.9      197.38736      197.38736      197.38736      32.385048    
    144000   700.21279     -7173496        197.38382      197.38382      197.38382      129.69981    
    145000   700.83781     -7173472.4      197.39848      197.39848      197.39848     -121.69999    
    146000   699.45008     -7173414.2      197.37713      197.37713      197.37713      282.32891    
    147000   700.97382     -7173419.3      197.38417      197.38417      197.38417     -51.46994     
    148000   699.43232     -7173456.4      197.395        197.395        197.395       -38.870486    
    149000   699.39218     -7173403.5      197.3978       197.3978       197.3978      -102.21111    
    150000   699.59132     -7173400.7      197.39574      197.39574      197.39574      95.748397    
    151000   699.64534     -7173468.5      197.38395      197.38395      197.38395      60.02684     
    152000   699.2927      -7173494.2      197.38662      197.38662      197.38662      28.59839     
    153000   700.22574     -7173537.8      197.39086      197.39086      197.39086     -123.35253    
    154000   699.14218     -7173537.4      197.38408      197.38408      197.38408      7.6629421    
    155000   698.64385     -7173541.7      197.38043      197.38043      197.38043      61.02693     
    156000   700.22295     -7173516.5      197.40513      197.40513      197.40513     -306.29677    
    157000   701.47647     -7173335.7      197.38498      197.38498      197.38498      32.998345    
    158000   698.65871     -7173667.3      197.38457      197.38457      197.38457     -77.850579    
    159000   700.25436     -7173471.5      197.39096      197.39096      197.39096     -65.26967     
    160000   700.05396     -7173389.9      197.37476      197.37476      197.37476      231.48725    
    161000   700.61223     -7173477.2      197.37374      197.37374      197.37374      67.393674    
    162000   698.62403     -7173566        197.39155      197.39155      197.39155     -107.87531    
    163000   700.03796     -7173524.3      197.38023      197.38023      197.38023     -28.392595    
    164000   700.54425     -7173493.7      197.37721      197.37721      197.37721      72.374568    
    165000   700.08413     -7173480.3      197.39482      197.39482      197.39482     -80.770581    
    166000   701.00628     -7173445        197.38048      197.38048      197.38048      29.421228    
    167000   700.43575     -7173439.3      197.37051      197.37051      197.37051      113.1868     
    168000   700.62812     -7173508        197.37983      197.37983      197.37983      112.1846     
    169000   699.23019     -7173545.2      197.3826       197.3826       197.3826       8.1123981    
    170000   699.8246      -7173566.1      197.37086      197.37086      197.37086      198.58119    
    171000   699.06286     -7173629.9      197.39597      197.39597      197.39597     -113.32763    
    172000   698.96419     -7173736        197.37325      197.37325      197.37325      93.209057    
    173000   699.42008     -7173541.1      197.38472      197.38472      197.38472      92.478799    
    174000   700.47754     -7173550.1      197.37059      197.37059      197.37059      93.713596    
    175000   699.48616     -7173620.5      197.36533      197.36533      197.36533      192.51426    
    176000   699.79415     -7173622.3      197.37772      197.37772      197.37772      98.034064    
    177000   700.01089     -7173530.9      197.38072      197.38072      197.38072     -42.772657    
    178000   699.60222     -7173586.8      197.37304      197.37304      197.37304      67.33271     
    179000   700.86999     -7173437        197.39315      197.39315      197.39315     -106.79081    
    180000   699.11764     -7173642.1      197.38045      197.38045      197.38045     -51.966674    
    181000   700.36454     -7173581.4      197.379        197.379        197.379       -124.40687    
    182000   700.82676     -7173455.3      197.38015      197.38015      197.38015     -34.019292    
    183000   699.42162     -7173511.7      197.38836      197.38836      197.38836      27.146526    
    184000   698.79099     -7173656.2      197.36878      197.36878      197.36878      178.87327    
    185000   699.45122     -7173570.3      197.38719      197.38719      197.38719     -163.9386     
    186000   700.89746     -7173490.3      197.39105      197.39105      197.39105     -138.12468    
    187000   700.73339     -7173566        197.37119      197.37119      197.37119      96.574779    
    188000   700.04483     -7173559.9      197.37539      197.37539      197.37539      79.857621    
    189000   699.55466     -7173650.1      197.35273      197.35273      197.35273      326.1782     
    190000   700.44914     -7173575.8      197.37599      197.37599      197.37599      41.616172    
    191000   700.60065     -7173414        197.39034      197.39034      197.39034     -198.43964    
    192000   700.53175     -7173591.4      197.37834      197.37834      197.37834      92.058602    
    193000   699.94583     -7173558.3      197.38759      197.38759      197.38759     -140.45071    
    194000   700.55519     -7173496.2      197.36595      197.36595      197.36595      222.01823    
    195000   699.88137     -7173620        197.38051      197.38051      197.38051      45.800326    
    196000   700.8888      -7173443.9      197.37766      197.37766      197.37766     -49.266262    
    197000   700.56168     -7173493.4      197.38598      197.38598      197.38598      6.2356646    
    198000   701.31034     -7173434.7      197.37533      197.37533      197.37533      28.605075    
    199000   700.74059     -7173545.6      197.38974      197.38974      197.38974     -190.82379    
    200000   699.99336     -7173634.5      197.38081      197.38081      197.38081      8.6337775    
    201000   701.60115     -7173371.6      197.38084      197.38084      197.38084      106.23045    
    202000   699.34208     -7173568.1      197.38575      197.38575      197.38575      19.170397    
    203000   699.71577     -7173617.4      197.36589      197.36589      197.36589      180.63594    
    204000   700.52291     -7173543.8      197.37229      197.37229      197.37229      83.510735    
    205000   699.27809     -7173556.3      197.38375      197.38375      197.38375     -186.69735    
    206000   700.89502     -7173475.8      197.37605      197.37605      197.37605     -0.93765604   
    207000   700.27356     -7173576.7      197.38593      197.38593      197.38593     -96.003661    
    208000   699.35087     -7173676.7      197.39474      197.39474      197.39474     -276.95969    
    209000   700.28962     -7173502.4      197.38479      197.38479      197.38479     -2.6696187    
    210000   699.20206     -7173672.3      197.37832      197.37832      197.37832      115.98943    
    211000   700.05539     -7173621.4      197.3764       197.3764       197.3764       85.282761    
    212000   699.12518     -7173617        197.37839      197.37839      197.37839     -42.651745    
    213000   699.06646     -7173701.4      197.3829       197.3829       197.3829      -44.273426    
    214000   699.78903     -7173635.4      197.38408      197.38408      197.38408     -126.49776    
    215000   699.90946     -7173727.1      197.36362      197.36362      197.36362      131.48693    
    216000   700.29934     -7173617        197.3712       197.3712       197.3712       108.74806    
    217000   700.23999     -7173561.8      197.38332      197.38332      197.38332      0.71339409   
    218000   699.47386     -7173650        197.37158      197.37158      197.37158      93.152445    
    219000   700.57297     -7173543.8      197.39453      197.39453      197.39453     -146.99666    
    220000   700.62483     -7173436.5      197.3908       197.3908       197.3908      -65.128696    
    221000   700.4552      -7173473.3      197.3875       197.3875       197.3875       3.7508887    
    222000   699.66126     -7173625.7      197.36364      197.36364      197.36364      150.17384    
    223000   699.72108     -7173678.2      197.37951      197.37951      197.37951     -106.01834    
    224000   699.73107     -7173694.3      197.38281      197.38281      197.38281     -83.540961    
    225000   700.82        -7173560.6      197.36162      197.36162      197.36162      144.64365    
    226000   700.13477     -7173498.7      197.36281      197.36281      197.36281      315.01642    
    227000   698.73101     -7173703.5      197.38628      197.38628      197.38628      15.479949    
    228000   700.9995      -7173536.3      197.37337      197.37337      197.37337      157.41787    
    229000   699.91898     -7173621.2      197.37794      197.37794      197.37794      41.237638    
    230000   700.22901     -7173596.8      197.36636      197.36636      197.36636      185.68143    
    231000   699.34955     -7173719.9      197.37285      197.37285      197.37285      46.352741    
    232000   700.64348     -7173520.2      197.38033      197.38033      197.38033      149.66194    
    233000   700.00293     -7173639.6      197.37802      197.37802      197.37802     -1.0853455    
    234000   700.03484     -7173651.9      197.37041      197.37041      197.37041      65.55893     
    235000   699.45138     -7173668.4      197.3769       197.3769       197.3769       99.632234    
    236000   700.55552     -7173560.1      197.38612      197.38612      197.38612     -83.403224    
    237000   700.76131     -7173569        197.37977      197.37977      197.37977     -99.368103    
    238000   700.28182     -7173591.3      197.38105      197.38105      197.38105      68.093087    
    239000   701.14114     -7173501        197.38274      197.38274      197.38274     -23.990828    
    240000   700.46092     -7173501.5      197.3852       197.3852       197.3852      -90.490507    
    241000   698.62243     -7173756.8      197.38602      197.38602      197.38602     -72.833095    
    242000   700.60341     -7173569.3      197.36008      197.36008      197.36008      226.38384    
    243000   698.75223     -7173652.1      197.38367      197.38367      197.38367      12.433796    
    244000   700.27167     -7173618.7      197.37887      197.37887      197.37887     -243.28008    
    245000   699.70646     -7173652.7      197.38836      197.38836      197.38836     -45.265974    
    246000   699.69345     -7173667.9      197.37321      197.37321      197.37321      76.331309    
    247000   698.70841     -7173724.3      197.37114      197.37114      197.37114      120.65314    
    248000   699.22601     -7173646        197.39502      197.39502      197.39502     -124.93744    
    249000   699.86544     -7173538.2      197.38627      197.38627      197.38627     -23.747937    
    250000   700.43378     -7173598.8      197.38101      197.38101      197.38101      57.550144    
    251000   699.29617     -7173547.2      197.37059      197.37059      197.37059      177.57852    
    252000   698.63471     -7173925        197.37088      197.37088      197.37088      126.71924    
    253000   701.54812     -7173534.4      197.3768       197.3768       197.3768       120.77382    
    254000   699.28155     -7173651.4      197.37958      197.37958      197.37958      77.798998    
    255000   701.17554     -7173709.2      197.36695      197.36695      197.36695      224.36288    
    256000   700.92178     -7173597.1      197.37834      197.37834      197.37834      69.882213    
    257000   699.55058     -7173702.2      197.37747      197.37747      197.37747      24.961062    
    258000   699.12618     -7173684.8      197.3805       197.3805       197.3805       95.159316    
    259000   699.19116     -7173769        197.38165      197.38165      197.38165     -111.94803    
    260000   700.96668     -7173677.7      197.38252      197.38252      197.38252     -173.77657    
    261000   698.99473     -7173780.5      197.38602      197.38602      197.38602     -65.408181    
    262000   699.64995     -7173665.5      197.38455      197.38455      197.38455     -127.38062    
    263000   699.94716     -7173673.6      197.38678      197.38678      197.38678      28.609724    
    264000   700.87147     -7173549.6      197.37871      197.37871      197.37871      101.2164     
    265000   699.82382     -7173587.9      197.38728      197.38728      197.38728     -48.326431    
    266000   700.43838     -7173561.9      197.36811      197.36811      197.36811      181.39956    
    267000   699.914       -7173503.1      197.38438      197.38438      197.38438     -37.992685    
    268000   701.08511     -7173620.3      197.37247      197.37247      197.37247      28.021486    
    269000   699.6399      -7173700.3      197.36958      197.36958      197.36958      176.28678    
    270000   701.13133     -7173487.6      197.38525      197.38525      197.38525     -29.942148    
    271000   700.54134     -7173530.1      197.37578      197.37578      197.37578      23.882247    
    272000   698.76764     -7173753.7      197.37416      197.37416      197.37416      47.242844    
    273000   699.02362     -7173857.8      197.3796       197.3796       197.3796      -20.207428    
    274000   699.23566     -7173680.1      197.38864      197.38864      197.38864     -198.09956    
    275000   700.17191     -7173662.8      197.38609      197.38609      197.38609     -145.5446     
    276000   699.91384     -7173654.5      197.37269      197.37269      197.37269      75.670996    
    277000   700.99224     -7173549.9      197.38324      197.38324      197.38324     -12.117411    
    278000   699.85002     -7173615.2      197.38536      197.38536      197.38536     -79.57149     
    279000   699.69287     -7173588.9      197.37965      197.37965      197.37965      123.70995    
    280000   701.41689     -7173541.2      197.37804      197.37804      197.37804      26.408256    
    281000   701.17344     -7173576.8      197.38292      197.38292      197.38292      105.44511    
    282000   699.211       -7173766.9      197.37421      197.37421      197.37421     -38.4828      
    283000   699.22698     -7173628.4      197.37983      197.37983      197.37983      111.76967    
    284000   700.2136      -7173742.5      197.38429      197.38429      197.38429     -28.65007     
    285000   700.84636     -7173709.4      197.39769      197.39769      197.39769     -256.912      
    286000   699.60825     -7173632.3      197.39337      197.39337      197.39337     -173.47191    
    287000   699.59473     -7173782.3      197.37899      197.37899      197.37899     -75.439971    
    288000   700.16232     -7173631.8      197.38266      197.38266      197.38266     -69.460545    
    289000   700.22421     -7173648.2      197.37385      197.37385      197.37385      63.962824    
    290000   699.49449     -7173900.9      197.35592      197.35592      197.35592      129.00613    
    291000   701.19366     -7173637.4      197.37195      197.37195      197.37195      172.16419    
    292000   699.92767     -7173653.1      197.38094      197.38094      197.38094     -20.782558    
    293000   700.39847     -7173530.6      197.38369      197.38369      197.38369      33.859336    
    294000   699.68337     -7173694.5      197.36886      197.36886      197.36886      327.85081    
    295000   698.81175     -7173657.5      197.3836       197.3836       197.3836       124.37524    
    296000   700.25756     -7173675.5      197.3903       197.3903       197.3903      -178.96233    
    297000   701.24332     -7173538.1      197.37974      197.37974      197.37974      82.291673    
    298000   699.41688     -7173799.5      197.36408      197.36408      197.36408      207.89672    
    299000   699.09073     -7173850.7      197.37575      197.37575      197.37575     -39.474769    
    300000   700.52592     -7173628.8      197.38594      197.38594      197.38594     -12.777788    
    301000   698.67256     -7173716.2      197.38145      197.38145      197.38145     -1.4576366    
    302000   700.91538     -7173669.6      197.38404      197.38404      197.38404     -124.79657    
    303000   700.15205     -7173775.4      197.37546      197.37546      197.37546      41.205207    
    304000   699.50177     -7173784.5      197.37942      197.37942      197.37942     -49.637483    
    305000   700.47832     -7173647.9      197.38399      197.38399      197.38399     -19.33064     
    306000   701.20377     -7173674.6      197.3732       197.3732       197.3732       179.61744    
    307000   700.5674      -7173609.2      197.36487      197.36487      197.36487      144.05425    
    308000   698.86006     -7173710.2      197.38042      197.38042      197.38042      63.389885    
    309000   701.02798     -7173542.3      197.37581      197.37581      197.37581     -2.3418758    
    310000   700.87793     -7173704.5      197.36388      197.36388      197.36388      95.74805     
    311000   699.701       -7173759.6      197.37728      197.37728      197.37728      71.580955    
    312000   701.06971     -7173660.9      197.37195      197.37195      197.37195      219.71447    
    313000   700.1806      -7173772.4      197.37596      197.37596      197.37596     -126.43212    
    314000   699.57641     -7173684.3      197.37541      197.37541      197.37541      24.143902    
    315000   698.8507      -7173802.3      197.37744      197.37744      197.37744     -77.54138     
    316000   700.53491     -7173784.9      197.36925      197.36925      197.36925      36.0987      
    317000   699.89344     -7173691        197.36113      197.36113      197.36113      170.88061    
    318000   699.77531     -7173738.7      197.37604      197.37604      197.37604     -81.395227    
    319000   698.58798     -7173782.9      197.37384      197.37384      197.37384      101.67967    
    320000   700.39772     -7173582.4      197.39367      197.39367      197.39367     -295.63217    
    321000   700.10499     -7173642.6      197.3723       197.3723       197.3723       68.944056    
    322000   699.92476     -7173680.1      197.37145      197.37145      197.37145      27.66484     
    323000   699.66132     -7173762.4      197.36864      197.36864      197.36864      81.392865    
    324000   700.43906     -7173777.4      197.37699      197.37699      197.37699     -106.82363    
    325000   700.08562     -7173718        197.39109      197.39109      197.39109     -133.99644    
    326000   700.00851     -7173593.1      197.37838      197.37838      197.37838     -19.019165    
    327000   700.38451     -7173768.5      197.37872      197.37872      197.37872     -158.61631    
    328000   699.37993     -7173904.6      197.368        197.368        197.368        35.894637    
    329000   699.53347     -7173799.7      197.37922      197.37922      197.37922     -33.4227      
    330000   701.41938     -7173613.3      197.37139      197.37139      197.37139      142.38745    
    331000   700.42343     -7173607.8      197.3888       197.3888       197.3888      -143.01583    
    332000   699.64522     -7173740.1      197.3774       197.3774       197.3774      -111.73218    
    333000   700.648       -7173570.8      197.38381      197.38381      197.38381     -82.641852    
    334000   700.37128     -7173702.3      197.37274      197.37274      197.37274      88.566868    
    335000   700.52815     -7173509        197.37659      197.37659      197.37659      113.18812    
    336000   699.14506     -7173905.8      197.36497      197.36497      197.36497      60.345484    
    337000   699.4484      -7173683.1      197.39106      197.39106      197.39106     -237.76695    
    338000   700.38799     -7173741        197.37857      197.37857      197.37857     -16.775657    
    339000   701.3847      -7173580.2      197.36595      197.36595      197.36595      199.53642    
    340000   699.671       -7173706.8      197.38391      197.38391      197.38391     -70.831971    
    341000   700.4021      -7173831.5      197.35922      197.35922      197.35922      169.55158    
    342000   701.35491     -7173664.6      197.38419      197.38419      197.38419     -132.01087    
    343000   700.11007     -7173711.2      197.37669      197.37669      197.37669     -96.360588    
    344000   700.36375     -7173570.8      197.39044      197.39044      197.39044     -182.52503    
    345000   699.94054     -7173836.2      197.38355      197.38355      197.38355     -212.08606    
    346000   700.34327     -7173670.3      197.37874      197.37874      197.37874     -38.070477    
    347000   700.19967     -7173631.4      197.36961      197.36961      197.36961      25.960579    
    348000   700.32709     -7173796.1      197.35422      197.35422      197.35422      182.55918    
    349000   699.62        -7173774.6      197.37482      197.37482      197.37482      131.27938    
    350000   700.65574     -7173640.8      197.36302      197.36302      197.36302      108.21472    
    351000   700.13111     -7173612.7      197.3795       197.3795       197.3795       40.202913    
    352000   697.68898     -7173958.8      197.3691       197.3691       197.3691      -29.324038    
    353000   700.32442     -7173702.3      197.36603      197.36603      197.36603      134.26791    
    354000   700.75964     -7173578        197.37714      197.37714      197.37714      25.716769    
    355000   699.6521      -7173799        197.3826       197.3826       197.3826      -14.000208    
    356000   699.26629     -7173738.1      197.37425      197.37425      197.37425      43.406076    
    357000   698.98623     -7173957.1      197.36412      197.36412      197.36412      233.92001    
    358000   699.45941     -7173796.5      197.3738       197.3738       197.3738       100.98841    
    359000   700.68677     -7173726.3      197.36267      197.36267      197.36267      148.26319    
    360000   699.96255     -7173733.2      197.37324      197.37324      197.37324      56.326276    
    361000   701.66629     -7173722.1      197.36012      197.36012      197.36012      146.92305    
    362000   699.584       -7173766.1      197.36851      197.36851      197.36851      70.458197    
    363000   699.87404     -7173652.9      197.37291      197.37291      197.37291     -53.331797    
    364000   699.43355     -7173772.4      197.37937      197.37937      197.37937     -27.33506     
    365000   698.69535     -7173853.5      197.36936      197.36936      197.36936      91.581231    
    366000   700.77358     -7173686.4      197.36106      197.36106      197.36106     -4.8423521    
    367000   699.77734     -7173804.9      197.36511      197.36511      197.36511      74.45781     
    368000   700.74427     -7173823.7      197.3531       197.3531       197.3531       295.60374    
    369000   700.04285     -7173727.9      197.37713      197.37713      197.37713     -45.078492    
    370000   699.97858     -7173813.9      197.3697       197.3697       197.3697      -18.818476    
    371000   699.90111     -7173784.6      197.36771      197.36771      197.36771     -10.358525    
    372000   700.7886      -7173581.1      197.39109      197.39109      197.39109     -220.5244     
    373000   699.613       -7173809        197.38322      197.38322      197.38322     -103.10564    
    374000   699.57515     -7173737.9      197.3712       197.3712       197.3712       21.478638    
    375000   700.418       -7173670.5      197.37374      197.37374      197.37374      93.420243    
    376000   698.91426     -7173807.7      197.38897      197.38897      197.38897     -252.37166    
    377000   699.83154     -7173864.3      197.37686      197.37686      197.37686     -24.825833    
    378000   700.63495     -7173648        197.37699      197.37699      197.37699     -59.507873    
    379000   700.6591      -7173704        197.36593      197.36593      197.36593      273.40315    
    380000   699.19142     -7173730.2      197.3823       197.3823       197.3823      -156.32299    
    381000   699.19404     -7173736.4      197.37551      197.37551      197.37551     -128.26915    
    382000   700.23907     -7173685.3      197.38388      197.38388      197.38388     -193.87673    
    383000   700.1068      -7173744.4      197.3768       197.3768       197.3768      -109.36266    
    384000   699.6819      -7173728.1      197.37754      197.37754      197.37754      16.834414    
    385000   699.58614     -7173821.2      197.36383      197.36383      197.36383      150.95565    
    386000   700.62357     -7173714.1      197.37384      197.37384      197.37384      45.080078    
    387000   700.83714     -7173683.7      197.37992      197.37992      197.37992     -136.56111    
    388000   700.4819      -7173774.9      197.3782       197.3782       197.3782      -61.626546    
    389000   700.0056      -7173791.3      197.36834      197.36834      197.36834      98.879131    
    390000   700.50715     -7173711.9      197.37137      197.37137      197.37137      175.16599    
    391000   699.98948     -7173662.9      197.38342      197.38342      197.38342     -50.770179    
    392000   700.24741     -7173700        197.37628      197.37628      197.37628     -143.6474     
    393000   700.86504     -7173728.6      197.36543      197.36543      197.36543      74.616318    
    394000   698.31632     -7173853.6      197.37997      197.37997      197.37997     -176.68594    
    395000   699.36773     -7173912.8      197.37606      197.37606      197.37606      37.312214    
    396000   698.73619     -7173806.8      197.3764       197.3764       197.3764      -40.037403    
    397000   699.62214     -7173777.2      197.38228      197.38228      197.38228      30.359577    
    398000   698.4713      -7173872.4      197.37961      197.37961      197.37961     -25.832347    
    399000   700.54925     -7173723.6      197.37386      197.37386      197.37386      127.45208    
    400000   700.72252     -7173734        197.3742       197.3742       197.3742       43.664571    
    401000   699.54684     -7173767.3      197.35287      197.35287      197.35287      340.11139    
    402000   700.80871     -7173673.4      197.37837      197.37837      197.37837      51.631462    
    403000   699.98926     -7173803        197.37779      197.37779      197.37779     -55.767614    
    404000   699.55091     -7173816.5      197.37121      197.37121      197.37121     -1.2595731    
    405000   699.16345     -7173951.8      197.36972      197.36972      197.36972      64.636553    
    406000   700.01872     -7173704.7      197.37247      197.37247      197.37247     -60.238618    
    407000   700.77063     -7173765        197.37395      197.37395      197.37395      33.757703    
    408000   700.50145     -7173817.3      197.36447      197.36447      197.36447      11.877046    
    409000   699.72661     -7173857.4      197.36866      197.36866      197.36866     -150.27255    
    410000   699.36356     -7173767.4      197.35875      197.35875      197.35875      197.17499    
    411000   701.62394     -7173646.2      197.3758       197.3758       197.3758      -123.50176    
    412000   700.93271     -7173687.9      197.37535      197.37535      197.37535     -53.261634    
    413000   700.25022     -7173644.7      197.37349      197.37349      197.37349      34.456281    
    414000   701.05278     -7173653.4      197.37581      197.37581      197.37581      27.710881    
    415000   700.61483     -7173848.7      197.3691       197.3691       197.3691       147.58155    
    416000   700.07036     -7173816.7      197.36929      197.36929      197.36929      30.88886     
    417000   700.37245     -7173676        197.37604      197.37604      197.37604     -104.57679    
    418000   700.24384     -7173739.1      197.37517      197.37517      197.37517      74.007836    
    419000   699.57351     -7173708.3      197.37208      197.37208      197.37208      194.50607    
    420000   699.99794     -7173815.8      197.36896      197.36896      197.36896     -63.090455    
    421000   699.80897     -7173888.4      197.36024      197.36024      197.36024      81.448586    
    422000   699.90593     -7173769.5      197.37061      197.37061      197.37061      48.497529    
    423000   700.98398     -7173694.4      197.37206      197.37206      197.37206      165.205      
    424000   700.75805     -7173693.7      197.37609      197.37609      197.37609      1.5134763    
    425000   699.44055     -7173761.5      197.37652      197.37652      197.37652     -12.142118    
    426000   700.64588     -7173779.6      197.37305      197.37305      197.37305      17.539816    
    427000   700.43024     -7173673.2      197.38065      197.38065      197.38065     -164.17012    
    428000   699.5076      -7173787.3      197.37532      197.37532      197.37532     -49.712364    
    429000   701.62936     -7173683.2      197.35139      197.35139      197.35139      313.98967    
    430000   701.18526     -7173755.5      197.37044      197.37044      197.37044      32.269595    
    431000   699.98221     -7173782.9      197.3735       197.3735       197.3735       61.335881    
    432000   699.80175     -7173740.8      197.38363      197.38363      197.38363     -79.541044    
    433000   700.85861     -7173748.6      197.35893      197.35893      197.35893      207.42518    
    434000   701.06978     -7173628.6      197.37933      197.37933      197.37933      14.696811    
    435000   700.21773     -7173730.5      197.37321      197.37321      197.37321      55.019814    
    436000   699.50208     -7173903.7      197.36633      197.36633      197.36633      164.91576    
    437000   699.48545     -7173835.2      197.36747      197.36747      197.36747      191.41996    
    438000   700.05164     -7173749.3      197.37386      197.37386      197.37386      36.180959    
    439000   700.36155     -7173982.4      197.36369      197.36369      197.36369      58.130888    
    440000   699.60542     -7173714.4      197.3855       197.3855       197.3855      -136.14757    
    441000   699.52635     -7173853.5      197.37225      197.37225      197.37225     -37.654056    
    442000   698.64115     -7173917.9      197.37694      197.37694      197.37694     -114.27979    
    443000   700.47119     -7173706        197.36553      197.36553      197.36553     -43.644434    
    444000   700.15216     -7173831.3      197.36724      197.36724      197.36724      17.536605    
    445000   699.30962     -7173853.9      197.37315      197.37315      197.37315      20.565097    
    446000   699.08781     -7173730        197.37061      197.37061      197.37061      28.582846    
    447000   700.26226     -7173783.1      197.38588      197.38588      197.38588     -99.816449    
    448000   700.0075      -7173766.7      197.37207      197.37207      197.37207      50.917765    
    449000   699.99091     -7173865.9      197.36025      197.36025      197.36025      140.15684    
    450000   700.3804      -7173812.6      197.37248      197.37248      197.37248      38.862849    
    451000   700.27752     -7173795        197.37963      197.37963      197.37963     -25.574903    
    452000   701.1077      -7173778.9      197.36343      197.36343      197.36343      37.928135    
    453000   699.33192     -7173904.9      197.37543      197.37543      197.37543      59.904666    
    454000   700.2596      -7173815.7      197.37368      197.37368      197.37368     -5.633234     
    455000   698.98923     -7173846.9      197.36617      197.36617      197.36617     -61.29888     
    456000   699.66167     -7173890.5      197.37627      197.37627      197.37627     -165.50371    
    457000   700.36045     -7173685.3      197.37256      197.37256      197.37256      56.714691    
    458000   700.42307     -7173716.7      197.36031      197.36031      197.36031      28.535476    
    459000   699.35482     -7173849.3      197.35291      197.35291      197.35291      327.91645    
    460000   701.24563     -7173598.2      197.37677      197.37677      197.37677      116.43056    
    461000   699.78005     -7173838        197.36857      197.36857      197.36857      57.844077    
    462000   701.09635     -7173890.8      197.37584      197.37584      197.37584     -109.3808     
    463000   700.41789     -7173871        197.37185      197.37185      197.37185     -132.00038    
    464000   700.31356     -7173810.7      197.36877      197.36877      197.36877      68.207237    
    465000   700.43462     -7173762.2      197.38416      197.38416      197.38416     -124.20351    
    466000   699.85817     -7173804.8      197.37863      197.37863      197.37863      24.76674     
    467000   700.96788     -7173758.8      197.36578      197.36578      197.36578      26.455816    
    468000   699.98217     -7173774.7      197.3684       197.3684       197.3684       48.381162    
    469000   698.62193     -7174062.5      197.35325      197.35325      197.35325      63.84556     
    470000   700.40769     -7173834.1      197.36371      197.36371      197.36371      41.741914    
    471000   699.13891     -7173833.9      197.38161      197.38161      197.38161     -143.921      
    472000   700.6376      -7173751.3      197.37209      197.37209      197.37209      49.787049    
    473000   699.07921     -7173830        197.38102      197.38102      197.38102     -188.88433    
    474000   699.21053     -7173825.1      197.37236      197.37236      197.37236      54.244193    
    475000   699.82444     -7173801.2      197.36853      197.36853      197.36853      168.4436     
    476000   699.33585     -7173802.1      197.37768      197.37768      197.37768     -33.004131    
    477000   700.28398     -7173745.9      197.36597      197.36597      197.36597      107.94385    
    478000   699.41756     -7173974.4      197.35967      197.35967      197.35967      174.97346    
    479000   699.53329     -7173914.1      197.36723      197.36723      197.36723      17.46621     
    480000   699.80159     -7173915.9      197.36042      197.36042      197.36042      222.41455    
    481000   700.08552     -7173968.1      197.36121      197.36121      197.36121      152.19913    
    482000   699.29401     -7173893        197.37623      197.37623      197.37623     -152.07013    
    483000   700.72226     -7173772.5      197.37919      197.37919      197.37919     -101.14838    
    484000   700.16264     -7173770.8      197.38134      197.38134      197.38134     -249.92604    
    485000   701.2124      -7173737.6      197.36778      197.36778      197.36778      80.349525    
    486000   699.29242     -7173851.9      197.37254      197.37254      197.37254     -103.34108    
    487000   699.17541     -7173911.9      197.36236      197.36236      197.36236      21.787178    
    488000   700.29064     -7173801.6      197.36443      197.36443      197.36443      98.562336    
    489000   699.79078     -7173837.5      197.37044      197.37044      197.37044      6.8881322    
    490000   699.31137     -7173880.2      197.36445      197.36445      197.36445      85.492419    
    491000   700.79389     -7173730.8      197.37792      197.37792      197.37792      1.2916399    
    492000   700.25545     -7173793.1      197.38019      197.38019      197.38019     -50.199842    
    493000   699.89736     -7173889.2      197.36097      197.36097      197.36097      79.36888     
    494000   700.58962     -7173719.5      197.37388      197.37388      197.37388      93.85071     
    495000   698.59569     -7174011.5      197.37284      197.37284      197.37284     -219.31487    
    496000   700.33032     -7173900.5      197.36845      197.36845      197.36845      119.63103    
    497000   701.46179     -7173756.3      197.36472      197.36472      197.36472      200.4095     
    498000   699.41453     -7173832.2      197.36636      197.36636      197.36636      230.56451    
    499000   700.17478     -7173878.5      197.37173      197.37173      197.37173     -127.00535    
    500000   698.86795     -7173859.5      197.36819      197.36819      197.36819      73.031663    
Loop time of 44198.8 on 16384 procs for 500000 steps with 632628 atoms

Performance: 1.955 ns/day, 12.277 hours/ns, 11.313 timesteps/s, 7.157 Matom-step/s
90.1% CPU use with 128 MPI tasks x 128 OpenMP threads

MPI task timing breakdown:
Section |  min time  |  avg time  |  max time  |%varavg| %total
---------------------------------------------------------------
Pair    | 25892      | 27612      | 28435      | 310.3 | 62.47
Bond    | 0.10227    | 0.13351    | 0.21268    |   6.1 |  0.00
Kspace  | 7263.9     | 8161.6     | 10099      | 633.8 | 18.47
Neigh   | 3528.8     | 3723.9     | 3844.8     |  99.6 |  8.43
Comm    | 1119.2     | 1204.5     | 1297.2     | 139.9 |  2.73
Output  | 0.071836   | 0.075591   | 0.088344   |   0.7 |  0.00
Modify  | 1710.5     | 1987.9     | 3438.2     | 755.9 |  4.50
Other   |            | 1509       |            |       |  3.41

Nlocal:        4942.41 ave        5015 max        4797 min
Histogram: 1 3 1 4 16 25 15 23 28 12
Nghost:        15577.4 ave       15751 max       15362 min
Histogram: 3 4 9 14 19 27 19 13 11 9
Neighs:        1.3e+06 ave 1.35311e+06 max 1.21176e+06 min
Histogram: 1 3 2 9 17 26 23 18 21 8

Total # of neighbors = 1.6640013e+08
Ave neighs/atom = 263.02998
Ave special neighs/atom = 0
Neighbor list builds = 85848
Dangerous builds = 0
PPPM initialization ...
  using 12-bit tables for long-range coulomb (src/src/kspace.cpp:342)
  G vector (1/distance) = 0.27667963
  grid = 135 135 135
  stencil order = 5
  estimated absolute RMS force accuracy = 0.0018736266
  estimated relative force accuracy = 0.00013011616
  using double precision MKL FFT
  3d grid and FFT values/proc = 36800 36450
Generated 0 of 10 mixed pair_coeff terms from geometric mixing rule
Setting up Verlet run ...
  Unit style    : metal
  Current step  : 0
  Time step     : 0.002
Per MPI rank memory allocation (min/avg/max) = 298.8 | 299.2 | 300.9 Mbytes
   Step          Temp          TotEng           Lx             Ly             Lz           Press     
         0   698.86795     -7173859.5      197.36819      197.36819      197.36819      73.092452    
      1000   699.92712     -7173929.7      197.36819      197.36819      197.36819     -97.35446     
      2000   700.66286     -7173941.6      197.36819      197.36819      197.36819     -18.266337    
      3000   700.58073     -7173803.5      197.36819      197.36819      197.36819      75.14402     
      4000   700.69785     -7173797        197.36819      197.36819      197.36819      144.33444    
      5000   701.80868     -7173585.5      197.36819      197.36819      197.36819      106.11489    
      6000   699.20472     -7173896.7      197.36819      197.36819      197.36819      50.739469    
      7000   699.89709     -7173761.2      197.36819      197.36819      197.36819      33.210177    
      8000   700.5564      -7173842.5      197.36819      197.36819      197.36819      15.425357    
      9000   700.7313      -7173749        197.36819      197.36819      197.36819      131.64952    
     10000   699.50867     -7173895.2      197.36819      197.36819      197.36819     -11.080342    
     11000   700.23616     -7173799.6      197.36819      197.36819      197.36819      54.977865    
     12000   700.18777     -7173842.8      197.36819      197.36819      197.36819      83.8091      
     13000   698.79243     -7173891.8      197.36819      197.36819      197.36819      52.395104    
     14000   701.07268     -7173685.8      197.36819      197.36819      197.36819      63.468197    
     15000   699.2014      -7173901.5      197.36819      197.36819      197.36819      92.100994    
     16000   700.27968     -7173888.5      197.36819      197.36819      197.36819      27.186175    
     17000   699.26514     -7173859.1      197.36819      197.36819      197.36819      12.779717    
     18000   698.86969     -7173980.9      197.36819      197.36819      197.36819      83.848672    
     19000   698.69297     -7174161.5      197.36819      197.36819      197.36819     -102.74103    
     20000   700.8361      -7173727.8      197.36819      197.36819      197.36819      147.67478    
     21000   698.99635     -7174054.7      197.36819      197.36819      197.36819      9.5386815    
     22000   701.30142     -7173779.2      197.36819      197.36819      197.36819      80.863925    
     23000   700.69314     -7173759.6      197.36819      197.36819      197.36819      57.47675     
     24000   699.80347     -7173848.2      197.36819      197.36819      197.36819      75.096222    
     25000   698.86452     -7174021.5      197.36819      197.36819      197.36819      45.681913    
     26000   698.96242     -7173859        197.36819      197.36819      197.36819      63.677676    
     27000   698.77701     -7174016.8      197.36819      197.36819      197.36819      157.26648    
     28000   701.05021     -7173792.2      197.36819      197.36819      197.36819      89.208716    
     29000   701.2224      -7173732.7      197.36819      197.36819      197.36819      125.52463    
     30000   699.63608     -7173805.3      197.36819      197.36819      197.36819      19.102206    
     31000   701.2326      -7173729.9      197.36819      197.36819      197.36819      59.206257    
     32000   700.36643     -7173800.6      197.36819      197.36819      197.36819     -20.529236    
     33000   701.22484     -7173736.1      197.36819      197.36819      197.36819     -26.257258    
     34000   699.44013     -7173881.7      197.36819      197.36819      197.36819      58.170471    
     35000   700.33202     -7173806.2      197.36819      197.36819      197.36819      62.086653    
     36000   700.3861      -7173897.5      197.36819      197.36819      197.36819      119.77902    
     37000   700.7967      -7173834        197.36819      197.36819      197.36819     -24.998488    
     38000   700.81197     -7173751.8      197.36819      197.36819      197.36819     -31.417235    
     39000   699.5174      -7173880.9      197.36819      197.36819      197.36819     -82.843153    
     40000   700.19376     -7173892.9      197.36819      197.36819      197.36819      1.6396949    
     41000   701.65712     -7173703.9      197.36819      197.36819      197.36819      125.86426    
     42000   700.20243     -7173984.9      197.36819      197.36819      197.36819      49.502779    
     43000   699.61196     -7173926.6      197.36819      197.36819      197.36819      69.228286    
     44000   699.45461     -7173890.8      197.36819      197.36819      197.36819      134.20177    
     45000   699.63043     -7173866.8      197.36819      197.36819      197.36819     -41.134763    
     46000   700.23378     -7173772.7      197.36819      197.36819      197.36819      12.481401    
     47000   700.05207     -7173896.6      197.36819      197.36819      197.36819     -12.524114    
     48000   700.4328      -7173815.5      197.36819      197.36819      197.36819     -42.302688    
     49000   697.71088     -7174038        197.36819      197.36819      197.36819      85.319419    
     50000   699.48894     -7174007.1      197.36819      197.36819      197.36819     -57.269091    
     51000   700.8226      -7173710.2      197.36819      197.36819      197.36819      145.69518    
     52000   700.61107     -7173737.2      197.36819      197.36819      197.36819      65.250883    
     53000   701.85213     -7173765.3      197.36819      197.36819      197.36819      86.784711    
     54000   700.70521     -7173737        197.36819      197.36819      197.36819     -74.252331    
     55000   700.19702     -7173969.1      197.36819      197.36819      197.36819     -3.7957077    
     56000   698.80643     -7173884        197.36819      197.36819      197.36819      18.59927     
     57000   699.79556     -7173904        197.36819      197.36819      197.36819      134.95153    
     58000   699.6203      -7173799.2      197.36819      197.36819      197.36819      26.496681    
     59000   699.83618     -7173925.9      197.36819      197.36819      197.36819     -118.56423    
     60000   700.06061     -7173719.9      197.36819      197.36819      197.36819     -15.742831    
     61000   700.07791     -7173802.2      197.36819      197.36819      197.36819     -32.459518    
     62000   699.72935     -7173923.8      197.36819      197.36819      197.36819     -139.80187    
     63000   700.11685     -7173847.3      197.36819      197.36819      197.36819      60.307857    
     64000   699.50919     -7173993.7      197.36819      197.36819      197.36819     -1.5456825    
     65000   700.18651     -7173930.9      197.36819      197.36819      197.36819     -48.332964    
     66000   699.97383     -7173849.2      197.36819      197.36819      197.36819     -38.965125    
     67000   700.58031     -7173844.5      197.36819      197.36819      197.36819     -130.97662    
     68000   700.12125     -7173847.3      197.36819      197.36819      197.36819     -47.204064    
     69000   699.56409     -7173889.9      197.36819      197.36819      197.36819      51.449401    
     70000   699.97311     -7173918.2      197.36819      197.36819      197.36819     -12.964777    
     71000   700.26261     -7173805.4      197.36819      197.36819      197.36819      9.5122614    
     72000   701.29775     -7173739.9      197.36819      197.36819      197.36819      36.312841    
     73000   700.12254     -7173881.2      197.36819      197.36819      197.36819      151.61867    
     74000   699.69698     -7173824.8      197.36819      197.36819      197.36819      45.484765    
     75000   699.6644      -7173911.8      197.36819      197.36819      197.36819     -11.473803    
     76000   700.18764     -7173888.8      197.36819      197.36819      197.36819      42.826139    
     77000   700.35894     -7173821.5      197.36819      197.36819      197.36819      77.985255    
     78000   699.85525     -7173788.4      197.36819      197.36819      197.36819      42.010319    
     79000   700.38109     -7173762.6      197.36819      197.36819      197.36819     -144.44301    
     80000   699.56524     -7174000.8      197.36819      197.36819      197.36819     -135.99693    
     81000   699.98197     -7173880.4      197.36819      197.36819      197.36819      6.8905363    
     82000   699.419       -7173911.2      197.36819      197.36819      197.36819      7.008308     
     83000   700.45655     -7173863.7      197.36819      197.36819      197.36819      107.48382    
     84000   700.78161     -7173810.3      197.36819      197.36819      197.36819      16.409919    
     85000   698.92645     -7173957.4      197.36819      197.36819      197.36819      98.623612    
     86000   701.20277     -7173786.1      197.36819      197.36819      197.36819      44.745996    
     87000   701.30516     -7173816.4      197.36819      197.36819      197.36819     -17.707805    
     88000   700.05229     -7173867.3      197.36819      197.36819      197.36819      56.616131    
     89000   700.49086     -7173787.9      197.36819      197.36819      197.36819      29.361513    
     90000   699.31649     -7173912.2      197.36819      197.36819      197.36819      72.902372    
     91000   699.81833     -7173927.5      197.36819      197.36819      197.36819     -84.448181    
     92000   700.17316     -7173805.7      197.36819      197.36819      197.36819      32.736728    
     93000   700.41641     -7173740.2      197.36819      197.36819      197.36819     -63.60565     
     94000   698.71581     -7173967.9      197.36819      197.36819      197.36819     -163.65309    
     95000   700.93626     -7173635.6      197.36819      197.36819      197.36819      118.25125    
     96000   699.879       -7173882.3      197.36819      197.36819      197.36819     -95.488725    
     97000   701.10347     -7173703.1      197.36819      197.36819      197.36819     -102.70347    
     98000   701.27048     -7173789.1      197.36819      197.36819      197.36819     -172.42094    
     99000   700.05062     -7173828.7      197.36819      197.36819      197.36819      39.235908    
    100000   698.51033     -7174001.5      197.36819      197.36819      197.36819      33.570377    
    101000   699.3068      -7173948.6      197.36819      197.36819      197.36819      5.7398122    
    102000   699.971       -7173942.5      197.36819      197.36819      197.36819      25.228412    
    103000   699.57355     -7174040.3      197.36819      197.36819      197.36819      15.452971    
    104000   699.25662     -7173908.4      197.36819      197.36819      197.36819     -23.265609    
    105000   699.95741     -7173859.3      197.36819      197.36819      197.36819      118.05797    
    106000   699.94535     -7173818.7      197.36819      197.36819      197.36819     -2.6815969    
    107000   700.76574     -7173824.8      197.36819      197.36819      197.36819      42.239606    
    108000   699.01886     -7173961.3      197.36819      197.36819      197.36819     -23.992413    
    109000   699.76738     -7173915.5      197.36819      197.36819      197.36819      4.1713072    
    110000   699.30385     -7173891.3      197.36819      197.36819      197.36819     -48.998571    
    111000   700.78838     -7173767.2      197.36819      197.36819      197.36819     -106.79661    
    112000   700.03887     -7173872.9      197.36819      197.36819      197.36819      11.455189    
    113000   699.23466     -7173989.8      197.36819      197.36819      197.36819     -42.929273    
    114000   699.05248     -7173917.8      197.36819      197.36819      197.36819     -94.752352    
    115000   699.13711     -7173995.7      197.36819      197.36819      197.36819     -19.408236    
    116000   699.45805     -7173968.1      197.36819      197.36819      197.36819      9.6559132    
    117000   700.21593     -7173880.4      197.36819      197.36819      197.36819     -45.885187    
    118000   698.97898     -7173954.8      197.36819      197.36819      197.36819     -7.4039223    
    119000   699.99552     -7174005.2      197.36819      197.36819      197.36819     -70.31077     
    120000   700.00164     -7173906        197.36819      197.36819      197.36819      11.883511    
    121000   700.04829     -7173815.1      197.36819      197.36819      197.36819     -11.202088    
    122000   699.47506     -7173889.1      197.36819      197.36819      197.36819      73.525587    
    123000   698.97491     -7174016.4      197.36819      197.36819      197.36819     -144.88194    
    124000   699.84366     -7173732.1      197.36819      197.36819      197.36819      128.6327     
    125000   700.42998     -7173934.6      197.36819      197.36819      197.36819     -37.747493    
    126000   699.27443     -7174003.6      197.36819      197.36819      197.36819     -10.643799    
    127000   699.48298     -7173961.7      197.36819      197.36819      197.36819     -55.821199    
    128000   698.04697     -7174041.8      197.36819      197.36819      197.36819     -53.182923    
    129000   700.26136     -7173847.7      197.36819      197.36819      197.36819      167.13231    
    130000   699.89173     -7173891.5      197.36819      197.36819      197.36819     -111.0621     
    131000   699.16384     -7173895.8      197.36819      197.36819      197.36819      45.850489    
    132000   699.96466     -7173911.6      197.36819      197.36819      197.36819     -93.726202    
    133000   699.90106     -7173844.5      197.36819      197.36819      197.36819      60.577608    
    134000   700.48602     -7173840.8      197.36819      197.36819      197.36819     -164.78417    
    135000   699.01815     -7173975.8      197.36819      197.36819      197.36819      10.27299     
    136000   700.48991     -7173992.3      197.36819      197.36819      197.36819     -94.063702    
    137000   699.42569     -7173929.9      197.36819      197.36819      197.36819     -3.8927739    
    138000   700.10713     -7173879.6      197.36819      197.36819      197.36819     -39.296937    
    139000   700.78108     -7173768.1      197.36819      197.36819      197.36819     -18.958173    
    140000   700.14964     -7173887.6      197.36819      197.36819      197.36819     -19.310956    
    141000   699.7963      -7173907.2      197.36819      197.36819      197.36819     -81.272848    
    142000   699.69336     -7173804.6      197.36819      197.36819      197.36819     -85.51139     
    143000   698.96179     -7173943.2      197.36819      197.36819      197.36819     -8.636565     
    144000   701.00596     -7173750.4      197.36819      197.36819      197.36819      4.2466034    
    145000   699.60525     -7174052.6      197.36819      197.36819      197.36819     -172.33838    
    146000   700.65611     -7173749.6      197.36819      197.36819      197.36819     -43.206529    
    147000   700.45336     -7173849.1      197.36819      197.36819      197.36819     -39.40676     
    148000   699.11442     -7173964.2      197.36819      197.36819      197.36819      3.6464982    
    149000   699.45746     -7173910.2      197.36819      197.36819      197.36819     -212.73101    
    150000   699.96028     -7173966.7      197.36819      197.36819      197.36819     -45.358209    
    151000   699.10006     -7173866.6      197.36819      197.36819      197.36819      96.908919    
    152000   698.83057     -7173902.3      197.36819      197.36819      197.36819     -32.361768    
    153000   699.6736      -7173853.3      197.36819      197.36819      197.36819     -43.223627    
    154000   700.80802     -7173871.7      197.36819      197.36819      197.36819     -27.07067     
    155000   700.72419     -7173794.5      197.36819      197.36819      197.36819     -108.1545     
    156000   699.29861     -7174003        197.36819      197.36819      197.36819     -36.39179     
    157000   700.00552     -7173850.4      197.36819      197.36819      197.36819     -12.88738     
    158000   700.68328     -7173970        197.36819      197.36819      197.36819     -34.746062    
    159000   700.34663     -7173842.2      197.36819      197.36819      197.36819     -59.160601    
    160000   699.56704     -7173911.3      197.36819      197.36819      197.36819      99.195425    
    161000   699.61273     -7173976.7      197.36819      197.36819      197.36819     -155.84271    
    162000   701.42935     -7173675        197.36819      197.36819      197.36819     -13.313973    
    163000   701.44627     -7173809.5      197.36819      197.36819      197.36819     -71.515247    
    164000   699.66774     -7173900.3      197.36819      197.36819      197.36819      77.341782    
    165000   699.56183     -7173928.2      197.36819      197.36819      197.36819     -194.90112    
    166000   700.76867     -7173879.1      197.36819      197.36819      197.36819     -107.18596    
    167000   698.69671     -7174092.4      197.36819      197.36819      197.36819     -127.64595    
    168000   700.34421     -7173935.3      197.36819      197.36819      197.36819     -85.14166     
    169000   700.41846     -7173791.3      197.36819      197.36819      197.36819      35.257508    
    170000   700.56486     -7173864.2      197.36819      197.36819      197.36819     -112.27355    
    171000   699.34402     -7173883.4      197.36819      197.36819      197.36819     -125.43447    
    172000   698.88434     -7174033.7      197.36819      197.36819      197.36819     -10.348421    
    173000   700.57473     -7173848.4      197.36819      197.36819      197.36819     -52.364188    
    174000   699.62675     -7174030.2      197.36819      197.36819      197.36819     -115.26356    
    175000   701.06152     -7173816.6      197.36819      197.36819      197.36819     -87.364646    
    176000   700.24197     -7173766.1      197.36819      197.36819      197.36819      27.628447    
    177000   699.8439      -7173962        197.36819      197.36819      197.36819     -206.4205     
    178000   699.2993      -7173941.8      197.36819      197.36819      197.36819     -89.322782    
    179000   699.41347     -7173874        197.36819      197.36819      197.36819     -66.935439    
    180000   700.65885     -7173747.7      197.36819      197.36819      197.36819      108.80975    
    181000   700.35114     -7173771.2      197.36819      197.36819      197.36819     -32.83336     
    182000   700.0089      -7173892.1      197.36819      197.36819      197.36819     -41.516304    
    183000   700.99155     -7173816.8      197.36819      197.36819      197.36819     -32.914245    
    184000   698.62098     -7173983.3      197.36819      197.36819      197.36819     -98.762249    
    185000   700.26705     -7173828.2      197.36819      197.36819      197.36819     -31.929056    
    186000   700.20661     -7173916.8      197.36819      197.36819      197.36819      57.919276    
    187000   699.73295     -7173885.2      197.36819      197.36819      197.36819     -37.435466    
    188000   700.92386     -7173775.3      197.36819      197.36819      197.36819      8.5075347    
    189000   698.22214     -7173961.8      197.36819      197.36819      197.36819      71.419318    
    190000   700.74609     -7173800.4      197.36819      197.36819      197.36819      13.220566    
    191000   700.1825      -7173859.4      197.36819      197.36819      197.36819     -35.478968    
    192000   700.98657     -7173714.3      197.36819      197.36819      197.36819     -2.2828462    
    193000   700.41133     -7173845.6      197.36819      197.36819      197.36819     -68.675653    
    194000   699.76924     -7174043.3      197.36819      197.36819      197.36819     -83.287615    
    195000   699.35677     -7173887.2      197.36819      197.36819      197.36819      3.2541261    
    196000   699.07647     -7173918.3      197.36819      197.36819      197.36819      86.2653      
    197000   700.00326     -7173848.6      197.36819      197.36819      197.36819     -76.770969    
    198000   698.76799     -7173860.9      197.36819      197.36819      197.36819      73.089091    
    199000   699.12288     -7174007.1      197.36819      197.36819      197.36819     -30.573407    
    200000   700.78796     -7173842.3      197.36819      197.36819      197.36819     -165.13409    
    201000   700.39296     -7173905.3      197.36819      197.36819      197.36819     -18.744138    
    202000   701.87263     -7173696.9      197.36819      197.36819      197.36819     -67.398748    
    203000   699.84833     -7173933.6      197.36819      197.36819      197.36819      24.229548    
    204000   700.47324     -7173909.5      197.36819      197.36819      197.36819     -71.719956    
    205000   700.20549     -7173820.8      197.36819      197.36819      197.36819      103.1142     
    206000   699.40786     -7173969.8      197.36819      197.36819      197.36819     -60.071293    
    207000   700.76822     -7173851.2      197.36819      197.36819      197.36819      74.030871    
    208000   700.52698     -7173908.7      197.36819      197.36819      197.36819     -68.267723    
    209000   699.26656     -7174021.6      197.36819      197.36819      197.36819      3.2399579    
    210000   700.02377     -7173745.2      197.36819      197.36819      197.36819     -38.361471    
    211000   699.79636     -7174032.4      197.36819      197.36819      197.36819     -87.68884     
    212000   701.43488     -7173765.7      197.36819      197.36819      197.36819      36.833184    
    213000   699.21881     -7174035.1      197.36819      197.36819      197.36819     -140.51607    
    214000   699.68654     -7173978.1      197.36819      197.36819      197.36819     -99.852322    
    215000   701.16733     -7173829.1      197.36819      197.36819      197.36819     -64.680829    
    216000   701.1328      -7173830.9      197.36819      197.36819      197.36819      26.987392    
    217000   699.63516     -7173954.6      197.36819      197.36819      197.36819     -73.294403    
    218000   700.64623     -7173835.6      197.36819      197.36819      197.36819      19.294404    
    219000   698.74827     -7173906.7      197.36819      197.36819      197.36819     -138.66045    
    220000   699.94507     -7173948.4      197.36819      197.36819      197.36819     -77.919597    
    221000   699.7729      -7173899.6      197.36819      197.36819      197.36819     -150.28676    
    222000   698.91022     -7173978.6      197.36819      197.36819      197.36819      35.068007    
    223000   699.64944     -7173905.5      197.36819      197.36819      197.36819     -35.559702    
    224000   700.11303     -7173899.6      197.36819      197.36819      197.36819      34.529865    
    225000   699.11841     -7173980.1      197.36819      197.36819      197.36819     -129.85386    
    226000   699.53059     -7173992.2      197.36819      197.36819      197.36819     -83.887978    
    227000   699.00858     -7174051.2      197.36819      197.36819      197.36819     -207.34805    
    228000   698.97724     -7173982.4      197.36819      197.36819      197.36819     -78.462678    
    229000   701.2224      -7173755.5      197.36819      197.36819      197.36819     -49.825489    
    230000   699.81925     -7173921.2      197.36819      197.36819      197.36819     -17.48598     
    231000   699.14496     -7173934        197.36819      197.36819      197.36819     -102.71197    
    232000   700.72719     -7173838.8      197.36819      197.36819      197.36819     -108.39634    
    233000   701.38918     -7173679.4      197.36819      197.36819      197.36819      16.513437    
    234000   700.23751     -7173827        197.36819      197.36819      197.36819     -178.12161    
    235000   699.07308     -7174016.6      197.36819      197.36819      197.36819     -193.2017     
    236000   699.94432     -7173918.3      197.36819      197.36819      197.36819     -58.823556    
    237000   700.0408      -7173814.5      197.36819      197.36819      197.36819      14.866858    
    238000   698.94178     -7173947.2      197.36819      197.36819      197.36819      40.915637    
    239000   699.27951     -7173996.9      197.36819      197.36819      197.36819      40.497383    
    240000   701.53889     -7173770.5      197.36819      197.36819      197.36819      126.61295    
    241000   699.61883     -7174022.3      197.36819      197.36819      197.36819     -13.337991    
    242000   699.99938     -7173819.9      197.36819      197.36819      197.36819     -93.830704    
    243000   701.33502     -7173876.6      197.36819      197.36819      197.36819     -111.3669     
    244000   699.69018     -7174014.4      197.36819      197.36819      197.36819     -131.25689    
    245000   700.05414     -7173918.4      197.36819      197.36819      197.36819      66.80221     
    246000   699.89874     -7173804.5      197.36819      197.36819      197.36819     -110.62953    
    247000   701.98517     -7173770.6      197.36819      197.36819      197.36819     -38.553562    
    248000   699.77905     -7173917.5      197.36819      197.36819      197.36819     -45.406435    
    249000   700.14254     -7173883.9      197.36819      197.36819      197.36819     -28.224744    
    250000   699.84009     -7173870.1      197.36819      197.36819      197.36819     -75.487958    
    251000   699.81195     -7173956.7      197.36819      197.36819      197.36819     -61.941919    
    252000   700.37466     -7173845.8      197.36819      197.36819      197.36819      9.3101335    
    253000   698.5024      -7174082.6      197.36819      197.36819      197.36819     -121.54845    
    254000   700.04743     -7173961.1      197.36819      197.36819      197.36819     -31.110293    
    255000   701.79145     -7173681.1      197.36819      197.36819      197.36819      51.621134    
    256000   700.46519     -7173899.2      197.36819      197.36819      197.36819     -16.773319    
    257000   699.76487     -7173967.9      197.36819      197.36819      197.36819     -7.4311582    
    258000   699.84228     -7174019.5      197.36819      197.36819      197.36819     -94.163054    
    259000   701.10921     -7173904.5      197.36819      197.36819      197.36819     -190.30336    
    260000   699.54177     -7173871.1      197.36819      197.36819      197.36819     -75.550142    
    261000   700.70834     -7173925        197.36819      197.36819      197.36819     -92.752729    
    262000   699.27155     -7173991.1      197.36819      197.36819      197.36819     -164.94793    
    263000   700.46792     -7173860.4      197.36819      197.36819      197.36819     -58.540317    
    264000   699.01768     -7174165.9      197.36819      197.36819      197.36819     -62.779476    
    265000   699.90438     -7173966.6      197.36819      197.36819      197.36819     -31.046726    
    266000   699.64879     -7173942.8      197.36819      197.36819      197.36819     -137.26508    
    267000   699.90907     -7173820.1      197.36819      197.36819      197.36819     -112.95845    
    268000   701.01616     -7173870.7      197.36819      197.36819      197.36819     -20.292414    
    269000   699.52207     -7173875.9      197.36819      197.36819      197.36819     -40.694129    
    270000   699.15284     -7174037.6      197.36819      197.36819      197.36819     -155.32322    
    271000   699.83151     -7173979        197.36819      197.36819      197.36819     -203.52585    
    272000   700.28534     -7173946.6      197.36819      197.36819      197.36819     -71.318066    
    273000   700.46974     -7173929.3      197.36819      197.36819      197.36819     -167.04269    
    274000   700.17024     -7173850.5      197.36819      197.36819      197.36819     -179.43088    
    275000   700.29237     -7173877.5      197.36819      197.36819      197.36819     -159.94764    
    276000   699.38221     -7174033.1      197.36819      197.36819      197.36819     -36.597311    
    277000   698.88486     -7174021.3      197.36819      197.36819      197.36819     -98.811135    
    278000   699.49525     -7174102.4      197.36819      197.36819      197.36819     -226.04609    
    279000   699.90086     -7173961.9      197.36819      197.36819      197.36819     -129.72762    
    280000   701.21196     -7173766.5      197.36819      197.36819      197.36819      42.999743    
    281000   699.41173     -7173957.4      197.36819      197.36819      197.36819     -30.875231    
    282000   699.8556      -7173990.9      197.36819      197.36819      197.36819     -108.28043    
    283000   700.99963     -7173847.8      197.36819      197.36819      197.36819      66.348623    
    284000   700.20777     -7173918.5      197.36819      197.36819      197.36819     -81.741101    
    285000   700.58745     -7173825.4      197.36819      197.36819      197.36819     -141.09272    
    286000   701.02116     -7173829.8      197.36819      197.36819      197.36819     -153.7029     
    287000   701.34159     -7173821.8      197.36819      197.36819      197.36819     -226.58069    
    288000   700.39176     -7173943.3      197.36819      197.36819      197.36819     -82.563442    
    289000   699.99833     -7173892.9      197.36819      197.36819      197.36819     -117.19952    
    290000   701.02673     -7173737.2      197.36819      197.36819      197.36819     -69.187812    
    291000   700.94386     -7173882.2      197.36819      197.36819      197.36819      59.829427    
    292000   700.13135     -7174063.7      197.36819      197.36819      197.36819     -149.58233    
    293000   699.7094      -7173946.6      197.36819      197.36819      197.36819     -156.953      
    294000   700.64952     -7173853.9      197.36819      197.36819      197.36819     -12.802003    
    295000   700.24809     -7173945.2      197.36819      197.36819      197.36819     -62.693708    
    296000   700.18635     -7173995.8      197.36819      197.36819      197.36819     -199.97547    
    297000   699.15676     -7173984.9      197.36819      197.36819      197.36819      34.974428    
    298000   699.69173     -7173878.5      197.36819      197.36819      197.36819      7.4059268    
    299000   701.25288     -7173860.2      197.36819      197.36819      197.36819     -0.71418539   
    300000   701.33706     -7173850.5      197.36819      197.36819      197.36819     -63.388048    
    301000   700.88063     -7173870        197.36819      197.36819      197.36819     -61.191081    
    302000   700.46481     -7173937.5      197.36819      197.36819      197.36819     -74.92604     
    303000   699.93056     -7173950.4      197.36819      197.36819      197.36819      30.647036    
    304000   700.84372     -7173834.7      197.36819      197.36819      197.36819     -119.32217    
    305000   700.15964     -7173966.1      197.36819      197.36819      197.36819     -104.92978    
    306000   699.89527     -7173901.9      197.36819      197.36819      197.36819     -22.614384    
    307000   699.79309     -7173964.5      197.36819      197.36819      197.36819     -65.816029    
    308000   701.24838     -7173803.7      197.36819      197.36819      197.36819      63.107425    
    309000   699.32112     -7173984.9      197.36819      197.36819      197.36819     -198.3962     
    310000   700.29975     -7173919.7      197.36819      197.36819      197.36819     -153.79002    
    311000   701.00705     -7173805.8      197.36819      197.36819      197.36819      3.92411      
    312000   699.30323     -7174104.9      197.36819      197.36819      197.36819     -214.03688    
    313000   699.52052     -7173989.9      197.36819      197.36819      197.36819     -139.1637     
    314000   700.57729     -7173829.2      197.36819      197.36819      197.36819     -52.784292    
    315000   698.91585     -7174113.5      197.36819      197.36819      197.36819     -202.66724    
    316000   699.34501     -7173966.8      197.36819      197.36819      197.36819     -132.28064    
    317000   700.5839      -7173911.1      197.36819      197.36819      197.36819     -58.811552    
    318000   699.96386     -7173964.4      197.36819      197.36819      197.36819     -33.395888    
    319000   701.25638     -7173821.6      197.36819      197.36819      197.36819     -182.49684    
    320000   700.13078     -7173943.2      197.36819      197.36819      197.36819     -197.42572    
    321000   700.24232     -7173834.4      197.36819      197.36819      197.36819     -15.960691    
    322000   700.23612     -7173974.8      197.36819      197.36819      197.36819     -182.82664    
    323000   700.43959     -7173916.4      197.36819      197.36819      197.36819     -82.473791    
    324000   699.88957     -7173976.1      197.36819      197.36819      197.36819     -47.358334    
    325000   700.80529     -7173902.4      197.36819      197.36819      197.36819     -92.428162    
    326000   698.67155     -7174020.2      197.36819      197.36819      197.36819     -37.366813    
    327000   701.17665     -7173869.1      197.36819      197.36819      197.36819      29.464526    
    328000   699.65838     -7174009.2      197.36819      197.36819      197.36819     -107.64636    
    329000   700.19359     -7174019.4      197.36819      197.36819      197.36819     -59.671947    
    330000   699.82742     -7173965.3      197.36819      197.36819      197.36819     -197.69182    
    331000   700.20048     -7173973.3      197.36819      197.36819      197.36819     -151.04188    
    332000   700.35266     -7173963.4      197.36819      197.36819      197.36819     -114.69267    
    333000   699.60504     -7173951.5      197.36819      197.36819      197.36819     -113.43497    
    334000   700.43293     -7173838.7      197.36819      197.36819      197.36819     -96.652414    
    335000   699.7273      -7174128.3      197.36819      197.36819      197.36819     -173.61636    
    336000   700.46046     -7173994.3      197.36819      197.36819      197.36819     -36.002928    
    337000   698.75209     -7174012.7      197.36819      197.36819      197.36819      13.966056    
    338000   700.37838     -7173944.2      197.36819      197.36819      197.36819     -30.931487    
    339000   701.14443     -7173838.2      197.36819      197.36819      197.36819     -18.480457    
    340000   698.07432     -7174154.8      197.36819      197.36819      197.36819     -229.87653    
    341000   699.89906     -7173888.5      197.36819      197.36819      197.36819      3.5068755    
    342000   699.57378     -7174029.8      197.36819      197.36819      197.36819     -74.245137    
    343000   698.80925     -7173979.7      197.36819      197.36819      197.36819     -146.13609    
    344000   700.55573     -7173930.4      197.36819      197.36819      197.36819     -105.75289    
    345000   700.62708     -7173952.6      197.36819      197.36819      197.36819     -272.0483     
    346000   699.41376     -7173969.1      197.36819      197.36819      197.36819     -80.506858    
    347000   700.26556     -7173908.7      197.36819      197.36819      197.36819     -162.16743    
    348000   699.84078     -7174019.6      197.36819      197.36819      197.36819     -151.86445    
    349000   699.76583     -7173893        197.36819      197.36819      197.36819      21.158964    
    350000   698.73544     -7174087.3      197.36819      197.36819      197.36819     -107.94782    
    351000   699.01223     -7173985        197.36819      197.36819      197.36819     -25.564268    
    352000   700.01113     -7173889.2      197.36819      197.36819      197.36819     -65.759344    
    353000   698.93496     -7174093.6      197.36819      197.36819      197.36819     -170.42469    
    354000   700.25401     -7173915.1      197.36819      197.36819      197.36819     -67.900134    
    355000   700.37745     -7173934.9      197.36819      197.36819      197.36819     -156.6729     
    356000   699.76073     -7173986.8      197.36819      197.36819      197.36819     -138.83455    
    357000   699.43098     -7174030.5      197.36819      197.36819      197.36819     -156.08408    
    358000   699.47016     -7174082.1      197.36819      197.36819      197.36819     -132.39586    
    359000   700.9083      -7173842.7      197.36819      197.36819      197.36819     -23.282152    
    360000   700.491       -7173957.1      197.36819      197.36819      197.36819     -37.594632    
    361000   699.60785     -7174051.1      197.36819      197.36819      197.36819     -203.02635    
    362000   700.79618     -7173902.7      197.36819      197.36819      197.36819     -186.35133    
    363000   699.4819      -7174010.4      197.36819      197.36819      197.36819     -107.09884    
    364000   698.6501      -7174026        197.36819      197.36819      197.36819     -82.020863    
    365000   700.7669      -7173870.3      197.36819      197.36819      197.36819     -168.0431     
    366000   699.64257     -7173989.2      197.36819      197.36819      197.36819      12.210127    
    367000   700.52305     -7173875.3      197.36819      197.36819      197.36819     -101.93541    
    368000   699.24763     -7174040.2      197.36819      197.36819      197.36819     -243.38016    
    369000   700.17003     -7173828.6      197.36819      197.36819      197.36819      102.10725    
    370000   699.92189     -7173890.5      197.36819      197.36819      197.36819     -155.00728    
    371000   701.3644      -7173803.3      197.36819      197.36819      197.36819     -13.275195    
    372000   700.63535     -7173862.5      197.36819      197.36819      197.36819     -86.416201    
    373000   700.87781     -7173776        197.36819      197.36819      197.36819      56.859909    
    374000   699.60074     -7174028        197.36819      197.36819      197.36819     -108.46915    
    375000   698.64938     -7174027.3      197.36819      197.36819      197.36819     -93.537642    
    376000   701.48714     -7173838.5      197.36819      197.36819      197.36819     -66.262689    
    377000   700.59105     -7173951        197.36819      197.36819      197.36819     -87.033327    
    378000   700.8077      -7173934.3      197.36819      197.36819      197.36819     -130.12073    
    379000   699.03137     -7174068.6      197.36819      197.36819      197.36819     -166.76582    
    380000   699.59169     -7174014.6      197.36819      197.36819      197.36819     -21.959219    
    381000   701.25389     -7173914        197.36819      197.36819      197.36819     -237.8513     
    382000   699.85103     -7173892.5      197.36819      197.36819      197.36819     -106.23538    
    383000   699.09811     -7174069.3      197.36819      197.36819      197.36819     -92.996691    
    384000   699.30959     -7174006.6      197.36819      197.36819      197.36819     -40.784137    
    385000   699.48423     -7173991.2      197.36819      197.36819      197.36819     -89.106888    
    386000   701.17441     -7173891.8      197.36819      197.36819      197.36819     -80.82751     
    387000   700.06474     -7173861.9      197.36819      197.36819      197.36819     -149.1393     
    388000   699.38319     -7174028        197.36819      197.36819      197.36819     -101.82889    
    389000   700.66461     -7173884.2      197.36819      197.36819      197.36819      45.719454    
    390000   699.5998      -7174023.1      197.36819      197.36819      197.36819     -170.44554    
    391000   698.56094     -7174034.6      197.36819      197.36819      197.36819     -43.282186    
    392000   700.2253      -7173876.9      197.36819      197.36819      197.36819     -26.872162    
    393000   699.46654     -7173987.3      197.36819      197.36819      197.36819     -86.24858     
    394000   699.73752     -7174092.9      197.36819      197.36819      197.36819     -178.38661    
    395000   699.94879     -7173976.1      197.36819      197.36819      197.36819     -229.55955    
    396000   700.12023     -7173966.9      197.36819      197.36819      197.36819     -166.6259     
    397000   698.6768      -7174120.7      197.36819      197.36819      197.36819     -149.14975    
    398000   700.74785     -7173834.7      197.36819      197.36819      197.36819     -46.025625    
    399000   699.09429     -7174031.4      197.36819      197.36819      197.36819     -168.5923     
    400000   700.26303     -7173915.9      197.36819      197.36819      197.36819     -154.11613    
    401000   700.3163      -7173956.6      197.36819      197.36819      197.36819     -188.46093    
    402000   700.70769     -7173849.3      197.36819      197.36819      197.36819     -129.60974    
    403000   698.79303     -7174226.6      197.36819      197.36819      197.36819     -143.30687    
    404000   699.43974     -7174144.5      197.36819      197.36819      197.36819     -136.22963    
    405000   700.21722     -7173926.8      197.36819      197.36819      197.36819      30.030319    
    406000   698.99173     -7174059.9      197.36819      197.36819      197.36819     -40.428588    
    407000   699.2217      -7174094.3      197.36819      197.36819      197.36819     -162.24118    
    408000   700.85001     -7174002.2      197.36819      197.36819      197.36819     -239.0822     
    409000   700.24658     -7173980.5      197.36819      197.36819      197.36819     -53.58236     
    410000   700.65838     -7173820.1      197.36819      197.36819      197.36819     -71.202583    
    411000   698.72042     -7174073.2      197.36819      197.36819      197.36819     -75.39328     
    412000   700.05162     -7173970.8      197.36819      197.36819      197.36819     -43.347495    
    413000   699.92817     -7173883.9      197.36819      197.36819      197.36819     -153.76072    
    414000   700.1183      -7174032.8      197.36819      197.36819      197.36819     -54.314601    
    415000   700.57121     -7173904.2      197.36819      197.36819      197.36819     -152.21374    
    416000   698.67967     -7174022.8      197.36819      197.36819      197.36819     -32.295934    
    417000   700.02421     -7174138.1      197.36819      197.36819      197.36819     -170.85232    
    418000   700.59214     -7173927.2      197.36819      197.36819      197.36819     -37.414414    
    419000   700.00261     -7174031.2      197.36819      197.36819      197.36819     -60.703105    
    420000   700.84668     -7173945.3      197.36819      197.36819      197.36819     -115.83177    
    421000   699.73211     -7173975.7      197.36819      197.36819      197.36819     -146.05323    
    422000   699.91119     -7174044.6      197.36819      197.36819      197.36819     -59.243732    
    423000   699.94468     -7173986        197.36819      197.36819      197.36819     -99.392035    
    424000   700.9787      -7173897.8      197.36819      197.36819      197.36819     -81.298341    
    425000   700.58119     -7173906.7      197.36819      197.36819      197.36819     -111.45634    
    426000   700.0137      -7173918.1      197.36819      197.36819      197.36819     -25.534269    
    427000   699.55321     -7173998.5      197.36819      197.36819      197.36819     -99.382757    
    428000   699.54206     -7174007        197.36819      197.36819      197.36819     -74.646722    
    429000   700.51278     -7174005.7      197.36819      197.36819      197.36819     -80.39429     
    430000   699.40248     -7174106.1      197.36819      197.36819      197.36819     -122.55551    
    431000   699.66005     -7174063.3      197.36819      197.36819      197.36819     -115.90386    
    432000   699.88538     -7173997.1      197.36819      197.36819      197.36819     -57.122666    
    433000   701.44673     -7173846        197.36819      197.36819      197.36819      19.894396    
    434000   697.96813     -7174139.7      197.36819      197.36819      197.36819     -90.533491    
    435000   699.20678     -7174051.6      197.36819      197.36819      197.36819     -72.182044    
    436000   700.89587     -7173956.2      197.36819      197.36819      197.36819      21.292173    
    437000   700.12622     -7173887        197.36819      197.36819      197.36819      121.41025    
    438000   699.806       -7174063        197.36819      197.36819      197.36819     -102.17687    
    439000   700.0101      -7173955.2      197.36819      197.36819      197.36819     -69.398688    
    440000   700.04322     -7173903.4      197.36819      197.36819      197.36819     -158.62747    
    441000   700.82017     -7174026.4      197.36819      197.36819      197.36819     -172.42378    
    442000   700.59725     -7173896.8      197.36819      197.36819      197.36819     -84.013505    
    443000   701.80839     -7173851.3      197.36819      197.36819      197.36819     -140.58605    
    444000   701.48135     -7173880.6      197.36819      197.36819      197.36819     -29.190181    
    445000   700.37743     -7173928.2      197.36819      197.36819      197.36819     -86.364656    
    446000   701.34771     -7173878.7      197.36819      197.36819      197.36819     -49.016295    
    447000   699.63169     -7174069.6      197.36819      197.36819      197.36819     -249.54499    
    448000   699.82103     -7173959.5      197.36819      197.36819      197.36819      29.022634    
    449000   701.19677     -7173990.2      197.36819      197.36819      197.36819     -205.58307    
    450000   700.03152     -7174001.6      197.36819      197.36819      197.36819     -136.14191    
    451000   700.02509     -7174055.9      197.36819      197.36819      197.36819     -61.853723    
    452000   700.01305     -7174002.9      197.36819      197.36819      197.36819     -95.059236    
    453000   700.241       -7174013.8      197.36819      197.36819      197.36819     -37.531413    
    454000   699.38792     -7174043.4      197.36819      197.36819      197.36819     -154.52833    
    455000   698.993       -7174201        197.36819      197.36819      197.36819     -230.80853    
    456000   698.94722     -7174061.1      197.36819      197.36819      197.36819     -93.801625    
    457000   699.04901     -7174084.9      197.36819      197.36819      197.36819     -32.025716    
    458000   700.92562     -7173856.6      197.36819      197.36819      197.36819     -38.219016    
    459000   699.09793     -7174102.4      197.36819      197.36819      197.36819     -144.22285    
    460000   700.42886     -7173897.7      197.36819      197.36819      197.36819     -137.80064    
    461000   700.72154     -7173986.7      197.36819      197.36819      197.36819     -115.11771    
    462000   699.03809     -7173984.9      197.36819      197.36819      197.36819      18.453177    
    463000   699.98097     -7174129.3      197.36819      197.36819      197.36819     -135.73775    
    464000   700.31512     -7173976.1      197.36819      197.36819      197.36819     -42.443058    
    465000   699.61272     -7174058.2      197.36819      197.36819      197.36819     -172.97971    
    466000   700.79505     -7173917.1      197.36819      197.36819      197.36819     -196.69482    
    467000   700.7042      -7173873.3      197.36819      197.36819      197.36819     -50.01614     
    468000   699.57491     -7173869.6      197.36819      197.36819      197.36819     -165.75618    
    469000   700.73315     -7173948.1      197.36819      197.36819      197.36819      15.819261    
    470000   700.56523     -7173844.8      197.36819      197.36819      197.36819      52.263767    
    471000   699.11021     -7174150.1      197.36819      197.36819      197.36819     -151.59558    
    472000   699.81498     -7174104.1      197.36819      197.36819      197.36819     -41.199325    
    473000   701.06123     -7174023.8      197.36819      197.36819      197.36819     -163.57281    
    474000   700.72577     -7173896.4      197.36819      197.36819      197.36819     -78.094106    
    475000   699.72672     -7174080.5      197.36819      197.36819      197.36819     -30.882216    
    476000   698.83809     -7174123.6      197.36819      197.36819      197.36819     -60.119118    
    477000   698.46469     -7174155.7      197.36819      197.36819      197.36819      5.1284473    
    478000   699.27258     -7173924.5      197.36819      197.36819      197.36819      113.58091    
    479000   699.872       -7174026.7      197.36819      197.36819      197.36819     -114.12791    
    480000   699.57077     -7174054        197.36819      197.36819      197.36819     -30.051224    
    481000   701.02293     -7173881.8      197.36819      197.36819      197.36819      81.271205    
    482000   699.59326     -7174036.9      197.36819      197.36819      197.36819     -129.45029    
    483000   698.85845     -7174161.7      197.36819      197.36819      197.36819     -123.08265    
    484000   699.41683     -7174138.1      197.36819      197.36819      197.36819     -11.778113    
    485000   699.86836     -7174035        197.36819      197.36819      197.36819     -62.509695    
    486000   701.11481     -7174029.8      197.36819      197.36819      197.36819     -155.56724    
    487000   699.79991     -7173985.7      197.36819      197.36819      197.36819     -15.542198    
    488000   700.28283     -7174035.2      197.36819      197.36819      197.36819     -177.5754     
    489000   699.58071     -7174017.8      197.36819      197.36819      197.36819     -65.505469    
    490000   699.29827     -7174113.4      197.36819      197.36819      197.36819     -106.60791    
    491000   699.62109     -7173934.6      197.36819      197.36819      197.36819      13.927878    
    492000   699.85962     -7174070        197.36819      197.36819      197.36819     -116.81451    
    493000   699.55134     -7174111.6      197.36819      197.36819      197.36819     -62.136835    
    494000   700.93792     -7173948.1      197.36819      197.36819      197.36819     -14.363605    
    495000   699.5053      -7174088.7      197.36819      197.36819      197.36819     -20.082439    
    496000   701.77378     -7173941.9      197.36819      197.36819      197.36819     -95.752424    
    497000   700.62452     -7173920        197.36819      197.36819      197.36819     -54.126605    
    498000   699.67862     -7174028.8      197.36819      197.36819      197.36819      6.9060945    
    499000   700.68227     -7174025.6      197.36819      197.36819      197.36819     -159.57676    
    500000   700.84313     -7173875.4      197.36819      197.36819      197.36819      10.559861    
Loop time of 40628.5 on 16384 procs for 500000 steps with 632628 atoms

Performance: 2.127 ns/day, 11.286 hours/ns, 12.307 timesteps/s, 7.786 Matom-step/s
91.9% CPU use with 128 MPI tasks x 128 OpenMP threads

MPI task timing breakdown:
Section |  min time  |  avg time  |  max time  |%varavg| %total
---------------------------------------------------------------
Pair    | 25927      | 27719      | 28508      | 311.9 | 68.22
Bond    | 0.096957   | 0.13098    | 0.19982    |   6.5 |  0.00
Kspace  | 6819.6     | 7797.2     | 9815.4     | 651.6 | 19.19
Neigh   | 3534.3     | 3737.1     | 3853.2     |  96.9 |  9.20
Comm    | 1041.7     | 1141.3     | 1248.6     | 127.0 |  2.81
Output  | 0.074169   | 0.077747   | 0.093507   |   0.8 |  0.00
Modify  | 109.35     | 149.61     | 201.6      | 145.4 |  0.37
Other   |            | 84.43      |            |       |  0.21

Nlocal:        4942.41 ave        5020 max        4801 min
Histogram: 2 1 3 8 14 22 21 22 28 7
Nghost:        15577.2 ave       15755 max       15367 min
Histogram: 2 6 9 16 19 30 19 9 10 8
Neighs:        1.3e+06 ave  1.3526e+06 max 1.21946e+06 min
Histogram: 2 3 3 13 13 30 18 22 18 6

Total # of neighbors = 1.6640036e+08
Ave neighs/atom = 263.03035
Ave special neighs/atom = 0
Neighbor list builds = 85348
Dangerous builds = 0
System init for write_data ...
PPPM initialization ...
  using 12-bit tables for long-range coulomb (src/src/kspace.cpp:342)
  G vector (1/distance) = 0.27667963
  grid = 135 135 135
  stencil order = 5
  estimated absolute RMS force accuracy = 0.0018736266
  estimated relative force accuracy = 0.00013011616
  using double precision MKL FFT
  3d grid and FFT values/proc = 36800 36450
Generated 0 of 10 mixed pair_coeff terms from geometric mixing rule
Total wall time: 24:48:00
