LAMMPS (8 Feb 2023)
WARNING: Using I/O redirection is unreliable with parallel runs. Better to use the -in switch to read input files. (src/src/lammps.cpp:531)
  using 128 OpenMP thread(s) per MPI task
Reading data file ...
  orthogonal box = (-0.78382343 -0.79704317 -0.80171173) to (193.43337 196.69576 197.84788)
  4 by 4 by 8 MPI processor grid
  reading atoms ...
  483733 atoms
  reading velocities ...
  483733 velocities
Finding 1-2 1-3 1-4 neighbors ...
  special bond factors lj:    0        0        0       
  special bond factors coul:  0        0        0       
     0 = max # of 1-2 neighbors
     0 = max # of 1-3 neighbors
     0 = max # of 1-4 neighbors
     1 = max # of special neighbors
  special bonds CPU = 0.090 seconds
  read_data CPU = 3.313 seconds
5145 atoms in group Al
61702 atoms in group La
41167 atoms in group Zr
128743 atoms in group Li
246976 atoms in group O
PPPM initialization ...
  using 12-bit tables for long-range coulomb (src/src/kspace.cpp:342)
  G vector (1/distance) = 0.27690778
  grid = 135 135 135
  stencil order = 5
  estimated absolute RMS force accuracy = 0.0016248756
  estimated relative force accuracy = 0.00011284136
  using double precision MKL FFT
  3d grid and FFT values/proc = 36800 36450
Generated 0 of 10 mixed pair_coeff terms from geometric mixing rule
Neighbor list info ...
  update: every = 1 steps, delay = 0 steps, check = yes
  max neighbors/atom: 5000, page size: 100000
  master list distance cutoff = 11.3
  ghost atom cutoff = 11.3
  binsize = 5.65, bins = 35 35 36
  3 neighbor lists, perpetual/occasional/extra = 3 0 0
  (1) pair buck/coul/long, perpetual
      attributes: half, newton on
      pair build: half/bin/newton
      stencil: half/bin/3d
      bin: standard
  (2) pair lennard/mdf, perpetual, skip from (3)
      attributes: half, newton on, cut 3.8
      pair build: skip
      stencil: none
      bin: none
  (3) neighbor class addition, perpetual, trim from (1)
      attributes: half, newton on, cut 3.8
      pair build: trim
      stencil: none
      bin: none
Setting up cg style minimization ...
  Unit style    : metal
  Current step  : 0
Per MPI rank memory allocation (min/avg/max) = 225.5 | 262 | 300 Mbytes
   Step          Temp          E_pair         E_mol          TotEng         Press     
         0   699.34371     -5524764.3      0             -5481036.3      31.914793    
       736   699.34371     -5569787.1      0             -5526059.1     -12359.694    
Loop time of 105.327 on 16384 procs for 736 steps with 483733 atoms

80.4% CPU use with 128 MPI tasks x 128 OpenMP threads

Minimization stats:
  Stopping criterion = linesearch alpha is zero
  Energy initial, next-to-last, final = 
     -5524764.32925777   -5569787.1148036   -5569787.1148036
  Force two-norm initial, final = 1019.3111 0.372017
  Force max component initial, final = 6.9299899 0.13253964
  Final line search alpha, max atom move = 7.2194916e-08 9.5686883e-09
  Iterations, force evaluations = 736 1304

MPI task timing breakdown:
Section |  min time  |  avg time  |  max time  |%varavg| %total
---------------------------------------------------------------
Pair    | 44.845     | 63.653     | 82.097     | 187.3 | 60.43
Bond    | 0.00011508 | 0.00027469 | 0.00048625 |   0.0 |  0.00
Kspace  | 17.187     | 36.433     | 56.008     | 259.3 | 34.59
Neigh   | 1.5753     | 2.2822     | 3.0356     |  38.6 |  2.17
Comm    | 1.7539     | 2.1473     | 2.5539     |  18.6 |  2.04
Output  | 0          | 0          | 0          |   0.0 |  0.00
Modify  | 0          | 0          | 0          |   0.0 |  0.00
Other   |            | 0.8109     |            |       |  0.77

Nlocal:        3779.16 ave        4668 max        2914 min
Histogram: 64 0 0 0 0 0 0 0 0 64
Nghost:        11841.1 ave       13235 max       10455 min
Histogram: 64 0 0 0 0 0 0 0 0 64
Neighs:         908571 ave 1.20074e+06 max      634122 min
Histogram: 40 24 0 0 0 0 0 12 23 29

Total # of neighbors = 1.1629713e+08
Ave neighs/atom = 240.41596
Ave special neighs/atom = 0
Neighbor list builds = 78
Dangerous builds = 0
PPPM initialization ...
  using 12-bit tables for long-range coulomb (src/src/kspace.cpp:342)
  G vector (1/distance) = 0.27690778
  grid = 135 135 135
  stencil order = 5
  estimated absolute RMS force accuracy = 0.0016248756
  estimated relative force accuracy = 0.00011284136
  using double precision MKL FFT
  3d grid and FFT values/proc = 36800 36450
Generated 0 of 10 mixed pair_coeff terms from geometric mixing rule
Setting up Verlet run ...
  Unit style    : metal
  Current step  : 0
  Time step     : 0.002
Per MPI rank memory allocation (min/avg/max) = 225.8 | 262 | 299.4 Mbytes
   Step          Temp          TotEng           Lx             Ly             Lz           Press     
         0   699.34371     -5526059.1      194.21719      197.49281      198.64959     -12359.694    
      1000   699.37381     -5481331        194.21719      197.49281      198.64959      3769.3406    
      2000   699.70889     -5481258.7      194.21719      197.49281      198.64959      2904.1227    
      3000   699.81179     -5481314.1      194.21719      197.49281      198.64959      2998.2848    
      4000   699.35724     -5481323.5      194.21719      197.49281      198.64959      2323.1631    
      5000   698.63621     -5481301.8      194.21719      197.49281      198.64959      1551.8344    
      6000   699.97099     -5481213.2      194.21719      197.49281      198.64959      1019.6917    
      7000   699.42387     -5481167.2      194.21719      197.49281      198.64959      950.69712    
      8000   699.88264     -5481054.3      194.21719      197.49281      198.64959      653.71997    
      9000   699.85576     -5480983.5      194.21719      197.49281      198.64959      386.55498    
     10000   700.08161     -5480887.9      194.21719      197.49281      198.64959      300.34491    
Loop time of 739.326 on 16384 procs for 10000 steps with 483733 atoms

Performance: 2.337 ns/day, 10.268 hours/ns, 13.526 timesteps/s, 6.543 Matom-step/s
80.0% CPU use with 128 MPI tasks x 128 OpenMP threads

MPI task timing breakdown:
Section |  min time  |  avg time  |  max time  |%varavg| %total
---------------------------------------------------------------
Pair    | 279.5      | 391.46     | 504.9      | 452.0 | 52.95
Bond    | 0.001072   | 0.0021706  | 0.003436   |   1.0 |  0.00
Kspace  | 127.74     | 261.3      | 391.01     | 645.5 | 35.34
Neigh   | 42.773     | 61.914     | 82.263     | 200.7 |  8.37
Comm    | 16.81      | 19.373     | 21.169     |  20.4 |  2.62
Output  | 0.0013856  | 0.0014741  | 0.0017047  |   0.1 |  0.00
Modify  | 1.998      | 3.6947     | 5.6913     |  64.3 |  0.50
Other   |            | 1.575      |            |       |  0.21

Nlocal:        3779.16 ave        4630 max        2944 min
Histogram: 64 0 0 0 0 0 0 0 0 64
Nghost:        11783.9 ave       13120 max       10429 min
Histogram: 64 0 0 0 0 0 0 0 0 64
Neighs:         899976 ave  1.1808e+06 max      635596 min
Histogram: 40 24 0 0 0 0 0 12 24 28

Total # of neighbors = 1.1519693e+08
Ave neighs/atom = 238.14156
Ave special neighs/atom = 0
Neighbor list builds = 2048
Dangerous builds = 0
PPPM initialization ...
  using 12-bit tables for long-range coulomb (src/src/kspace.cpp:342)
  G vector (1/distance) = 0.27690778
  grid = 135 135 135
  stencil order = 5
  estimated absolute RMS force accuracy = 0.0016248756
  estimated relative force accuracy = 0.00011284136
  using double precision MKL FFT
  3d grid and FFT values/proc = 36800 36450
Generated 0 of 10 mixed pair_coeff terms from geometric mixing rule
Setting up Verlet run ...
  Unit style    : metal
  Current step  : 10000
  Time step     : 0.002
Per MPI rank memory allocation (min/avg/max) = 226.2 | 262.5 | 300.1 Mbytes
   Step          Temp          TotEng           Lx             Ly             Lz           Press     
     10000   700.08161     -5480887.9      194.21719      197.49281      198.64959      300.34491    
     11000   699.19001     -5480896.1      194.21719      197.49281      198.64959     -55.720228    
     12000   701.05968     -5480884.2      194.21719      197.49281      198.64959      55.597995    
     13000   699.22956     -5480896.5      194.21719      197.49281      198.64959     -119.30524    
     14000   701.03463     -5480810.8      194.21719      197.49281      198.64959     -119.56872    
     15000   700.25695     -5480869.7      194.21719      197.49281      198.64959     -152.61515    
     16000   700.58586     -5480819.7      194.21719      197.49281      198.64959     -52.506907    
     17000   700.00431     -5480814.7      194.21719      197.49281      198.64959     -30.547896    
     18000   700.97105     -5480786.2      194.21719      197.49281      198.64959     -4.9392059    
     19000   701.25158     -5480881.2      194.21719      197.49281      198.64959      89.506313    
     20000   699.68347     -5480921.5      194.21719      197.49281      198.64959      48.380822    
     21000   699.26458     -5480960.2      194.21719      197.49281      198.64959      41.002374    
     22000   698.88294     -5481003.6      194.21719      197.49281      198.64959     -25.752907    
     23000   700.26257     -5480817        194.21719      197.49281      198.64959      191.63461    
     24000   698.43052     -5481067.6      194.21719      197.49281      198.64959      131.3737     
     25000   698.77471     -5480967.9      194.21719      197.49281      198.64959      180.55323    
     26000   698.96222     -5481006.1      194.21719      197.49281      198.64959      101.62986    
     27000   700.28569     -5480849.7      194.21719      197.49281      198.64959      120.07016    
     28000   700.9432      -5480882.2      194.21719      197.49281      198.64959      151.79082    
     29000   699.96033     -5481015.6      194.21719      197.49281      198.64959      74.814409    
     30000   699.81128     -5481009.7      194.21719      197.49281      198.64959      140.61089    
     31000   700.23308     -5480913.8      194.21719      197.49281      198.64959      252.53589    
     32000   700.80841     -5480869.9      194.21719      197.49281      198.64959      164.36081    
     33000   699.44502     -5480891.1      194.21719      197.49281      198.64959      150.24813    
     34000   700.10687     -5480999.9      194.21719      197.49281      198.64959      164.87562    
     35000   699.97805     -5480897.2      194.21719      197.49281      198.64959      151.71499    
     36000   699.3714      -5480998.4      194.21719      197.49281      198.64959      11.07818     
     37000   701.12753     -5480850        194.21719      197.49281      198.64959      58.349811    
     38000   700.83938     -5480927.2      194.21719      197.49281      198.64959      267.12109    
     39000   698.82209     -5480992.8      194.21719      197.49281      198.64959      88.176844    
     40000   700.97106     -5480877.8      194.21719      197.49281      198.64959     -12.973941    
     41000   699.36638     -5481025.2      194.21719      197.49281      198.64959     -21.158045    
     42000   702.22436     -5480849.4      194.21719      197.49281      198.64959      110.15473    
     43000   699.1199      -5480938.3      194.21719      197.49281      198.64959      15.557568    
     44000   700.9365      -5480904.5      194.21719      197.49281      198.64959      56.187824    
     45000   699.33943     -5481003.7      194.21719      197.49281      198.64959      123.63815    
     46000   700.27638     -5480842.9      194.21719      197.49281      198.64959      250.96455    
     47000   699.22889     -5481093.5      194.21719      197.49281      198.64959      35.675256    
     48000   699.86338     -5480977.6      194.21719      197.49281      198.64959      241.30755    
     49000   700.53696     -5480944.1      194.21719      197.49281      198.64959      52.647466    
     50000   701.50292     -5480772.3      194.21719      197.49281      198.64959      62.444126    
     51000   699.00769     -5480903.9      194.21719      197.49281      198.64959      184.58355    
     52000   701.33533     -5480857        194.21719      197.49281      198.64959      97.70384     
     53000   700.10394     -5480856.7      194.21719      197.49281      198.64959      131.69241    
     54000   700.57801     -5480925.6      194.21719      197.49281      198.64959     -9.8197888    
     55000   699.92699     -5480857.2      194.21719      197.49281      198.64959      87.66411     
     56000   699.82018     -5480897.5      194.21719      197.49281      198.64959      229.8568     
     57000   700.51778     -5480824.8      194.21719      197.49281      198.64959      129.1139     
     58000   699.38952     -5481019.8      194.21719      197.49281      198.64959      13.855906    
     59000   699.51609     -5480910.5      194.21719      197.49281      198.64959     -118.56235    
     60000   700.38284     -5480866.8      194.21719      197.49281      198.64959      159.13413    
     61000   701.45416     -5480894        194.21719      197.49281      198.64959      28.68188     
     62000   701.25261     -5480870.3      194.21719      197.49281      198.64959      87.41483     
     63000   701.6624      -5480790.6      194.21719      197.49281      198.64959      61.938199    
     64000   699.84864     -5480860.3      194.21719      197.49281      198.64959      88.488595    
     65000   698.32558     -5481069        194.21719      197.49281      198.64959      100.9912     
     66000   700.67043     -5480904.2      194.21719      197.49281      198.64959      48.91564     
     67000   700.93777     -5480931.4      194.21719      197.49281      198.64959      33.432745    
     68000   699.6355      -5480965.5      194.21719      197.49281      198.64959      165.631      
     69000   699.77705     -5480868.7      194.21719      197.49281      198.64959      92.723265    
     70000   701.29933     -5480827.9      194.21719      197.49281      198.64959      92.262755    
     71000   701.76177     -5480775.4      194.21719      197.49281      198.64959      200.28541    
     72000   700.71352     -5480965.4      194.21719      197.49281      198.64959      58.758301    
     73000   700.57246     -5480942.1      194.21719      197.49281      198.64959      115.35355    
     74000   700.08602     -5480950.3      194.21719      197.49281      198.64959      103.70358    
     75000   700.30147     -5480932        194.21719      197.49281      198.64959      16.086392    
     76000   700.05995     -5480947.7      194.21719      197.49281      198.64959      218.27636    
     77000   699.90332     -5480962.9      194.21719      197.49281      198.64959     -38.26107     
     78000   699.53852     -5481007.7      194.21719      197.49281      198.64959      155.05057    
     79000   700.0482      -5480928.8      194.21719      197.49281      198.64959      188.14034    
     80000   700.58653     -5480921.2      194.21719      197.49281      198.64959      4.4348021    
     81000   700.18792     -5480902.8      194.21719      197.49281      198.64959      187.90235    
     82000   698.59055     -5481042.2      194.21719      197.49281      198.64959      107.99726    
     83000   699.78408     -5481022        194.21719      197.49281      198.64959      120.94585    
     84000   697.95973     -5481099.5      194.21719      197.49281      198.64959      66.594948    
     85000   700.7033      -5480914.9      194.21719      197.49281      198.64959      138.07939    
     86000   699.56077     -5481007.2      194.21719      197.49281      198.64959      143.81606    
     87000   699.7579      -5480972.8      194.21719      197.49281      198.64959     -18.926015    
     88000   699.72833     -5481069.6      194.21719      197.49281      198.64959     -30.364388    
     89000   699.07564     -5480960.2      194.21719      197.49281      198.64959      5.8531748    
     90000   700.74828     -5480886.6      194.21719      197.49281      198.64959      157.54637    
     91000   701.47213     -5480769.6      194.21719      197.49281      198.64959      149.63324    
     92000   699.21311     -5480984.7      194.21719      197.49281      198.64959      112.11631    
     93000   699.84248     -5480960.5      194.21719      197.49281      198.64959      209.38986    
     94000   699.30345     -5480882.4      194.21719      197.49281      198.64959      113.52662    
     95000   699.80407     -5480977.4      194.21719      197.49281      198.64959      81.311743    
     96000   699.4137      -5481038.1      194.21719      197.49281      198.64959      27.034862    
     97000   700.10799     -5481056.4      194.21719      197.49281      198.64959     -14.61246     
     98000   700.7784      -5480981.7      194.21719      197.49281      198.64959      81.805488    
     99000   699.97874     -5480992.8      194.21719      197.49281      198.64959      104.16284    
    100000   700.30611     -5480972        194.21719      197.49281      198.64959      70.933748    
    101000   700.56822     -5480860.6      194.21719      197.49281      198.64959      115.1777     
    102000   701.27453     -5480874.9      194.21719      197.49281      198.64959      85.399482    
    103000   699.67765     -5480994.6      194.21719      197.49281      198.64959      93.295208    
    104000   699.74938     -5480935.7      194.21719      197.49281      198.64959      95.104312    
    105000   700.62178     -5480907        194.21719      197.49281      198.64959      196.74634    
    106000   699.78143     -5480945.8      194.21719      197.49281      198.64959      249.76391    
    107000   699.15406     -5480971.4      194.21719      197.49281      198.64959      161.75798    
    108000   700.26655     -5480988.1      194.21719      197.49281      198.64959      204.78533    
    109000   700.00786     -5481000.7      194.21719      197.49281      198.64959      114.32411    
    110000   698.51568     -5481002.7      194.21719      197.49281      198.64959      19.230506    
    111000   700.28092     -5480913.4      194.21719      197.49281      198.64959      36.673371    
    112000   699.76678     -5480945.9      194.21719      197.49281      198.64959      151.19531    
    113000   701.44413     -5480850.9      194.21719      197.49281      198.64959      173.51357    
    114000   700.05966     -5481032.2      194.21719      197.49281      198.64959      131.80655    
    115000   699.86392     -5480854.2      194.21719      197.49281      198.64959      84.567968    
    116000   700.15346     -5480990.1      194.21719      197.49281      198.64959      43.767006    
    117000   700.01616     -5480838.3      194.21719      197.49281      198.64959      31.754331    
    118000   700.34419     -5480962.2      194.21719      197.49281      198.64959      132.29175    
    119000   699.56445     -5480938.2      194.21719      197.49281      198.64959      74.598114    
    120000   699.81809     -5481023.6      194.21719      197.49281      198.64959      105.81121    
    121000   700.4848      -5480935.3      194.21719      197.49281      198.64959      71.005475    
    122000   700.35095     -5480869        194.21719      197.49281      198.64959      80.142244    
    123000   699.35222     -5481008.3      194.21719      197.49281      198.64959     -30.338342    
    124000   699.71184     -5480961.7      194.21719      197.49281      198.64959      115.00123    
    125000   700.26677     -5480899.4      194.21719      197.49281      198.64959      173.39751    
    126000   701.03758     -5480889.8      194.21719      197.49281      198.64959      45.487721    
    127000   700.28747     -5480975.6      194.21719      197.49281      198.64959      193.63586    
    128000   699.83871     -5481010.1      194.21719      197.49281      198.64959      98.499145    
    129000   698.42736     -5481096.3      194.21719      197.49281      198.64959      148.7887     
    130000   701.53076     -5480808.4      194.21719      197.49281      198.64959      246.68268    
    131000   699.52837     -5481019.4      194.21719      197.49281      198.64959      251.65073    
    132000   699.78608     -5480951.5      194.21719      197.49281      198.64959      128.31325    
    133000   700.01953     -5480989.3      194.21719      197.49281      198.64959      233.99088    
    134000   699.52329     -5480932.5      194.21719      197.49281      198.64959      164.47004    
    135000   699.38263     -5481086        194.21719      197.49281      198.64959      54.126272    
    136000   700.45303     -5481008        194.21719      197.49281      198.64959      113.05134    
    137000   698.799       -5481002.6      194.21719      197.49281      198.64959      60.115817    
    138000   701.24721     -5480925.5      194.21719      197.49281      198.64959      5.6298298    
    139000   699.97198     -5480952        194.21719      197.49281      198.64959      109.39722    
    140000   700.1142      -5480976.7      194.21719      197.49281      198.64959      25.348594    
    141000   699.77296     -5480988.1      194.21719      197.49281      198.64959      195.56947    
    142000   699.74406     -5481043        194.21719      197.49281      198.64959      52.758307    
    143000   699.6356      -5480953.5      194.21719      197.49281      198.64959      49.105344    
    144000   700.48217     -5480943.6      194.21719      197.49281      198.64959      163.87466    
    145000   700.58666     -5480833.3      194.21719      197.49281      198.64959      140.67216    
    146000   699.05505     -5481039.2      194.21719      197.49281      198.64959      76.255051    
    147000   701.06416     -5480806.2      194.21719      197.49281      198.64959      81.759625    
    148000   700.43468     -5480935.3      194.21719      197.49281      198.64959     -37.734169    
    149000   701.63243     -5480837.5      194.21719      197.49281      198.64959     -54.210514    
    150000   700.093       -5480977.5      194.21719      197.49281      198.64959     -3.6671896    
    151000   701.05238     -5480835.3      194.21719      197.49281      198.64959      85.239225    
    152000   700.13092     -5480966.5      194.21719      197.49281      198.64959      154.28893    
    153000   701.55174     -5480899.8      194.21719      197.49281      198.64959      271.39169    
    154000   700.5127      -5480962.4      194.21719      197.49281      198.64959      29.7076      
    155000   699.49332     -5481029        194.21719      197.49281      198.64959      109.45743    
    156000   700.64275     -5480882        194.21719      197.49281      198.64959      133.09434    
    157000   698.91479     -5481007.3      194.21719      197.49281      198.64959      44.569551    
    158000   699.68196     -5480903.9      194.21719      197.49281      198.64959      94.707413    
    159000   700.60074     -5480996.6      194.21719      197.49281      198.64959     -25.352349    
    160000   700.44575     -5480864.6      194.21719      197.49281      198.64959      106.9195     
    161000   700.8357      -5480794.4      194.21719      197.49281      198.64959      99.012111    
    162000   699.40162     -5480988.6      194.21719      197.49281      198.64959      88.330932    
    163000   699.8662      -5480936        194.21719      197.49281      198.64959      227.54259    
    164000   699.47179     -5480990.5      194.21719      197.49281      198.64959      122.88664    
    165000   699.10195     -5481046.1      194.21719      197.49281      198.64959      157.18756    
    166000   699.80797     -5480979.6      194.21719      197.49281      198.64959      43.656923    
    167000   700.22608     -5480996.2      194.21719      197.49281      198.64959      73.74635     
    168000   700.60923     -5480938.8      194.21719      197.49281      198.64959      115.7087     
    169000   699.1899      -5481024.9      194.21719      197.49281      198.64959      94.398266    
    170000   699.58697     -5481039.4      194.21719      197.49281      198.64959      217.34023    
    171000   702.29726     -5480819.3      194.21719      197.49281      198.64959      177.0564     
    172000   700.48324     -5480945.5      194.21719      197.49281      198.64959      69.259015    
    173000   699.29565     -5480915.1      194.21719      197.49281      198.64959      325.88473    
    174000   700.27319     -5480963.5      194.21719      197.49281      198.64959      121.76223    
    175000   700.85438     -5480903.3      194.21719      197.49281      198.64959      221.12599    
    176000   699.61383     -5480987.9      194.21719      197.49281      198.64959      245.47785    
    177000   698.44912     -5481161.4      194.21719      197.49281      198.64959     -39.502123    
    178000   700.83056     -5480851.7      194.21719      197.49281      198.64959      32.881699    
    179000   697.75094     -5481131.9      194.21719      197.49281      198.64959      85.115807    
    180000   699.06847     -5481006        194.21719      197.49281      198.64959      166.95271    
    181000   700.97452     -5480804.8      194.21719      197.49281      198.64959      151.51747    
    182000   699.79206     -5480930.8      194.21719      197.49281      198.64959      175.0381     
    183000   701.24348     -5480859.6      194.21719      197.49281      198.64959      139.57306    
    184000   701.32758     -5480964.6      194.21719      197.49281      198.64959      127.00545    
    185000   699.84441     -5481037.3      194.21719      197.49281      198.64959      62.30989     
    186000   699.70774     -5480955.1      194.21719      197.49281      198.64959      119.81181    
    187000   699.71654     -5480978        194.21719      197.49281      198.64959      112.36229    
    188000   700.7432      -5480920.4      194.21719      197.49281      198.64959      175.96925    
    189000   699.36291     -5480964.6      194.21719      197.49281      198.64959      131.44701    
    190000   700.9126      -5480975        194.21719      197.49281      198.64959      6.9426863    
    191000   698.9352      -5480972.3      194.21719      197.49281      198.64959      273.563      
    192000   700.13572     -5480996.9      194.21719      197.49281      198.64959      60.006757    
    193000   701.07002     -5481003.4      194.21719      197.49281      198.64959      25.583694    
    194000   698.95904     -5481133.6      194.21719      197.49281      198.64959      2.9765232    
    195000   700.65143     -5480866.3      194.21719      197.49281      198.64959      94.569281    
    196000   699.989       -5480939.4      194.21719      197.49281      198.64959     -3.830738     
    197000   699.16817     -5480978.2      194.21719      197.49281      198.64959      68.281628    
    198000   700.70707     -5480849.7      194.21719      197.49281      198.64959      225.94981    
    199000   699.29491     -5481076.6      194.21719      197.49281      198.64959     -18.601389    
    200000   699.11481     -5481090        194.21719      197.49281      198.64959      95.872359    
    201000   700.34904     -5480932.9      194.21719      197.49281      198.64959     -10.52387     
    202000   700.76077     -5480905.5      194.21719      197.49281      198.64959      77.655605    
    203000   698.46506     -5480988.6      194.21719      197.49281      198.64959      194.24863    
    204000   699.73456     -5481066.6      194.21719      197.49281      198.64959     -33.303959    
    205000   699.75658     -5480834.8      194.21719      197.49281      198.64959      231.61562    
    206000   702.51133     -5480814.2      194.21719      197.49281      198.64959      153.51858    
    207000   698.50308     -5481049.4      194.21719      197.49281      198.64959      97.433342    
    208000   700.20969     -5480979.2      194.21719      197.49281      198.64959      98.040754    
    209000   700.67535     -5480922.3      194.21719      197.49281      198.64959      261.79734    
    210000   699.79925     -5481106.3      194.21719      197.49281      198.64959      25.976994    
    211000   700.01188     -5480962.6      194.21719      197.49281      198.64959      129.41097    
    212000   699.69071     -5481007.9      194.21719      197.49281      198.64959      117.5126     
    213000   702.09402     -5480867.8      194.21719      197.49281      198.64959      182.40851    
    214000   699.85516     -5480972.3      194.21719      197.49281      198.64959      203.70653    
    215000   700.59206     -5480939.1      194.21719      197.49281      198.64959      229.84234    
    216000   700.79502     -5480988.1      194.21719      197.49281      198.64959      129.51778    
    217000   699.42737     -5481043.8      194.21719      197.49281      198.64959      152.29601    
    218000   699.95045     -5480981        194.21719      197.49281      198.64959     -33.123362    
    219000   699.18987     -5481087.5      194.21719      197.49281      198.64959      133.92405    
    220000   700.2976      -5480962.9      194.21719      197.49281      198.64959      184.77332    
    221000   699.8117      -5480998.1      194.21719      197.49281      198.64959      78.281826    
    222000   699.69348     -5480949.7      194.21719      197.49281      198.64959      181.31689    
    223000   698.60588     -5481111        194.21719      197.49281      198.64959      75.953813    
    224000   698.70438     -5481040.8      194.21719      197.49281      198.64959     -51.104775    
    225000   699.25572     -5481083.3      194.21719      197.49281      198.64959      288.20626    
    226000   699.52589     -5480967.6      194.21719      197.49281      198.64959      175.14709    
    227000   698.51305     -5481058.8      194.21719      197.49281      198.64959      110.13738    
    228000   699.63451     -5480999.5      194.21719      197.49281      198.64959      162.18552    
    229000   699.02232     -5481041.7      194.21719      197.49281      198.64959      115.27865    
    230000   700.08555     -5481077.8      194.21719      197.49281      198.64959      30.614075    
    231000   700.21874     -5481065.8      194.21719      197.49281      198.64959      103.45315    
    232000   700.47863     -5481007.6      194.21719      197.49281      198.64959      163.25534    
    233000   700.258       -5481009.1      194.21719      197.49281      198.64959      248.19693    
    234000   698.78392     -5481065.3      194.21719      197.49281      198.64959     -1.8005388    
    235000   698.60497     -5481053.3      194.21719      197.49281      198.64959      104.95752    
    236000   701.08689     -5480908.8      194.21719      197.49281      198.64959      229.66159    
    237000   699.04542     -5480932.6      194.21719      197.49281      198.64959      157.38575    
    238000   700.48641     -5480890.4      194.21719      197.49281      198.64959      112.38094    
    239000   698.87542     -5480991.9      194.21719      197.49281      198.64959      184.45767    
    240000   700.47594     -5480965.2      194.21719      197.49281      198.64959      157.80985    
    241000   699.8035      -5481067.6      194.21719      197.49281      198.64959     -25.408743    
    242000   699.49245     -5481011.1      194.21719      197.49281      198.64959      57.684008    
    243000   700.30972     -5480920.1      194.21719      197.49281      198.64959      168.89291    
    244000   700.56484     -5480983.6      194.21719      197.49281      198.64959     -7.3616443    
    245000   700.68196     -5480965.3      194.21719      197.49281      198.64959      119.11368    
    246000   699.65038     -5480970.2      194.21719      197.49281      198.64959      220.36109    
    247000   699.25248     -5480971.7      194.21719      197.49281      198.64959      208.64878    
    248000   699.88981     -5480999        194.21719      197.49281      198.64959      142.04401    
    249000   699.05403     -5481082        194.21719      197.49281      198.64959     -33.529867    
    250000   698.77243     -5481071.9      194.21719      197.49281      198.64959      42.075858    
    251000   698.88307     -5481123.1      194.21719      197.49281      198.64959      62.957887    
    252000   699.98729     -5480895        194.21719      197.49281      198.64959      166.16068    
    253000   701.72886     -5480812.1      194.21719      197.49281      198.64959     -19.321041    
    254000   700.132       -5481012.6      194.21719      197.49281      198.64959      168.63526    
    255000   699.2612      -5481055.5      194.21719      197.49281      198.64959      80.827682    
    256000   698.97984     -5481003.9      194.21719      197.49281      198.64959      93.506       
    257000   700.13996     -5481031.9      194.21719      197.49281      198.64959      113.9246     
    258000   699.18893     -5481005.4      194.21719      197.49281      198.64959      177.05623    
    259000   699.02694     -5481046.5      194.21719      197.49281      198.64959      157.13693    
    260000   701.0722      -5481015.2      194.21719      197.49281      198.64959      124.03688    
    261000   701.47        -5480858.1      194.21719      197.49281      198.64959      196.96548    
    262000   700.07845     -5481020.7      194.21719      197.49281      198.64959      55.508956    
    263000   700.26767     -5480974.5      194.21719      197.49281      198.64959      74.300026    
    264000   700.87624     -5481061.4      194.21719      197.49281      198.64959      159.90132    
    265000   699.89126     -5481042.7      194.21719      197.49281      198.64959      130.89       
    266000   698.85037     -5480958.3      194.21719      197.49281      198.64959      134.46442    
    267000   698.97258     -5481072        194.21719      197.49281      198.64959      157.36043    
    268000   699.57926     -5480930.8      194.21719      197.49281      198.64959      181.33861    
    269000   701.34613     -5480899.8      194.21719      197.49281      198.64959      122.59269    
    270000   700.89808     -5480888.1      194.21719      197.49281      198.64959      94.828706    
    271000   701.25977     -5480841.2      194.21719      197.49281      198.64959      193.36644    
    272000   700.86298     -5480990.9      194.21719      197.49281      198.64959      143.54476    
    273000   699.97104     -5480931.1      194.21719      197.49281      198.64959      270.27071    
    274000   700.66147     -5480955.6      194.21719      197.49281      198.64959      203.03659    
    275000   699.58114     -5480907.8      194.21719      197.49281      198.64959      195.08851    
    276000   699.97057     -5481001.5      194.21719      197.49281      198.64959      115.6177     
    277000   699.80621     -5481068.7      194.21719      197.49281      198.64959      55.787238    
    278000   700.04469     -5480959.8      194.21719      197.49281      198.64959      154.81398    
    279000   698.48005     -5481049        194.21719      197.49281      198.64959      210.57448    
    280000   700.13239     -5480947.5      194.21719      197.49281      198.64959      172.70185    
    281000   700.55357     -5480964        194.21719      197.49281      198.64959      162.70291    
    282000   700.67905     -5480928.1      194.21719      197.49281      198.64959      101.7345     
    283000   698.89603     -5481181.6      194.21719      197.49281      198.64959      200.3711     
    284000   699.54197     -5481077.8      194.21719      197.49281      198.64959      191.33255    
    285000   700.44682     -5480850.9      194.21719      197.49281      198.64959      149.07865    
    286000   699.13292     -5481038.9      194.21719      197.49281      198.64959      38.773141    
    287000   698.73381     -5481146.2      194.21719      197.49281      198.64959      74.154943    
    288000   702.62414     -5480815.6      194.21719      197.49281      198.64959      52.600399    
    289000   699.4961      -5481055.6      194.21719      197.49281      198.64959      35.101001    
    290000   700.6457      -5480892        194.21719      197.49281      198.64959      153.18924    
    291000   700.76591     -5481086.2      194.21719      197.49281      198.64959      57.857585    
    292000   700.295       -5480898        194.21719      197.49281      198.64959      147.13386    
    293000   699.05358     -5480982.3      194.21719      197.49281      198.64959      145.39815    
    294000   699.76395     -5480956.8      194.21719      197.49281      198.64959      121.41007    
    295000   699.11905     -5481032.7      194.21719      197.49281      198.64959      133.56163    
    296000   701.62147     -5480846.9      194.21719      197.49281      198.64959      15.510548    
    297000   700.77691     -5480869.8      194.21719      197.49281      198.64959      115.15642    
    298000   700.91801     -5480937.1      194.21719      197.49281      198.64959      127.47886    
    299000   699.69754     -5480979.7      194.21719      197.49281      198.64959      236.25675    
    300000   699.30389     -5481021.8      194.21719      197.49281      198.64959      246.89095    
    301000   698.69793     -5481096.9      194.21719      197.49281      198.64959      22.385181    
    302000   700.0797      -5481067        194.21719      197.49281      198.64959      119.13173    
    303000   701.08397     -5480942.4      194.21719      197.49281      198.64959      100.15069    
    304000   700.9063      -5480876.8      194.21719      197.49281      198.64959      177.37842    
    305000   700.43479     -5480969.1      194.21719      197.49281      198.64959      104.37866    
    306000   699.43138     -5480997.1      194.21719      197.49281      198.64959     -12.622053    
    307000   698.88044     -5481077.9      194.21719      197.49281      198.64959     -16.047217    
    308000   699.67836     -5481085.5      194.21719      197.49281      198.64959      239.75994    
    309000   700.50387     -5480946.7      194.21719      197.49281      198.64959      162.07504    
    310000   700.41646     -5481001        194.21719      197.49281      198.64959      151.19792    
    311000   699.11148     -5480947        194.21719      197.49281      198.64959     -61.042849    
    312000   699.94451     -5480968.2      194.21719      197.49281      198.64959      246.41588    
    313000   699.12448     -5480998.6      194.21719      197.49281      198.64959      103.04814    
    314000   700.83556     -5480917.4      194.21719      197.49281      198.64959      88.71322     
    315000   699.075       -5480995.3      194.21719      197.49281      198.64959      75.231391    
    316000   699.56663     -5480979.6      194.21719      197.49281      198.64959      29.569572    
    317000   699.35569     -5481107.6      194.21719      197.49281      198.64959      124.82938    
    318000   699.75357     -5481038.3      194.21719      197.49281      198.64959      71.822732    
    319000   699.69353     -5481048.1      194.21719      197.49281      198.64959      124.26141    
    320000   701.20251     -5480926.5      194.21719      197.49281      198.64959      152.55392    
    321000   699.78518     -5480958.1      194.21719      197.49281      198.64959      53.963841    
    322000   700.86218     -5480905.2      194.21719      197.49281      198.64959      39.370023    
    323000   700.6803      -5480876.1      194.21719      197.49281      198.64959      59.943742    
    324000   699.05079     -5481046.4      194.21719      197.49281      198.64959      170.71093    
    325000   700.07436     -5481016.5      194.21719      197.49281      198.64959      64.933659    
    326000   699.0724      -5481073.5      194.21719      197.49281      198.64959     -49.600908    
    327000   700.94106     -5480972.7      194.21719      197.49281      198.64959      114.71713    
    328000   699.10587     -5481048.1      194.21719      197.49281      198.64959      69.664556    
    329000   699.57958     -5481043.8      194.21719      197.49281      198.64959      219.46594    
    330000   701.33774     -5480870.6      194.21719      197.49281      198.64959      87.001319    
    331000   700.9079      -5480931.6      194.21719      197.49281      198.64959      26.549893    
    332000   698.52595     -5481056.3      194.21719      197.49281      198.64959      78.681066    
    333000   701.3501      -5480873        194.21719      197.49281      198.64959      37.135859    
    334000   700.53737     -5480917.4      194.21719      197.49281      198.64959      118.71105    
    335000   699.18183     -5481158.8      194.21719      197.49281      198.64959      105.35544    
    336000   700.493       -5480971.6      194.21719      197.49281      198.64959      127.64446    
    337000   700.1135      -5481015.1      194.21719      197.49281      198.64959      109.11222    
    338000   697.8276      -5481074.6      194.21719      197.49281      198.64959      243.65669    
    339000   699.40855     -5481039.6      194.21719      197.49281      198.64959      229.00543    
    340000   700.9074      -5480896        194.21719      197.49281      198.64959      143.70747    
    341000   699.60632     -5481042.9      194.21719      197.49281      198.64959      89.230303    
    342000   700.45401     -5480885        194.21719      197.49281      198.64959      71.208562    
    343000   699.30109     -5481093.5      194.21719      197.49281      198.64959      94.997044    
    344000   699.05267     -5481005.3      194.21719      197.49281      198.64959      118.35423    
    345000   699.19487     -5481132.6      194.21719      197.49281      198.64959      30.152818    
    346000   699.63952     -5481005.8      194.21719      197.49281      198.64959      87.211548    
    347000   700.13817     -5480964.7      194.21719      197.49281      198.64959      176.92859    
    348000   700.18002     -5480975        194.21719      197.49281      198.64959      175.85756    
    349000   699.66539     -5480959.6      194.21719      197.49281      198.64959      247.84789    
    350000   699.74008     -5480966.5      194.21719      197.49281      198.64959      303.49327    
    351000   700.47619     -5480963.1      194.21719      197.49281      198.64959      118.78715    
    352000   701.12351     -5480809.4      194.21719      197.49281      198.64959      92.080618    
    353000   700.97459     -5481078.2      194.21719      197.49281      198.64959      107.83684    
    354000   699.20118     -5481038.3      194.21719      197.49281      198.64959      93.854049    
    355000   700.73918     -5480925.1      194.21719      197.49281      198.64959      133.73139    
    356000   700.16888     -5481076.1      194.21719      197.49281      198.64959      165.28366    
    357000   700.31153     -5481010.3      194.21719      197.49281      198.64959      81.84252     
    358000   699.94077     -5481019.4      194.21719      197.49281      198.64959      252.89293    
    359000   699.66129     -5481056.3      194.21719      197.49281      198.64959      19.760963    
    360000   698.61133     -5481085.7      194.21719      197.49281      198.64959     -2.1862817    
    361000   699.24004     -5481055.4      194.21719      197.49281      198.64959      52.942634    
    362000   700.4727      -5480986.5      194.21719      197.49281      198.64959      46.641802    
    363000   700.73774     -5480961.8      194.21719      197.49281      198.64959      189.972      
    364000   699.42552     -5480992.3      194.21719      197.49281      198.64959      210.44256    
    365000   700.78895     -5481032.2      194.21719      197.49281      198.64959      57.176937    
    366000   700.81813     -5481004.1      194.21719      197.49281      198.64959      161.8502     
    367000   699.49339     -5480993.7      194.21719      197.49281      198.64959      159.96822    
    368000   700.01074     -5481047.3      194.21719      197.49281      198.64959      111.19599    
    369000   699.07775     -5481057.6      194.21719      197.49281      198.64959      111.65055    
    370000   698.80631     -5481043.6      194.21719      197.49281      198.64959      87.601653    
    371000   699.7913      -5481103.1      194.21719      197.49281      198.64959      60.805784    
    372000   699.35419     -5481128        194.21719      197.49281      198.64959      221.45855    
    373000   699.652       -5480976.7      194.21719      197.49281      198.64959      93.919771    
    374000   700.67934     -5480969.4      194.21719      197.49281      198.64959      99.585294    
    375000   699.42761     -5481020.8      194.21719      197.49281      198.64959      74.074331    
    376000   699.94466     -5481031.7      194.21719      197.49281      198.64959      60.606805    
    377000   699.00616     -5481042.8      194.21719      197.49281      198.64959      246.99184    
    378000   699.07264     -5481103.8      194.21719      197.49281      198.64959     -44.302243    
    379000   700.15013     -5480923.8      194.21719      197.49281      198.64959      130.56389    
    380000   699.13022     -5481064.8      194.21719      197.49281      198.64959      111.9966     
    381000   700.78813     -5480907.8      194.21719      197.49281      198.64959      171.24557    
    382000   699.43384     -5481003.5      194.21719      197.49281      198.64959      146.09876    
    383000   701.1476      -5481055.2      194.21719      197.49281      198.64959      63.349634    
    384000   701.14777     -5480876.1      194.21719      197.49281      198.64959      202.96154    
    385000   699.53062     -5481034.7      194.21719      197.49281      198.64959      35.833696    
    386000   698.02092     -5481157.9      194.21719      197.49281      198.64959      88.54862     
    387000   700.44833     -5480989.2      194.21719      197.49281      198.64959      137.41639    
    388000   700.24498     -5481066        194.21719      197.49281      198.64959      180.35228    
    389000   699.56261     -5481043.7      194.21719      197.49281      198.64959      112.70744    
    390000   701.51657     -5480872.8      194.21719      197.49281      198.64959      97.209403    
    391000   701.2682      -5480885.9      194.21719      197.49281      198.64959      142.8366     
    392000   699.81962     -5480977.1      194.21719      197.49281      198.64959      162.39576    
    393000   700.24749     -5480967        194.21719      197.49281      198.64959      35.825351    
    394000   699.88025     -5481042.3      194.21719      197.49281      198.64959     -20.122615    
    395000   700.7757      -5481062.5      194.21719      197.49281      198.64959      22.710911    
    396000   700.20934     -5481039.7      194.21719      197.49281      198.64959      232.00152    
    397000   700.29476     -5480999        194.21719      197.49281      198.64959      121.68622    
    398000   698.72919     -5481101        194.21719      197.49281      198.64959      5.6356549    
    399000   701.31943     -5480857.2      194.21719      197.49281      198.64959      157.58186    
    400000   699.3643      -5481046.6      194.21719      197.49281      198.64959      37.756316    
    401000   698.99602     -5481055.3      194.21719      197.49281      198.64959     -27.442996    
    402000   699.87603     -5481033.2      194.21719      197.49281      198.64959     -6.0264026    
    403000   698.76021     -5481069.6      194.21719      197.49281      198.64959      196.34088    
    404000   700.96645     -5480940.2      194.21719      197.49281      198.64959      50.007963    
    405000   701.09773     -5480969.5      194.21719      197.49281      198.64959      27.424305    
    406000   699.61153     -5481081        194.21719      197.49281      198.64959     -20.783381    
    407000   699.60531     -5481056.4      194.21719      197.49281      198.64959      135.29414    
    408000   698.82689     -5481055.2      194.21719      197.49281      198.64959      89.794723    
    409000   699.98074     -5480964.6      194.21719      197.49281      198.64959      126.22705    
    410000   700.44607     -5480964        194.21719      197.49281      198.64959      254.33092    
    411000   701.17745     -5480915.2      194.21719      197.49281      198.64959      173.75154    
    412000   699.77434     -5481074.2      194.21719      197.49281      198.64959      269.64879    
    413000   700.68364     -5480975.6      194.21719      197.49281      198.64959      72.881842    
    414000   699.42001     -5481052.7      194.21719      197.49281      198.64959      72.46126     
    415000   699.02656     -5481148.4      194.21719      197.49281      198.64959      145.7474     
    416000   699.67585     -5481013.4      194.21719      197.49281      198.64959      145.3376     
    417000   699.21987     -5481103.6      194.21719      197.49281      198.64959      66.095388    
    418000   700.04971     -5481132.2      194.21719      197.49281      198.64959     -13.19769     
    419000   699.37626     -5481051.5      194.21719      197.49281      198.64959      64.502906    
    420000   699.50288     -5481020.3      194.21719      197.49281      198.64959      53.198423    
    421000   700.76863     -5481008.6      194.21719      197.49281      198.64959      117.80515    
    422000   699.33508     -5480971        194.21719      197.49281      198.64959      119.48364    
    423000   698.90221     -5481043.3      194.21719      197.49281      198.64959      141.01783    
    424000   698.49155     -5481163.5      194.21719      197.49281      198.64959      30.055975    
    425000   700.19351     -5480882.5      194.21719      197.49281      198.64959      258.06729    
    426000   699.75205     -5480928.6      194.21719      197.49281      198.64959      64.357595    
    427000   699.2929      -5481235.7      194.21719      197.49281      198.64959      84.361655    
    428000   700.43894     -5481007.5      194.21719      197.49281      198.64959      280.39033    
    429000   700.25142     -5480982.8      194.21719      197.49281      198.64959      127.7169     
    430000   698.79668     -5481122.3      194.21719      197.49281      198.64959      276.20385    
    431000   700.3432      -5481044.1      194.21719      197.49281      198.64959     -35.400123    
    432000   702.44426     -5480899.8      194.21719      197.49281      198.64959      180.50714    
    433000   700.14771     -5481050.5      194.21719      197.49281      198.64959      97.704823    
    434000   700.47461     -5480907        194.21719      197.49281      198.64959      118.4641     
    435000   700.06362     -5481024.2      194.21719      197.49281      198.64959      227.23234    
    436000   699.76565     -5481033.3      194.21719      197.49281      198.64959      164.13257    
    437000   699.59302     -5481065.6      194.21719      197.49281      198.64959      32.306351    
    438000   699.47175     -5481000.9      194.21719      197.49281      198.64959      58.440718    
    439000   700.23875     -5480961.1      194.21719      197.49281      198.64959      196.10676    
    440000   700.51235     -5480942.7      194.21719      197.49281      198.64959      154.06567    
    441000   699.00632     -5481056.3      194.21719      197.49281      198.64959      118.86675    
    442000   700.86386     -5480914.2      194.21719      197.49281      198.64959      223.04954    
    443000   701.91836     -5480846.4      194.21719      197.49281      198.64959      208.66633    
    444000   699.26338     -5481064.7      194.21719      197.49281      198.64959      102.98862    
    445000   698.60727     -5481129.8      194.21719      197.49281      198.64959     -76.486488    
    446000   698.97009     -5481000.4      194.21719      197.49281      198.64959      41.413475    
    447000   700.48932     -5480959.7      194.21719      197.49281      198.64959      106.02403    
    448000   700.69512     -5480973.5      194.21719      197.49281      198.64959      51.885909    
    449000   701.09262     -5480963        194.21719      197.49281      198.64959      36.602055    
    450000   700.80348     -5480831.5      194.21719      197.49281      198.64959      168.21251    
    451000   699.33675     -5481053.2      194.21719      197.49281      198.64959      2.4121674    
    452000   699.55239     -5481013.5      194.21719      197.49281      198.64959      176.84486    
    453000   700.86079     -5480919.9      194.21719      197.49281      198.64959      148.57598    
    454000   701.4642      -5480885.5      194.21719      197.49281      198.64959      135.7288     
    455000   700.05029     -5481045.1      194.21719      197.49281      198.64959      229.52279    
    456000   700.00286     -5481035.8      194.21719      197.49281      198.64959      46.877668    
    457000   699.67091     -5480957.8      194.21719      197.49281      198.64959      50.655541    
    458000   698.81435     -5481149        194.21719      197.49281      198.64959      99.641941    
    459000   700.17601     -5481066.9      194.21719      197.49281      198.64959      83.012661    
    460000   699.74486     -5481020.7      194.21719      197.49281      198.64959      241.51496    
    461000   700.50501     -5481027.7      194.21719      197.49281      198.64959      60.504902    
    462000   700.40886     -5481018.3      194.21719      197.49281      198.64959      225.00052    
    463000   701.02331     -5480887.4      194.21719      197.49281      198.64959      174.22032    
    464000   699.11957     -5481102.1      194.21719      197.49281      198.64959      57.468598    
    465000   700.83726     -5480954.7      194.21719      197.49281      198.64959      171.2059     
    466000   700.40839     -5480907.1      194.21719      197.49281      198.64959      221.48386    
    467000   700.22239     -5481129.5      194.21719      197.49281      198.64959      284.86768    
    468000   699.19604     -5481162.7      194.21719      197.49281      198.64959      164.87761    
    469000   699.78994     -5480974.7      194.21719      197.49281      198.64959      193.33633    
    470000   699.58271     -5480979.8      194.21719      197.49281      198.64959      198.38983    
    471000   701.10918     -5480958.1      194.21719      197.49281      198.64959      146.50137    
    472000   700.26631     -5481005.7      194.21719      197.49281      198.64959     -3.7484529    
    473000   699.73706     -5481005.7      194.21719      197.49281      198.64959     -35.577666    
    474000   700.47015     -5480950.7      194.21719      197.49281      198.64959      93.642125    
    475000   698.75874     -5481106.9      194.21719      197.49281      198.64959      29.576486    
    476000   698.48668     -5481120        194.21719      197.49281      198.64959      161.60832    
    477000   700.205       -5481036.3      194.21719      197.49281      198.64959      45.186737    
    478000   700.66186     -5480897.3      194.21719      197.49281      198.64959     -14.672015    
    479000   699.71679     -5481004.3      194.21719      197.49281      198.64959      267.04053    
    480000   699.11261     -5481019.9      194.21719      197.49281      198.64959      127.48099    
    481000   699.31098     -5481135.7      194.21719      197.49281      198.64959      86.796697    
    482000   700.34259     -5481039        194.21719      197.49281      198.64959      96.578023    
    483000   698.39384     -5481138.1      194.21719      197.49281      198.64959      121.74061    
    484000   700.10952     -5480932.4      194.21719      197.49281      198.64959      122.71613    
    485000   699.94776     -5481095.5      194.21719      197.49281      198.64959     -46.808498    
    486000   699.77978     -5481018.5      194.21719      197.49281      198.64959      133.98237    
    487000   701.19629     -5480895        194.21719      197.49281      198.64959      42.015949    
    488000   699.42041     -5480978.8      194.21719      197.49281      198.64959     -45.255178    
    489000   700.12983     -5481024.6      194.21719      197.49281      198.64959     -0.35886776   
    490000   698.63077     -5481078.5      194.21719      197.49281      198.64959      62.455589    
    491000   699.08266     -5481014.1      194.21719      197.49281      198.64959      199.91183    
    492000   701.23163     -5480954.1      194.21719      197.49281      198.64959      182.41574    
    493000   699.7451      -5481009.8      194.21719      197.49281      198.64959      6.4395151    
    494000   698.54348     -5481097.4      194.21719      197.49281      198.64959      157.29855    
    495000   698.95544     -5481070.2      194.21719      197.49281      198.64959      92.304388    
    496000   698.58239     -5481072.1      194.21719      197.49281      198.64959      38.401152    
    497000   699.25022     -5481148.7      194.21719      197.49281      198.64959      40.493626    
    498000   700.21067     -5480894.2      194.21719      197.49281      198.64959      194.19071    
    499000   700.47233     -5481007        194.21719      197.49281      198.64959      32.776627    
    500000   701.15057     -5480992.4      194.21719      197.49281      198.64959      136.08795    
    501000   699.7979      -5480950.9      194.21719      197.49281      198.64959      183.83219    
    502000   699.65922     -5480981.1      194.21719      197.49281      198.64959      156.10488    
    503000   698.92138     -5481096.3      194.21719      197.49281      198.64959      40.902041    
    504000   698.34255     -5481076.3      194.21719      197.49281      198.64959     -5.7034968    
    505000   699.4651      -5481080.1      194.21719      197.49281      198.64959      211.55942    
    506000   700.31004     -5481081.8      194.21719      197.49281      198.64959      234.45309    
    507000   697.97491     -5481191.8      194.21719      197.49281      198.64959     -25.282262    
    508000   699.41331     -5481024.5      194.21719      197.49281      198.64959      19.639851    
    509000   700.51818     -5480914        194.21719      197.49281      198.64959      199.16392    
    510000   700.08255     -5480982.5      194.21719      197.49281      198.64959      83.495573    
    511000   700.58283     -5480992.6      194.21719      197.49281      198.64959      112.3365     
    512000   700.18406     -5480981.8      194.21719      197.49281      198.64959      51.552677    
    513000   699.46874     -5481114.7      194.21719      197.49281      198.64959     -62.570994    
    514000   700.21978     -5480892.6      194.21719      197.49281      198.64959      200.7317     
    515000   700.52202     -5481015.1      194.21719      197.49281      198.64959      38.362906    
    516000   700.11591     -5481014.5      194.21719      197.49281      198.64959      53.763825    
    517000   700.06586     -5480951.9      194.21719      197.49281      198.64959      156.10321    
    518000   700.3228      -5481059.2      194.21719      197.49281      198.64959      93.690895    
    519000   700.60843     -5480972.4      194.21719      197.49281      198.64959      194.38734    
    520000   699.25638     -5481050.2      194.21719      197.49281      198.64959      231.93626    
    521000   701.23845     -5480973.6      194.21719      197.49281      198.64959      231.64523    
    522000   700.7623      -5481014.6      194.21719      197.49281      198.64959      125.36968    
    523000   699.99802     -5481003.7      194.21719      197.49281      198.64959      215.43655    
    524000   699.77366     -5481110.7      194.21719      197.49281      198.64959      70.64239     
    525000   700.19145     -5481030.5      194.21719      197.49281      198.64959      134.45825    
    526000   701.0643      -5480945.1      194.21719      197.49281      198.64959      113.32532    
    527000   700.57343     -5481000.3      194.21719      197.49281      198.64959      130.68277    
    528000   699.43044     -5481155.1      194.21719      197.49281      198.64959      53.907462    
    529000   699.39645     -5481111.5      194.21719      197.49281      198.64959      162.29841    
    530000   699.77601     -5481014.9      194.21719      197.49281      198.64959      216.24329    
    531000   701.52163     -5480971.1      194.21719      197.49281      198.64959      227.82915    
    532000   699.63013     -5481013.6      194.21719      197.49281      198.64959      65.82114     
    533000   700.04774     -5481125.3      194.21719      197.49281      198.64959      31.858384    
    534000   701.83678     -5480746.4      194.21719      197.49281      198.64959      193.61877    
    535000   700.48875     -5481037.4      194.21719      197.49281      198.64959      82.621905    
    536000   698.90998     -5481059.4      194.21719      197.49281      198.64959     -43.910829    
    537000   701.70781     -5480875.5      194.21719      197.49281      198.64959      45.41283     
    538000   699.04641     -5481031.3      194.21719      197.49281      198.64959      81.818457    
    539000   699.84622     -5481009.3      194.21719      197.49281      198.64959      26.156342    
    540000   699.2538      -5481080.4      194.21719      197.49281      198.64959      142.66832    
    541000   699.73995     -5481023.1      194.21719      197.49281      198.64959      96.93189     
    542000   699.92799     -5481008.6      194.21719      197.49281      198.64959      128.59501    
    543000   699.22913     -5481082.5      194.21719      197.49281      198.64959      262.1426     
    544000   700.21565     -5481071        194.21719      197.49281      198.64959      75.155767    
    545000   699.12579     -5481152.6      194.21719      197.49281      198.64959      78.809374    
    546000   699.24535     -5481016.5      194.21719      197.49281      198.64959      51.355384    
    547000   699.82256     -5481094.4      194.21719      197.49281      198.64959      182.86848    
    548000   699.11849     -5481099.7      194.21719      197.49281      198.64959      152.86611    
    549000   701.03778     -5480937.7      194.21719      197.49281      198.64959      182.4843     
    550000   700.87933     -5480998.1      194.21719      197.49281      198.64959      210.12435    
    551000   700.47824     -5481074.2      194.21719      197.49281      198.64959      41.620715    
    552000   701.16833     -5480921.4      194.21719      197.49281      198.64959      66.239687    
    553000   699.78109     -5481055.7      194.21719      197.49281      198.64959      54.123832    
    554000   699.76718     -5481115.2      194.21719      197.49281      198.64959      61.827012    
    555000   698.77264     -5481091.3      194.21719      197.49281      198.64959      0.029511024  
    556000   700.24112     -5480986.8      194.21719      197.49281      198.64959      163.63578    
    557000   699.78258     -5481055.7      194.21719      197.49281      198.64959     -1.3735892    
    558000   701.49226     -5480980        194.21719      197.49281      198.64959      189.27327    
    559000   700.21933     -5481014.2      194.21719      197.49281      198.64959      106.56488    
    560000   698.8981      -5481106.6      194.21719      197.49281      198.64959      79.418729    
    561000   700.82051     -5481081.7      194.21719      197.49281      198.64959      114.85579    
    562000   698.41542     -5481125.8      194.21719      197.49281      198.64959      110.79062    
    563000   700.20008     -5480960.4      194.21719      197.49281      198.64959      53.028659    
    564000   700.3308      -5481001.1      194.21719      197.49281      198.64959      155.93371    
    565000   701.48048     -5480996.8      194.21719      197.49281      198.64959      20.796492    
    566000   698.69171     -5481120.1      194.21719      197.49281      198.64959     -79.009138    
    567000   699.77077     -5481175.3      194.21719      197.49281      198.64959      7.3074308    
    568000   699.40867     -5481135.6      194.21719      197.49281      198.64959      214.72737    
    569000   699.95142     -5481040.5      194.21719      197.49281      198.64959      96.966901    
    570000   700.72428     -5480972.7      194.21719      197.49281      198.64959      182.93924    
    571000   699.95066     -5480992.8      194.21719      197.49281      198.64959      64.742237    
    572000   701.46589     -5480846.4      194.21719      197.49281      198.64959      108.20089    
    573000   701.40018     -5480982.1      194.21719      197.49281      198.64959      85.375886    
    574000   700.12057     -5481068        194.21719      197.49281      198.64959      22.019948    
    575000   701.18372     -5480922.4      194.21719      197.49281      198.64959      103.45707    
    576000   699.16792     -5481062.3      194.21719      197.49281      198.64959      75.273375    
    577000   700.56659     -5480906.1      194.21719      197.49281      198.64959      167.23567    
    578000   701.65626     -5480927.8      194.21719      197.49281      198.64959      29.36787     
    579000   700.00478     -5480991.9      194.21719      197.49281      198.64959      116.6332     
    580000   699.8238      -5481185.2      194.21719      197.49281      198.64959      147.15802    
    581000   700.06017     -5481123.3      194.21719      197.49281      198.64959      80.661321    
    582000   700.50137     -5480991        194.21719      197.49281      198.64959      99.860818    
    583000   701.19298     -5480915.3      194.21719      197.49281      198.64959      177.43669    
    584000   699.46008     -5481131.4      194.21719      197.49281      198.64959      61.959538    
    585000   699.5908      -5481009        194.21719      197.49281      198.64959      182.28096    
    586000   701.15055     -5481002.2      194.21719      197.49281      198.64959      174.03025    
    587000   700.48117     -5480984.7      194.21719      197.49281      198.64959      104.51843    
    588000   699.48203     -5481076.2      194.21719      197.49281      198.64959      29.233328    
    589000   698.15968     -5481161.7      194.21719      197.49281      198.64959      46.599352    
    590000   701.70088     -5481004.6      194.21719      197.49281      198.64959      3.4867945    
    591000   700.82947     -5481003.9      194.21719      197.49281      198.64959      62.885517    
    592000   700.1977      -5481007        194.21719      197.49281      198.64959     -14.145348    
    593000   701.0147      -5481015.8      194.21719      197.49281      198.64959      210.41616    
    594000   700.48156     -5480997.5      194.21719      197.49281      198.64959      87.421258    
    595000   699.59837     -5481062.4      194.21719      197.49281      198.64959      55.725476    
    596000   699.85491     -5481005.8      194.21719      197.49281      198.64959      171.88755    
    597000   700.35181     -5480985.7      194.21719      197.49281      198.64959     -15.024923    
    598000   699.11293     -5481141.2      194.21719      197.49281      198.64959      70.227342    
    599000   699.27011     -5481130.3      194.21719      197.49281      198.64959      102.28923    
    600000   700.21355     -5481035.9      194.21719      197.49281      198.64959      171.31555    
    601000   699.39428     -5481028.2      194.21719      197.49281      198.64959      89.619389    
    602000   699.55299     -5481088.2      194.21719      197.49281      198.64959     -16.907037    
    603000   700.90244     -5481050.1      194.21719      197.49281      198.64959      53.276574    
    604000   700.00127     -5480932.8      194.21719      197.49281      198.64959     -65.157945    
    605000   700.62961     -5481023.5      194.21719      197.49281      198.64959      69.256872    
    606000   701.3108      -5480990.8      194.21719      197.49281      198.64959      20.95505     
    607000   700.4437      -5480888.7      194.21719      197.49281      198.64959      74.132736    
    608000   699.48526     -5480973.7      194.21719      197.49281      198.64959      295.5695     
    609000   698.86783     -5481228.9      194.21719      197.49281      198.64959      70.393569    
    610000   698.84697     -5481069.9      194.21719      197.49281      198.64959      33.474493    
    611000   700.41342     -5481046.9      194.21719      197.49281      198.64959      56.961716    
    612000   699.30916     -5481035.6      194.21719      197.49281      198.64959      24.100458    
    613000   699.99197     -5480961.5      194.21719      197.49281      198.64959      11.678961    
    614000   700.0755      -5480903.5      194.21719      197.49281      198.64959      180.03908    
    615000   700.99167     -5480930.4      194.21719      197.49281      198.64959      77.251948    
    616000   699.95088     -5480996.1      194.21719      197.49281      198.64959      41.064273    
    617000   700.56737     -5480878.9      194.21719      197.49281      198.64959      27.996307    
    618000   698.24898     -5481195.2      194.21719      197.49281      198.64959      52.471479    
    619000   700.61889     -5481046.5      194.21719      197.49281      198.64959     -55.487678    
    620000   700.2214      -5480982.3      194.21719      197.49281      198.64959      64.753081    
    621000   699.25097     -5481109        194.21719      197.49281      198.64959      25.707875    
    622000   699.12854     -5481249.6      194.21719      197.49281      198.64959      113.90914    
    623000   700.06158     -5481098.4      194.21719      197.49281      198.64959      135.43674    
    624000   700.15411     -5481029        194.21719      197.49281      198.64959      134.56942    
    625000   700.00516     -5481039.1      194.21719      197.49281      198.64959      89.273392    
    626000   699.69981     -5480959.2      194.21719      197.49281      198.64959      97.551046    
    627000   699.46133     -5481067.9      194.21719      197.49281      198.64959      139.44382    
    628000   700.23761     -5481080.3      194.21719      197.49281      198.64959      181.28272    
    629000   698.19874     -5481180.4      194.21719      197.49281      198.64959      65.296755    
    630000   698.56587     -5481100.9      194.21719      197.49281      198.64959      187.91709    
    631000   699.01165     -5481115.4      194.21719      197.49281      198.64959      113.17444    
    632000   701.50301     -5481018.4      194.21719      197.49281      198.64959      115.29292    
    633000   699.56713     -5481113.5      194.21719      197.49281      198.64959     -31.2957      
    634000   699.0858      -5481195.6      194.21719      197.49281      198.64959     -54.067004    
    635000   701.77065     -5480985.2      194.21719      197.49281      198.64959      104.6325     
    636000   699.66328     -5481105.5      194.21719      197.49281      198.64959     -97.526473    
    637000   701.85754     -5480967.7      194.21719      197.49281      198.64959      23.411991    
    638000   699.77167     -5480997.3      194.21719      197.49281      198.64959      68.693973    
    639000   699.8747      -5481003.5      194.21719      197.49281      198.64959     -53.630084    
    640000   701.25043     -5480903.8      194.21719      197.49281      198.64959      67.610686    
    641000   699.44598     -5481043        194.21719      197.49281      198.64959      116.06036    
    642000   700.86883     -5480962.2      194.21719      197.49281      198.64959      219.18926    
    643000   700.18013     -5480967.2      194.21719      197.49281      198.64959      65.009411    
    644000   700.45434     -5481031.4      194.21719      197.49281      198.64959      130.41442    
    645000   700.70667     -5481102.5      194.21719      197.49281      198.64959      145.5251     
    646000   698.94602     -5481096.4      194.21719      197.49281      198.64959      33.472008    
    647000   700.08606     -5481074.9      194.21719      197.49281      198.64959      92.5351      
    648000   700.61601     -5480988        194.21719      197.49281      198.64959      137.19312    
    649000   699.72093     -5481067.9      194.21719      197.49281      198.64959      121.98663    
    650000   700.00858     -5481037        194.21719      197.49281      198.64959      124.05573    
    651000   701.0392      -5480942.4      194.21719      197.49281      198.64959     -9.3490929    
    652000   699.48437     -5480996.3      194.21719      197.49281      198.64959      27.461905    
    653000   699.84535     -5481080.6      194.21719      197.49281      198.64959      219.4746     
    654000   700.79031     -5481036.5      194.21719      197.49281      198.64959      99.324672    
    655000   699.80528     -5481062.5      194.21719      197.49281      198.64959      158.40593    
    656000   699.76796     -5481039.8      194.21719      197.49281      198.64959     -0.70339561   
    657000   698.63761     -5481198.2      194.21719      197.49281      198.64959      241.7806     
    658000   700.5534      -5480923.4      194.21719      197.49281      198.64959      69.842491    
    659000   700.454       -5481001.4      194.21719      197.49281      198.64959      136.00282    
    660000   700.18476     -5481070.4      194.21719      197.49281      198.64959      240.56909    
    661000   698.91602     -5481155.8      194.21719      197.49281      198.64959      131.71349    
    662000   699.99972     -5481050.4      194.21719      197.49281      198.64959      73.201406    
    663000   699.81852     -5481110.1      194.21719      197.49281      198.64959      72.493838    
    664000   700.83015     -5481132.2      194.21719      197.49281      198.64959     -19.848722    
    665000   699.92599     -5480955.4      194.21719      197.49281      198.64959      110.62147    
    666000   700.54389     -5480936.3      194.21719      197.49281      198.64959      43.552514    
    667000   700.19356     -5481022.1      194.21719      197.49281      198.64959     -64.586411    
    668000   700.47358     -5480967.4      194.21719      197.49281      198.64959      78.175127    
    669000   699.52857     -5481040.3      194.21719      197.49281      198.64959      154.18237    
    670000   700.01565     -5481077.2      194.21719      197.49281      198.64959      156.34578    
    671000   699.22916     -5481156.6      194.21719      197.49281      198.64959      110.3014     
    672000   699.87122     -5481141.8      194.21719      197.49281      198.64959      81.488281    
    673000   698.66683     -5481156.1      194.21719      197.49281      198.64959      120.57198    
    674000   699.94613     -5481021        194.21719      197.49281      198.64959      62.856492    
    675000   699.71511     -5481027.4      194.21719      197.49281      198.64959      39.199381    
    676000   700.60182     -5481011.7      194.21719      197.49281      198.64959      140.66282    
    677000   700.02036     -5481067.3      194.21719      197.49281      198.64959      134.15958    
    678000   699.71234     -5481166.8      194.21719      197.49281      198.64959      82.180087    
    679000   700.529       -5481031.4      194.21719      197.49281      198.64959      117.53195    
    680000   699.79556     -5481066.8      194.21719      197.49281      198.64959     -16.075891    
    681000   699.82356     -5481051.8      194.21719      197.49281      198.64959      7.869907     
    682000   701.53774     -5480904.4      194.21719      197.49281      198.64959     -141.38549    
    683000   697.0109      -5481188.1      194.21719      197.49281      198.64959      20.695505    
    684000   701.96726     -5480909        194.21719      197.49281      198.64959     -71.390699    
    685000   699.99607     -5480906.2      194.21719      197.49281      198.64959      23.371506    
    686000   700.1716      -5481037        194.21719      197.49281      198.64959     -57.964057    
    687000   700.38863     -5481101.3      194.21719      197.49281      198.64959      30.505212    
    688000   700.45323     -5481072.3      194.21719      197.49281      198.64959      83.740229    
    689000   701.31378     -5480995.8      194.21719      197.49281      198.64959      137.57434    
    690000   701.77701     -5480921.6      194.21719      197.49281      198.64959      56.506566    
    691000   699.64621     -5481120.8      194.21719      197.49281      198.64959      94.382124    
    692000   700.10103     -5481136.9      194.21719      197.49281      198.64959      65.543224    
    693000   699.48661     -5481125.6      194.21719      197.49281      198.64959      51.119756    
    694000   700.47851     -5481033        194.21719      197.49281      198.64959      67.819267    
    695000   700.46721     -5481061.7      194.21719      197.49281      198.64959      71.864304    
    696000   699.67168     -5481003        194.21719      197.49281      198.64959     -140.83879    
    697000   699.28176     -5481035.6      194.21719      197.49281      198.64959      86.981749    
    698000   700.44557     -5481017.8      194.21719      197.49281      198.64959     -88.232491    
    699000   701.21181     -5480957.1      194.21719      197.49281      198.64959     -49.666681    
    700000   699.5445      -5481094.6      194.21719      197.49281      198.64959     -65.609215    
    701000   700.54327     -5481031.5      194.21719      197.49281      198.64959      94.923138    
    702000   701.03783     -5480814.1      194.21719      197.49281      198.64959      217.9803     
    703000   700.36929     -5481026.1      194.21719      197.49281      198.64959      132.28248    
    704000   699.50289     -5481069        194.21719      197.49281      198.64959     -19.517061    
    705000   698.25026     -5481200.4      194.21719      197.49281      198.64959      53.423638    
    706000   701.03855     -5480940.5      194.21719      197.49281      198.64959      90.671928    
    707000   698.47157     -5481298.6      194.21719      197.49281      198.64959     -2.2890413    
    708000   700.6879      -5481070.8      194.21719      197.49281      198.64959     -38.473521    
    709000   700.803       -5481000.8      194.21719      197.49281      198.64959      41.018009    
    710000   700.16683     -5481084.1      194.21719      197.49281      198.64959      27.993686    
    711000   700.69086     -5480954.7      194.21719      197.49281      198.64959      79.141916    
    712000   699.25653     -5481130.1      194.21719      197.49281      198.64959      107.96152    
    713000   701.55679     -5480945.1      194.21719      197.49281      198.64959      39.29346     
    714000   698.92782     -5481026.1      194.21719      197.49281      198.64959      102.5163     
    715000   699.76825     -5481108.1      194.21719      197.49281      198.64959      47.142705    
    716000   700.44761     -5481011.7      194.21719      197.49281      198.64959      41.702272    
    717000   699.79045     -5480995.3      194.21719      197.49281      198.64959      59.90838     
    718000   700.30749     -5481019.7      194.21719      197.49281      198.64959      4.9990858    
    719000   700.34624     -5481009.2      194.21719      197.49281      198.64959      106.5403     
    720000   699.85461     -5481155        194.21719      197.49281      198.64959      11.159874    
    721000   700.05703     -5480979        194.21719      197.49281      198.64959      123.23419    
    722000   700.01043     -5481043.3      194.21719      197.49281      198.64959      4.7758647    
    723000   700.54118     -5481120.4      194.21719      197.49281      198.64959      63.858004    
    724000   700.7719      -5480996.2      194.21719      197.49281      198.64959      57.351929    
    725000   701.0472      -5480936.7      194.21719      197.49281      198.64959      57.67339     
    726000   699.87252     -5481006.7      194.21719      197.49281      198.64959      44.326069    
    727000   699.94314     -5481147.5      194.21719      197.49281      198.64959     -138.7265     
    728000   701.63716     -5480951.2      194.21719      197.49281      198.64959      60.715125    
    729000   698.21564     -5481183.3      194.21719      197.49281      198.64959      58.806036    
    730000   700.33361     -5481055.6      194.21719      197.49281      198.64959      148.23728    
    731000   701.45334     -5480966.6      194.21719      197.49281      198.64959      193.23626    
    732000   700.21781     -5481107.4      194.21719      197.49281      198.64959     -31.833818    
    733000   699.49174     -5481056.3      194.21719      197.49281      198.64959      232.31394    
    734000   699.62602     -5481146.9      194.21719      197.49281      198.64959      88.183582    
    735000   699.92312     -5481075.8      194.21719      197.49281      198.64959      84.418085    
    736000   699.48403     -5481099.3      194.21719      197.49281      198.64959      193.51256    
    737000   699.96734     -5481119.5      194.21719      197.49281      198.64959      97.577291    
    738000   700.87759     -5481156.5      194.21719      197.49281      198.64959      99.151709    
    739000   699.79989     -5481028.5      194.21719      197.49281      198.64959     -9.0586363    
    740000   700.18581     -5481080.8      194.21719      197.49281      198.64959     -40.266044    
    741000   699.02502     -5481234.3      194.21719      197.49281      198.64959      48.617648    
    742000   699.7883      -5481117.1      194.21719      197.49281      198.64959     -6.4650164    
    743000   701.42905     -5480823.8      194.21719      197.49281      198.64959     -67.966095    
    744000   699.71737     -5481016.7      194.21719      197.49281      198.64959      350.81229    
    745000   698.8521      -5481127        194.21719      197.49281      198.64959      50.452984    
    746000   699.99742     -5481066.4      194.21719      197.49281      198.64959      170.35749    
    747000   699.8658      -5481019.9      194.21719      197.49281      198.64959      185.82961    
    748000   699.71399     -5481052.3      194.21719      197.49281      198.64959     -8.4548429    
    749000   700.40826     -5481018        194.21719      197.49281      198.64959      113.76272    
    750000   699.83161     -5481050        194.21719      197.49281      198.64959      27.004777    
    751000   699.73448     -5481076.2      194.21719      197.49281      198.64959      89.95144     
    752000   699.66532     -5481089.1      194.21719      197.49281      198.64959      61.388795    
    753000   700.26813     -5481011.5      194.21719      197.49281      198.64959      29.563378    
    754000   699.75937     -5481058.3      194.21719      197.49281      198.64959      26.293875    
    755000   701.17727     -5480975.1      194.21719      197.49281      198.64959      109.37726    
    756000   698.45256     -5481197.5      194.21719      197.49281      198.64959      50.640596    
    757000   700.26055     -5480982.4      194.21719      197.49281      198.64959      71.265641    
    758000   700.04117     -5481042.1      194.21719      197.49281      198.64959      153.72745    
    759000   699.55727     -5481072.7      194.21719      197.49281      198.64959      70.411794    
    760000   698.94984     -5481156.6      194.21719      197.49281      198.64959      63.166011    
    761000   699.41101     -5481093.8      194.21719      197.49281      198.64959      26.957364    
    762000   699.87082     -5481154.6      194.21719      197.49281      198.64959      29.694849    
    763000   700.62008     -5480922.1      194.21719      197.49281      198.64959      59.306259    
    764000   699.62751     -5481117        194.21719      197.49281      198.64959     -14.343193    
    765000   699.03306     -5481168.7      194.21719      197.49281      198.64959      87.01001     
    766000   699.79364     -5481115.1      194.21719      197.49281      198.64959     -57.557025    
    767000   698.73534     -5481165.9      194.21719      197.49281      198.64959     -225.34581    
    768000   700.23223     -5481005.7      194.21719      197.49281      198.64959      24.00956     
    769000   699.97177     -5481100.4      194.21719      197.49281      198.64959      105.17661    
    770000   700.58492     -5480963.1      194.21719      197.49281      198.64959     -63.318077    
    771000   699.82438     -5481106.7      194.21719      197.49281      198.64959     -11.004628    
    772000   699.21434     -5481093.9      194.21719      197.49281      198.64959      5.1598528    
    773000   700.33251     -5481059.9      194.21719      197.49281      198.64959      17.344246    
    774000   700.24866     -5481091        194.21719      197.49281      198.64959      160.87974    
    775000   699.4159      -5481064.6      194.21719      197.49281      198.64959      87.550221    
    776000   701.31808     -5481005.9      194.21719      197.49281      198.64959      141.41328    
    777000   700.53577     -5481048.1      194.21719      197.49281      198.64959     -72.875621    
    778000   700.27427     -5481015        194.21719      197.49281      198.64959      28.754629    
    779000   699.67524     -5481066.7      194.21719      197.49281      198.64959      266.41156    
    780000   700.24605     -5481038.1      194.21719      197.49281      198.64959     -8.7887909    
    781000   699.39147     -5481030.3      194.21719      197.49281      198.64959      106.76223    
    782000   699.93663     -5481027.3      194.21719      197.49281      198.64959     -31.291644    
    783000   699.44104     -5481032.4      194.21719      197.49281      198.64959      96.290759    
    784000   700.09667     -5481149.1      194.21719      197.49281      198.64959      21.86303     
    785000   700.69942     -5481032.7      194.21719      197.49281      198.64959     -88.533595    
    786000   699.50275     -5481121.5      194.21719      197.49281      198.64959      67.503525    
    787000   700.7397      -5480982.1      194.21719      197.49281      198.64959      68.980236    
    788000   700.22805     -5481170.5      194.21719      197.49281      198.64959     -122.41666    
    789000   702.17757     -5480825.7      194.21719      197.49281      198.64959      73.189918    
    790000   700.84234     -5481043.1      194.21719      197.49281      198.64959     -82.7241      
    791000   699.78061     -5481010.7      194.21719      197.49281      198.64959      98.051454    
    792000   700.71351     -5481053        194.21719      197.49281      198.64959      66.162874    
    793000   701.18767     -5480965.9      194.21719      197.49281      198.64959      159.63013    
    794000   699.58421     -5481116.8      194.21719      197.49281      198.64959      23.204845    
    795000   700.15116     -5481048.6      194.21719      197.49281      198.64959      100.75748    
    796000   700.76383     -5481111.4      194.21719      197.49281      198.64959      113.19232    
    797000   701.99726     -5480868.3      194.21719      197.49281      198.64959      98.788709    
    798000   698.76735     -5481156.3      194.21719      197.49281      198.64959      3.2754469    
    799000   700.90904     -5481081        194.21719      197.49281      198.64959      6.3341302    
    800000   699.95404     -5481098.2      194.21719      197.49281      198.64959     -20.153429    
    801000   701.40125     -5480973.4      194.21719      197.49281      198.64959     -78.137567    
    802000   700.37937     -5481179.3      194.21719      197.49281      198.64959      98.05132     
    803000   700.19114     -5481056.1      194.21719      197.49281      198.64959     -31.054645    
    804000   700.61056     -5480906.4      194.21719      197.49281      198.64959      66.538868    
    805000   699.86093     -5481061.1      194.21719      197.49281      198.64959      42.582719    
    806000   699.69727     -5481082.5      194.21719      197.49281      198.64959     -66.866418    
    807000   699.98589     -5481036.6      194.21719      197.49281      198.64959     -33.838659    
    808000   701.16072     -5480967.3      194.21719      197.49281      198.64959     -30.026232    
    809000   700.15231     -5480996.8      194.21719      197.49281      198.64959      10.089513    
    810000   699.73633     -5481101.9      194.21719      197.49281      198.64959      36.579143    
    811000   699.65987     -5481064.6      194.21719      197.49281      198.64959      21.229653    
    812000   699.83692     -5481090.3      194.21719      197.49281      198.64959      11.956128    
    813000   698.71445     -5481127.9      194.21719      197.49281      198.64959     -2.6511717    
    814000   700.46695     -5481008.1      194.21719      197.49281      198.64959     -2.2452964    
    815000   698.97897     -5481120.5      194.21719      197.49281      198.64959     -78.774265    
    816000   698.4442      -5481203.1      194.21719      197.49281      198.64959      126.03753    
    817000   700.41344     -5481042.8      194.21719      197.49281      198.64959      176.84142    
    818000   700.05702     -5481109.8      194.21719      197.49281      198.64959      87.871904    
    819000   701.62622     -5480960.6      194.21719      197.49281      198.64959      65.849041    
    820000   700.32064     -5481076.3      194.21719      197.49281      198.64959      146.54172    
    821000   701.12532     -5481088.7      194.21719      197.49281      198.64959      36.995136    
    822000   701.09314     -5480835.1      194.21719      197.49281      198.64959      145.80731    
    823000   698.40533     -5481153.6      194.21719      197.49281      198.64959      31.886168    
    824000   699.953       -5481087        194.21719      197.49281      198.64959     -35.163076    
    825000   700.5761      -5481048.8      194.21719      197.49281      198.64959     -53.041007    
    826000   701.57685     -5481019.3      194.21719      197.49281      198.64959      27.708502    
    827000   699.89726     -5481083.4      194.21719      197.49281      198.64959      12.192066    
    828000   701.3023      -5480939.7      194.21719      197.49281      198.64959     -1.9666913    
    829000   701.3075      -5480930        194.21719      197.49281      198.64959      100.06415    
    830000   701.5286      -5480980        194.21719      197.49281      198.64959      254.81027    
    831000   699.23551     -5481081.2      194.21719      197.49281      198.64959      190.99065    
    832000   700.95888     -5481035.9      194.21719      197.49281      198.64959      95.817707    
    833000   700.13301     -5481089.4      194.21719      197.49281      198.64959      97.169752    
    834000   699.0383      -5481152.6      194.21719      197.49281      198.64959      94.759558    
    835000   701.08003     -5481001.7      194.21719      197.49281      198.64959      146.81897    
    836000   701.21813     -5480960.9      194.21719      197.49281      198.64959      137.04108    
    837000   700.52669     -5481134.2      194.21719      197.49281      198.64959      24.326888    
    838000   700.44931     -5481128.2      194.21719      197.49281      198.64959      65.482262    
    839000   700.64983     -5481043.9      194.21719      197.49281      198.64959      3.1783687    
    840000   699.65472     -5481047.9      194.21719      197.49281      198.64959      85.732112    
    841000   700.0633      -5481108.5      194.21719      197.49281      198.64959      55.03054     
    842000   698.54755     -5481182.5      194.21719      197.49281      198.64959     -14.028962    
    843000   700.34221     -5481004.4      194.21719      197.49281      198.64959      172.63915    
    844000   700.81719     -5481031.3      194.21719      197.49281      198.64959      17.979434    
    845000   699.76896     -5481130.8      194.21719      197.49281      198.64959     -3.6494787    
    846000   700.9767      -5480983.3      194.21719      197.49281      198.64959      135.81081    
    847000   698.64901     -5481111.4      194.21719      197.49281      198.64959      199.9878     
    848000   699.54772     -5481074.3      194.21719      197.49281      198.64959      27.818747    
    849000   700.59665     -5480996.2      194.21719      197.49281      198.64959      51.491093    
    850000   699.33474     -5481101.8      194.21719      197.49281      198.64959      106.39251    
    851000   699.96876     -5481120.8      194.21719      197.49281      198.64959      140.13436    
    852000   699.9159      -5481064.7      194.21719      197.49281      198.64959      116.04784    
    853000   700.97324     -5481066.5      194.21719      197.49281      198.64959      96.672211    
    854000   700.31261     -5481031.2      194.21719      197.49281      198.64959      160.18642    
    855000   699.85897     -5481083.9      194.21719      197.49281      198.64959      196.9321     
    856000   700.72035     -5481034.4      194.21719      197.49281      198.64959     -39.034372    
    857000   700.45788     -5481005.8      194.21719      197.49281      198.64959      48.375962    
    858000   700.04065     -5481087        194.21719      197.49281      198.64959      26.568593    
    859000   699.55527     -5481111.6      194.21719      197.49281      198.64959      49.624986    
    860000   700.14195     -5481007.9      194.21719      197.49281      198.64959      34.809756    
    861000   699.22427     -5481068.7      194.21719      197.49281      198.64959      52.174315    
    862000   699.35459     -5481085.6      194.21719      197.49281      198.64959     -48.700318    
    863000   699.91007     -5481016.9      194.21719      197.49281      198.64959      19.462467    
    864000   698.63532     -5481172.9      194.21719      197.49281      198.64959      49.388893    
    865000   700.19792     -5480964.6      194.21719      197.49281      198.64959      231.59733    
    866000   700.09938     -5481101.2      194.21719      197.49281      198.64959      32.490871    
    867000   702.5254      -5480924.6      194.21719      197.49281      198.64959      162.68356    
    868000   699.81506     -5481037.2      194.21719      197.49281      198.64959      29.626978    
    869000   700.10964     -5481026.2      194.21719      197.49281      198.64959      18.979193    
    870000   700.63215     -5481066.9      194.21719      197.49281      198.64959      3.9659263    
    871000   699.93579     -5480979.3      194.21719      197.49281      198.64959      31.808215    
    872000   699.56986     -5481102        194.21719      197.49281      198.64959      95.922051    
    873000   699.50079     -5481181.5      194.21719      197.49281      198.64959      11.669081    
    874000   700.61779     -5481011.4      194.21719      197.49281      198.64959      63.997694    
    875000   699.83552     -5481055.7      194.21719      197.49281      198.64959      57.518295    
    876000   700.45533     -5481047.1      194.21719      197.49281      198.64959      145.88767    
    877000   699.03425     -5481091        194.21719      197.49281      198.64959      72.941372    
    878000   698.49759     -5481157        194.21719      197.49281      198.64959     -148.37017    
    879000   700.29393     -5480985.7      194.21719      197.49281      198.64959     -148.39798    
    880000   699.30094     -5481146.1      194.21719      197.49281      198.64959     -71.189878    
    881000   700.05942     -5481025.1      194.21719      197.49281      198.64959      91.829181    
    882000   699.50267     -5480998.9      194.21719      197.49281      198.64959      39.883775    
    883000   700.88892     -5480980.9      194.21719      197.49281      198.64959     -43.205294    
    884000   699.41864     -5481143.2      194.21719      197.49281      198.64959     -19.222891    
    885000   700.19356     -5481025.6      194.21719      197.49281      198.64959     -63.369432    
    886000   699.64996     -5481091.5      194.21719      197.49281      198.64959     -102.83311    
    887000   699.89638     -5481035.1      194.21719      197.49281      198.64959     -29.067954    
    888000   700.42729     -5480975.4      194.21719      197.49281      198.64959      98.097168    
    889000   699.66827     -5481025.6      194.21719      197.49281      198.64959      28.089116    
    890000   700.4074      -5481082.9      194.21719      197.49281      198.64959     -66.603355    
    891000   700.25324     -5481026.6      194.21719      197.49281      198.64959     -46.522883    
    892000   700.63768     -5481027.6      194.21719      197.49281      198.64959      113.39177    
    893000   699.72041     -5481122.5      194.21719      197.49281      198.64959      150.83723    
    894000   698.96398     -5481226.1      194.21719      197.49281      198.64959     -33.371484    
    895000   700.16378     -5481048        194.21719      197.49281      198.64959     -26.902799    
    896000   700.11694     -5481168.4      194.21719      197.49281      198.64959      15.629829    
    897000   700.0489      -5481022.9      194.21719      197.49281      198.64959     -23.194222    
    898000   700.1374      -5481027.9      194.21719      197.49281      198.64959      14.957819    
    899000   701.37061     -5480890.1      194.21719      197.49281      198.64959     -34.872935    
    900000   700.17683     -5481196.2      194.21719      197.49281      198.64959      41.82185     
    901000   700.7051      -5481053.2      194.21719      197.49281      198.64959      24.185981    
    902000   700.08335     -5481091        194.21719      197.49281      198.64959      7.408782     
    903000   698.51798     -5481252.4      194.21719      197.49281      198.64959     -42.005793    
    904000   698.9739      -5481147.3      194.21719      197.49281      198.64959      113.19129    
    905000   699.30006     -5481126.9      194.21719      197.49281      198.64959      40.40447     
    906000   700.69907     -5481130.7      194.21719      197.49281      198.64959     -6.0719341    
    907000   700.61355     -5480983.2      194.21719      197.49281      198.64959      93.018597    
    908000   699.63196     -5481112.9      194.21719      197.49281      198.64959      20.457638    
    909000   700.51101     -5481071.2      194.21719      197.49281      198.64959      131.00129    
    910000   698.79493     -5481106.7      194.21719      197.49281      198.64959      20.311558    
    911000   699.67519     -5481095.4      194.21719      197.49281      198.64959      144.78949    
    912000   698.80838     -5481177.7      194.21719      197.49281      198.64959      21.919296    
    913000   699.89011     -5481065.7      194.21719      197.49281      198.64959      166.13793    
    914000   699.41214     -5481122.6      194.21719      197.49281      198.64959      96.795434    
    915000   699.74874     -5481143.1      194.21719      197.49281      198.64959      126.51207    
    916000   699.55227     -5481141.6      194.21719      197.49281      198.64959      56.061385    
    917000   699.91851     -5481125.5      194.21719      197.49281      198.64959      19.894976    
    918000   699.6804      -5481069.1      194.21719      197.49281      198.64959     -21.312281    
    919000   699.28509     -5481178.5      194.21719      197.49281      198.64959     -27.042158    
    920000   699.47788     -5481033.1      194.21719      197.49281      198.64959      137.44716    
    921000   699.7777      -5480923.9      194.21719      197.49281      198.64959      186.45724    
    922000   699.43047     -5481090.7      194.21719      197.49281      198.64959      36.656741    
    923000   697.86778     -5481163.2      194.21719      197.49281      198.64959      105.99468    
    924000   699.99173     -5481102.9      194.21719      197.49281      198.64959     -13.231059    
    925000   699.63585     -5481048.8      194.21719      197.49281      198.64959     -3.5248235    
    926000   699.93217     -5481210.2      194.21719      197.49281      198.64959     -27.854021    
    927000   699.8307      -5480937.6      194.21719      197.49281      198.64959      216.91343    
    928000   699.41748     -5481102.4      194.21719      197.49281      198.64959      69.172993    
    929000   699.31086     -5481054.6      194.21719      197.49281      198.64959      128.31313    
    930000   700.35303     -5481098.9      194.21719      197.49281      198.64959     -0.76122686   
    931000   699.54566     -5481118.5      194.21719      197.49281      198.64959     -55.542831    
    932000   698.98955     -5481119.8      194.21719      197.49281      198.64959     -37.604057    
    933000   702.285       -5480876.5      194.21719      197.49281      198.64959     -47.071989    
    934000   699.64382     -5481153.7      194.21719      197.49281      198.64959      41.4826      
    935000   699.46665     -5481082        194.21719      197.49281      198.64959      91.493333    
    936000   699.8296      -5481095.2      194.21719      197.49281      198.64959      69.343924    
    937000   698.82864     -5481131.2      194.21719      197.49281      198.64959      51.255275    
    938000   699.11109     -5481123.5      194.21719      197.49281      198.64959      80.15012     
    939000   700.017       -5481065        194.21719      197.49281      198.64959      88.763628    
    940000   700.83035     -5481059.4      194.21719      197.49281      198.64959      105.99782    
    941000   700.4072      -5480918.8      194.21719      197.49281      198.64959      237.85646    
    942000   701.19155     -5480997.9      194.21719      197.49281      198.64959      86.279489    
    943000   699.35832     -5481086.6      194.21719      197.49281      198.64959      70.777714    
    944000   700.05738     -5481128.9      194.21719      197.49281      198.64959      147.91437    
    945000   700.38419     -5481078.7      194.21719      197.49281      198.64959     -0.32371298   
    946000   701.1005      -5481057.1      194.21719      197.49281      198.64959     -17.208315    
    947000   699.63854     -5481109.7      194.21719      197.49281      198.64959      43.565885    
    948000   699.736       -5481104.3      194.21719      197.49281      198.64959      92.487816    
    949000   700.15918     -5481101.1      194.21719      197.49281      198.64959     -90.468199    
    950000   699.78443     -5481066.2      194.21719      197.49281      198.64959     -179.63943    
    951000   700.97163     -5480971.6      194.21719      197.49281      198.64959      127.34573    
    952000   699.40171     -5481037.2      194.21719      197.49281      198.64959     -14.945063    
    953000   700.55263     -5481051.3      194.21719      197.49281      198.64959     -114.64547    
    954000   699.56809     -5481121.3      194.21719      197.49281      198.64959     -21.040339    
    955000   700.25595     -5481016.1      194.21719      197.49281      198.64959     -43.060509    
    956000   699.94255     -5481106.3      194.21719      197.49281      198.64959      124.48644    
    957000   701.57639     -5481031.4      194.21719      197.49281      198.64959      50.121412    
    958000   700.27873     -5481062.5      194.21719      197.49281      198.64959      85.503721    
    959000   701.16271     -5481011.3      194.21719      197.49281      198.64959      88.102333    
    960000   698.76        -5481037        194.21719      197.49281      198.64959      91.246258    
    961000   700.17813     -5481155        194.21719      197.49281      198.64959      50.443852    
    962000   701.84004     -5480871.3      194.21719      197.49281      198.64959     -9.2833489    
    963000   699.86137     -5481158.1      194.21719      197.49281      198.64959      94.086917    
    964000   698.83957     -5481202.8      194.21719      197.49281      198.64959     -44.60483     
    965000   699.22986     -5481135.7      194.21719      197.49281      198.64959     -54.223096    
    966000   701.3917      -5480952.1      194.21719      197.49281      198.64959      193.5782     
    967000   699.50771     -5481163.7      194.21719      197.49281      198.64959      14.419843    
    968000   699.84929     -5481088.9      194.21719      197.49281      198.64959      86.575203    
    969000   700.57458     -5481035.8      194.21719      197.49281      198.64959      116.67955    
    970000   699.22425     -5481188.6      194.21719      197.49281      198.64959      30.942587    
    971000   699.60333     -5481184.5      194.21719      197.49281      198.64959      73.466188    
    972000   699.79294     -5481097.1      194.21719      197.49281      198.64959      271.98181    
    973000   700.60447     -5481062.1      194.21719      197.49281      198.64959     -4.3622948    
    974000   699.95833     -5481141.6      194.21719      197.49281      198.64959     -37.118379    
    975000   700.44276     -5481055.6      194.21719      197.49281      198.64959      61.880523    
    976000   700.11434     -5480999.4      194.21719      197.49281      198.64959      81.266612    
    977000   700.13335     -5481092.8      194.21719      197.49281      198.64959      10.629339    
    978000   699.28957     -5481040.3      194.21719      197.49281      198.64959     -32.472692    
    979000   700.17271     -5481089.1      194.21719      197.49281      198.64959     -13.727474    
    980000   700.67468     -5481032        194.21719      197.49281      198.64959     -40.898424    
    981000   700.0632      -5480944.6      194.21719      197.49281      198.64959      42.270684    
    982000   699.0895      -5481167.2      194.21719      197.49281      198.64959      112.36303    
    983000   700.08461     -5481037.2      194.21719      197.49281      198.64959     -26.073878    
    984000   699.64209     -5481077.2      194.21719      197.49281      198.64959     -48.592718    
    985000   699.73256     -5481004.7      194.21719      197.49281      198.64959      120.31744    
    986000   699.95589     -5481071.5      194.21719      197.49281      198.64959      67.840705    
    987000   698.54588     -5481225.2      194.21719      197.49281      198.64959      215.94738    
    988000   700.22398     -5481035.4      194.21719      197.49281      198.64959      46.042284    
    989000   699.73818     -5481094.7      194.21719      197.49281      198.64959      66.410807    
    990000   701.25486     -5481013.7      194.21719      197.49281      198.64959      138.37337    
    991000   700.34339     -5481062.2      194.21719      197.49281      198.64959      106.55624    
    992000   700.36595     -5480999        194.21719      197.49281      198.64959      94.961161    
    993000   700.44405     -5481124.7      194.21719      197.49281      198.64959      45.303448    
    994000   699.77024     -5481121        194.21719      197.49281      198.64959      161.97029    
    995000   700.87165     -5480963.1      194.21719      197.49281      198.64959      177.97376    
    996000   698.92424     -5481191.8      194.21719      197.49281      198.64959      272.81169    
    997000   699.54157     -5481113.7      194.21719      197.49281      198.64959      47.786559    
    998000   700.22778     -5481037.2      194.21719      197.49281      198.64959      98.270735    
    999000   699.35918     -5481155.2      194.21719      197.49281      198.64959      164.54151    
   1000000   700.32159     -5481175.2      194.21719      197.49281      198.64959      56.155454    
   1001000   700.0847      -5480977.5      194.21719      197.49281      198.64959      67.445664    
   1002000   699.68815     -5481135.3      194.21719      197.49281      198.64959      63.519953    
   1003000   699.94407     -5481093.7      194.21719      197.49281      198.64959      92.561011    
   1004000   699.9218      -5481081        194.21719      197.49281      198.64959     -92.884687    
   1005000   698.40719     -5481169.7      194.21719      197.49281      198.64959     -49.240405    
   1006000   698.76324     -5481012.7      194.21719      197.49281      198.64959      120.76935    
   1007000   699.87945     -5481095.3      194.21719      197.49281      198.64959      151.62488    
   1008000   698.31234     -5481176.3      194.21719      197.49281      198.64959      134.71655    
   1009000   698.6851      -5481157        194.21719      197.49281      198.64959      95.230946    
   1010000   698.62993     -5481216        194.21719      197.49281      198.64959     -97.450197    
   1011000   700.26608     -5481080.6      194.21719      197.49281      198.64959     -28.949095    
   1012000   701.07618     -5480971.6      194.21719      197.49281      198.64959      189.36706    
   1013000   702.10649     -5480981.7      194.21719      197.49281      198.64959     -60.654225    
   1014000   699.70932     -5481043.2      194.21719      197.49281      198.64959      111.33309    
   1015000   698.89135     -5481230.9      194.21719      197.49281      198.64959     -22.774897    
   1016000   699.71484     -5481184        194.21719      197.49281      198.64959      73.448679    
   1017000   700.44967     -5481145.3      194.21719      197.49281      198.64959      131.73263    
   1018000   700.4435      -5480985.6      194.21719      197.49281      198.64959      142.98066    
   1019000   699.06737     -5481064.2      194.21719      197.49281      198.64959      59.222949    
   1020000   701.01398     -5481035.5      194.21719      197.49281      198.64959      189.04022    
   1021000   698.89298     -5481118.3      194.21719      197.49281      198.64959      142.47599    
   1022000   700.18555     -5481129.4      194.21719      197.49281      198.64959      88.040441    
   1023000   699.69025     -5481105.4      194.21719      197.49281      198.64959      133.28049    
   1024000   699.58622     -5481080.5      194.21719      197.49281      198.64959      168.23222    
   1025000   701.16096     -5480974.3      194.21719      197.49281      198.64959      63.721479    
   1026000   700.5774      -5481096.2      194.21719      197.49281      198.64959      74.586425    
   1027000   701.27005     -5481081.5      194.21719      197.49281      198.64959     -6.621198     
   1028000   701.53201     -5481093.9      194.21719      197.49281      198.64959     -118.7833     
   1029000   700.09362     -5481209.5      194.21719      197.49281      198.64959      21.222392    
   1030000   700.75232     -5481061.4      194.21719      197.49281      198.64959      109.97934    
   1031000   699.97705     -5481131.6      194.21719      197.49281      198.64959     -96.859095    
   1032000   699.80437     -5481002.3      194.21719      197.49281      198.64959      79.495573    
   1033000   700.70118     -5481030.6      194.21719      197.49281      198.64959      39.84491     
   1034000   699.07159     -5481189.6      194.21719      197.49281      198.64959      117.81141    
   1035000   699.27101     -5481113.2      194.21719      197.49281      198.64959      71.776105    
   1036000   700.3643      -5481058.4      194.21719      197.49281      198.64959      75.230388    
   1037000   700.52363     -5481020.3      194.21719      197.49281      198.64959      178.91292    
   1038000   699.65636     -5481141        194.21719      197.49281      198.64959      116.36406    
   1039000   700.7039      -5481032.9      194.21719      197.49281      198.64959      201.52673    
   1040000   699.32698     -5481182.1      194.21719      197.49281      198.64959      30.273146    
   1041000   699.28301     -5481140.7      194.21719      197.49281      198.64959      273.35666    
   1042000   700.74247     -5480922.6      194.21719      197.49281      198.64959      44.950115    
   1043000   699.70629     -5481112.8      194.21719      197.49281      198.64959      67.006317    
   1044000   699.74685     -5481211.2      194.21719      197.49281      198.64959     -84.9367      
   1045000   699.09798     -5481140        194.21719      197.49281      198.64959     -48.761507    
   1046000   699.72187     -5481062.3      194.21719      197.49281      198.64959      70.206933    
   1047000   699.69403     -5481022.3      194.21719      197.49281      198.64959      31.930043    
   1048000   700.25602     -5481123.2      194.21719      197.49281      198.64959      139.95558    
   1049000   700.19706     -5481127.2      194.21719      197.49281      198.64959      103.07923    
   1050000   699.09033     -5481098.2      194.21719      197.49281      198.64959      172.30079    
   1051000   700.33001     -5481073.6      194.21719      197.49281      198.64959      309.34477    
   1052000   700.38754     -5480982.7      194.21719      197.49281      198.64959      214.44478    
   1053000   701.77779     -5480953.2      194.21719      197.49281      198.64959      63.128311    
   1054000   700.7201      -5480960        194.21719      197.49281      198.64959      166.96148    
   1055000   700.90886     -5481098.9      194.21719      197.49281      198.64959      188.99828    
   1056000   698.43739     -5481135.1      194.21719      197.49281      198.64959      181.4086     
   1057000   701.30613     -5481050.3      194.21719      197.49281      198.64959      59.547939    
   1058000   700.58637     -5480962        194.21719      197.49281      198.64959      160.29038    
   1059000   699.67744     -5481049        194.21719      197.49281      198.64959      66.429132    
   1060000   701.16056     -5481031.7      194.21719      197.49281      198.64959      35.612955    
   1061000   698.68886     -5481073        194.21719      197.49281      198.64959      174.69567    
   1062000   699.86077     -5481155        194.21719      197.49281      198.64959      169.15112    
   1063000   697.45041     -5481290.8      194.21719      197.49281      198.64959      23.470958    
   1064000   701.04277     -5480975.6      194.21719      197.49281      198.64959      143.13501    
   1065000   699.54179     -5481089.4      194.21719      197.49281      198.64959      77.838973    
   1066000   698.82055     -5481133.1      194.21719      197.49281      198.64959      103.406      
   1067000   699.41481     -5481157.7      194.21719      197.49281      198.64959     -39.01121     
   1068000   700.54126     -5481092.9      194.21719      197.49281      198.64959      61.408963    
   1069000   701.27933     -5481034.6      194.21719      197.49281      198.64959      162.2615     
   1070000   699.51731     -5481081.4      194.21719      197.49281      198.64959     -8.5422442    
   1071000   699.96499     -5481103.8      194.21719      197.49281      198.64959      63.59672     
   1072000   698.24887     -5481068.8      194.21719      197.49281      198.64959      158.97037    
   1073000   699.54861     -5481078.4      194.21719      197.49281      198.64959      138.99049    
   1074000   700.30794     -5481111.5      194.21719      197.49281      198.64959     -15.056749    
   1075000   700.40366     -5481053.1      194.21719      197.49281      198.64959      104.13176    
   1076000   700.45638     -5481014.9      194.21719      197.49281      198.64959      69.850003    
   1077000   698.81869     -5481137.5      194.21719      197.49281      198.64959      82.571867    
   1078000   699.0547      -5481160.9      194.21719      197.49281      198.64959     -34.736375    
   1079000   699.48759     -5481055.2      194.21719      197.49281      198.64959      32.071134    
   1080000   700.46599     -5481110.2      194.21719      197.49281      198.64959      76.274523    
   1081000   700.41595     -5481096.6      194.21719      197.49281      198.64959      82.014887    
   1082000   699.51684     -5481040.8      194.21719      197.49281      198.64959     -13.082415    
   1083000   700.68173     -5481055.2      194.21719      197.49281      198.64959     -11.634359    
   1084000   698.74834     -5481207.5      194.21719      197.49281      198.64959      96.302026    
   1085000   699.12783     -5481202        194.21719      197.49281      198.64959      7.5906575    
   1086000   699.65079     -5481018.6      194.21719      197.49281      198.64959      98.209257    
   1087000   699.70679     -5481047.1      194.21719      197.49281      198.64959      56.702346    
   1088000   700.60167     -5481006.7      194.21719      197.49281      198.64959      142.80941    
   1089000   699.37291     -5481078.6      194.21719      197.49281      198.64959      68.596856    
   1090000   699.56134     -5481129.8      194.21719      197.49281      198.64959      61.94812     
   1091000   699.44172     -5481134.3      194.21719      197.49281      198.64959      251.97833    
   1092000   699.8111      -5481168.1      194.21719      197.49281      198.64959      154.18163    
   1093000   700.36681     -5481042.1      194.21719      197.49281      198.64959      173.39716    
   1094000   700.15488     -5481106.3      194.21719      197.49281      198.64959      122.10609    
   1095000   697.65713     -5481193.8      194.21719      197.49281      198.64959      179.6276     
   1096000   700.76329     -5480983        194.21719      197.49281      198.64959      108.46649    
   1097000   699.59685     -5481110.7      194.21719      197.49281      198.64959     -3.7937551    
   1098000   700.58702     -5480965.1      194.21719      197.49281      198.64959      97.258656    
   1099000   699.4761      -5481240.7      194.21719      197.49281      198.64959      33.37416     
   1100000   700.89206     -5481066.6      194.21719      197.49281      198.64959      68.99714     
   1101000   699.3159      -5481185.9      194.21719      197.49281      198.64959      70.235531    
   1102000   700.2028      -5481028.1      194.21719      197.49281      198.64959      44.263693    
   1103000   700.22791     -5481158.8      194.21719      197.49281      198.64959      57.060224    
   1104000   700.51225     -5481040.2      194.21719      197.49281      198.64959      189.95234    
   1105000   702.14709     -5480931.3      194.21719      197.49281      198.64959      58.983003    
   1106000   700.64311     -5481171.5      194.21719      197.49281      198.64959      111.22064    
   1107000   700.22951     -5481115.5      194.21719      197.49281      198.64959      128.72014    
   1108000   700.34405     -5481108.9      194.21719      197.49281      198.64959      311.09649    
   1109000   699.00624     -5481231.6      194.21719      197.49281      198.64959      187.15879    
   1110000   699.91496     -5481034.3      194.21719      197.49281      198.64959      139.19624    
   1111000   700.41676     -5481182.9      194.21719      197.49281      198.64959      150.40188    
   1112000   700.44062     -5480998.9      194.21719      197.49281      198.64959      194.51441    
   1113000   699.65748     -5481058.1      194.21719      197.49281      198.64959      106.4525     
   1114000   700.83491     -5481091.1      194.21719      197.49281      198.64959      159.61387    
   1115000   698.91735     -5481146.8      194.21719      197.49281      198.64959      239.39076    
   1116000   700.60836     -5481029        194.21719      197.49281      198.64959     -24.67935     
   1117000   701.43737     -5481095.1      194.21719      197.49281      198.64959      129.11036    
   1118000   699.20067     -5481199.4      194.21719      197.49281      198.64959      86.50221     
   1119000   699.40331     -5481113.4      194.21719      197.49281      198.64959      126.73152    
   1120000   698.86927     -5481123.1      194.21719      197.49281      198.64959      213.086      
   1121000   699.84553     -5481124.1      194.21719      197.49281      198.64959      105.37361    
   1122000   699.92683     -5481101.1      194.21719      197.49281      198.64959      243.91853    
   1123000   700.04539     -5481078.8      194.21719      197.49281      198.64959     -1.7594018    
   1124000   699.89241     -5481205.2      194.21719      197.49281      198.64959     -28.587845    
   1125000   700.44226     -5481090        194.21719      197.49281      198.64959      88.586144    
   1126000   699.47261     -5481167.3      194.21719      197.49281      198.64959      35.295171    
   1127000   699.99845     -5481158.6      194.21719      197.49281      198.64959      102.76359    
   1128000   699.88997     -5481147.2      194.21719      197.49281      198.64959      81.010903    
   1129000   699.57696     -5481221.6      194.21719      197.49281      198.64959     -106.7583     
   1130000   701.61845     -5481078.3      194.21719      197.49281      198.64959      48.17457     
   1131000   700.04369     -5481141.5      194.21719      197.49281      198.64959      277.42543    
   1132000   701.05273     -5480980.6      194.21719      197.49281      198.64959      205.85307    
   1133000   701.295       -5480930.6      194.21719      197.49281      198.64959      144.09099    
   1134000   698.42175     -5481248.6      194.21719      197.49281      198.64959     -76.892052    
   1135000   699.73478     -5481066.9      194.21719      197.49281      198.64959      126.39062    
   1136000   700.30071     -5481051.5      194.21719      197.49281      198.64959      123.31116    
   1137000   700.41309     -5480997.7      194.21719      197.49281      198.64959      39.45251     
   1138000   700.7363      -5481052.6      194.21719      197.49281      198.64959      97.947895    
   1139000   700.51897     -5481112.9      194.21719      197.49281      198.64959     -28.658651    
   1140000   699.6532      -5481176.5      194.21719      197.49281      198.64959      96.66369     
   1141000   700.08759     -5481108.9      194.21719      197.49281      198.64959      67.570102    
   1142000   699.93072     -5481188.2      194.21719      197.49281      198.64959     -18.970629    
   1143000   699.2101      -5481150.9      194.21719      197.49281      198.64959     -75.691701    
   1144000   698.54131     -5481134.2      194.21719      197.49281      198.64959      211.93351    
   1145000   701.72511     -5480916.9      194.21719      197.49281      198.64959      89.791711    
   1146000   700.90813     -5481073.5      194.21719      197.49281      198.64959      31.753908    
   1147000   700.79549     -5481102.4      194.21719      197.49281      198.64959     -81.513118    
   1148000   701.31566     -5481060.2      194.21719      197.49281      198.64959      193.54929    
   1149000   699.37408     -5481158.7      194.21719      197.49281      198.64959      187.88684    
   1150000   700.22312     -5481089.8      194.21719      197.49281      198.64959      172.10754    
   1151000   699.81063     -5481065        194.21719      197.49281      198.64959      321.05825    
   1152000   700.22906     -5481118.6      194.21719      197.49281      198.64959      159.9057     
   1153000   699.76576     -5481047.1      194.21719      197.49281      198.64959     -44.711155    
   1154000   699.11157     -5481060.9      194.21719      197.49281      198.64959      37.771452    
   1155000   700.01039     -5481139.9      194.21719      197.49281      198.64959      25.636579    
   1156000   699.44342     -5481154.5      194.21719      197.49281      198.64959      54.595446    
   1157000   702.74831     -5480905.6      194.21719      197.49281      198.64959      128.95215    
   1158000   700.46821     -5481070.7      194.21719      197.49281      198.64959      199.30083    
   1159000   699.12229     -5481152.2      194.21719      197.49281      198.64959      88.186679    
   1160000   701.82062     -5480886.9      194.21719      197.49281      198.64959      175.41756    
   1161000   698.87247     -5481112        194.21719      197.49281      198.64959      95.687667    
   1162000   700.65437     -5481055        194.21719      197.49281      198.64959      70.736335    
   1163000   699.39041     -5481111.9      194.21719      197.49281      198.64959     -6.3881361    
   1164000   699.21516     -5481047.4      194.21719      197.49281      198.64959      130.37555    
   1165000   699.98167     -5481076.9      194.21719      197.49281      198.64959      91.1476      
   1166000   700.28429     -5481087.4      194.21719      197.49281      198.64959      111.92681    
   1167000   700.43331     -5481041.9      194.21719      197.49281      198.64959      174.09957    
   1168000   700.50391     -5481048        194.21719      197.49281      198.64959      127.11964    
   1169000   699.58876     -5481104.3      194.21719      197.49281      198.64959     -1.7286578    
   1170000   698.054       -5481238.4      194.21719      197.49281      198.64959     -57.77765     
   1171000   700.90803     -5481009.5      194.21719      197.49281      198.64959      38.240507    
   1172000   700.31795     -5481083.7      194.21719      197.49281      198.64959      67.751647    
   1173000   699.55512     -5481169.5      194.21719      197.49281      198.64959      158.16283    
   1174000   701.34923     -5481141.2      194.21719      197.49281      198.64959      96.823286    
   1175000   699.88285     -5481032.6      194.21719      197.49281      198.64959      84.08138     
   1176000   698.63802     -5481214.4      194.21719      197.49281      198.64959      118.69082    
   1177000   700.20284     -5481094.8      194.21719      197.49281      198.64959      64.361336    
   1178000   697.98374     -5481295.1      194.21719      197.49281      198.64959      45.010412    
   1179000   701.28384     -5481067.5      194.21719      197.49281      198.64959      105.69484    
   1180000   699.5852      -5481169.3      194.21719      197.49281      198.64959      70.580807    
   1181000   699.44625     -5481134.4      194.21719      197.49281      198.64959      222.56539    
   1182000   699.95214     -5481097.1      194.21719      197.49281      198.64959      130.20732    
   1183000   700.45194     -5481091.8      194.21719      197.49281      198.64959      68.710121    
   1184000   700.18683     -5481078.5      194.21719      197.49281      198.64959      8.8069475    
   1185000   699.67828     -5481123        194.21719      197.49281      198.64959      7.6142013    
   1186000   701.01286     -5481089.3      194.21719      197.49281      198.64959      4.3528367    
   1187000   702.4174      -5480884.4      194.21719      197.49281      198.64959      177.94143    
   1188000   700.38276     -5481070.9      194.21719      197.49281      198.64959      38.056789    
   1189000   699.44498     -5481058.5      194.21719      197.49281      198.64959      61.094756    
   1190000   700.08945     -5481150.1      194.21719      197.49281      198.64959      24.941485    
   1191000   700.69806     -5481016.1      194.21719      197.49281      198.64959      46.903795    
   1192000   700.25878     -5481102.9      194.21719      197.49281      198.64959      42.111496    
   1193000   699.18427     -5481147.8      194.21719      197.49281      198.64959      96.310249    
   1194000   699.66307     -5481064.8      194.21719      197.49281      198.64959     -41.297307    
   1195000   700.51863     -5481057.3      194.21719      197.49281      198.64959      85.188963    
   1196000   700.25786     -5481072.5      194.21719      197.49281      198.64959      23.05009     
   1197000   699.06109     -5481155.9      194.21719      197.49281      198.64959      44.065461    
   1198000   701.2729      -5481044.2      194.21719      197.49281      198.64959      69.051979    
   1199000   699.78775     -5481099.4      194.21719      197.49281      198.64959      147.84553    
   1200000   698.95134     -5481283.6      194.21719      197.49281      198.64959      78.494738    
   1201000   699.57013     -5481114.9      194.21719      197.49281      198.64959      54.093759    
   1202000   699.2383      -5481115.9      194.21719      197.49281      198.64959      232.9299     
   1203000   699.64708     -5481129.4      194.21719      197.49281      198.64959      200.20641    
   1204000   700.1023      -5481055.7      194.21719      197.49281      198.64959      104.60156    
   1205000   699.80119     -5481201.6      194.21719      197.49281      198.64959      120.10349    
   1206000   700.21021     -5481083.1      194.21719      197.49281      198.64959      191.0188     
   1207000   699.75943     -5481159.6      194.21719      197.49281      198.64959      41.204011    
   1208000   699.38701     -5481111.7      194.21719      197.49281      198.64959      88.995676    
   1209000   701.16634     -5480939.6      194.21719      197.49281      198.64959      154.55297    
   1210000   702.187       -5480998.9      194.21719      197.49281      198.64959      80.567779    
   1211000   700.77069     -5481056.2      194.21719      197.49281      198.64959      3.6592749    
   1212000   699.3132      -5481131.7      194.21719      197.49281      198.64959      75.155457    
   1213000   700.84553     -5481033        194.21719      197.49281      198.64959     -4.4606027    
   1214000   700.089       -5481038.9      194.21719      197.49281      198.64959      84.839384    
   1215000   698.4246      -5481228.8      194.21719      197.49281      198.64959      66.440859    
   1216000   700.7165      -5481002.6      194.21719      197.49281      198.64959     -48.438005    
   1217000   701.13486     -5481056.3      194.21719      197.49281      198.64959      102.52365    
   1218000   700.56733     -5481107.3      194.21719      197.49281      198.64959      89.151398    
   1219000   699.12497     -5481183        194.21719      197.49281      198.64959      39.77689     
   1220000   699.99792     -5481171.8      194.21719      197.49281      198.64959      92.614974    
   1221000   698.09231     -5481293.4      194.21719      197.49281      198.64959      161.47251    
   1222000   699.3679      -5481159.5      194.21719      197.49281      198.64959      40.955072    
   1223000   700.12214     -5481134.9      194.21719      197.49281      198.64959      67.586192    
   1224000   699.98951     -5481094.9      194.21719      197.49281      198.64959      155.89456    
   1225000   698.24187     -5481227        194.21719      197.49281      198.64959      78.614346    
   1226000   700.54581     -5481096.8      194.21719      197.49281      198.64959     -61.817836    
   1227000   700.80668     -5481092.2      194.21719      197.49281      198.64959      41.598522    
   1228000   700.37157     -5481125.5      194.21719      197.49281      198.64959      34.641116    
   1229000   700.66903     -5481072.2      194.21719      197.49281      198.64959      58.808738    
   1230000   700.46012     -5481131.8      194.21719      197.49281      198.64959     -1.390314     
   1231000   700.89483     -5481020.4      194.21719      197.49281      198.64959      114.19483    
   1232000   699.55237     -5481190        194.21719      197.49281      198.64959     -31.147513    
   1233000   699.33932     -5481216.7      194.21719      197.49281      198.64959      15.00407     
   1234000   697.72653     -5481212.4      194.21719      197.49281      198.64959     -61.824168    
   1235000   699.3512      -5481124.3      194.21719      197.49281      198.64959      58.679001    
   1236000   699.82208     -5481144.8      194.21719      197.49281      198.64959     -15.470703    
   1237000   700.97278     -5480951.3      194.21719      197.49281      198.64959      189.89275    
   1238000   699.44509     -5481105.9      194.21719      197.49281      198.64959      115.94747    
   1239000   699.23322     -5481110.6      194.21719      197.49281      198.64959     -15.787229    
   1240000   699.55007     -5481184.1      194.21719      197.49281      198.64959      87.322596    
   1241000   700.19094     -5481189.3      194.21719      197.49281      198.64959      81.487461    
   1242000   700.7628      -5481095.3      194.21719      197.49281      198.64959     -18.296475    
   1243000   699.89552     -5481148.9      194.21719      197.49281      198.64959     -43.979731    
   1244000   700.04212     -5481140.2      194.21719      197.49281      198.64959      59.472416    
   1245000   700.29537     -5481072.7      194.21719      197.49281      198.64959      107.2356     
   1246000   699.68771     -5481133.5      194.21719      197.49281      198.64959      103.52539    
   1247000   700.07402     -5481218.1      194.21719      197.49281      198.64959      115.77323    
   1248000   700.31209     -5481125.1      194.21719      197.49281      198.64959      129.42843    
   1249000   702.36957     -5480930.9      194.21719      197.49281      198.64959      225.4901     
   1250000   700.2122      -5481118.9      194.21719      197.49281      198.64959      149.96702    
   1251000   700.07933     -5481105.2      194.21719      197.49281      198.64959      192.13884    
   1252000   699.26894     -5481110.8      194.21719      197.49281      198.64959     -8.1348772    
   1253000   699.52016     -5481160.1      194.21719      197.49281      198.64959      31.71758     
   1254000   701.87911     -5480979.6      194.21719      197.49281      198.64959      123.42341    
   1255000   699.93833     -5481174.7      194.21719      197.49281      198.64959     -56.823531    
   1256000   700.54723     -5481127.2      194.21719      197.49281      198.64959      15.590116    
   1257000   699.73035     -5481200.6      194.21719      197.49281      198.64959     -61.93142     
   1258000   701.20321     -5481050.5      194.21719      197.49281      198.64959      87.958938    
   1259000   700.92519     -5481030.2      194.21719      197.49281      198.64959      131.89458    
   1260000   700.92194     -5481150.2      194.21719      197.49281      198.64959      47.758644    
   1261000   700.1237      -5481089.4      194.21719      197.49281      198.64959      54.131514    
   1262000   700.14043     -5481135.2      194.21719      197.49281      198.64959     -25.917299    
   1263000   700.16705     -5481070.7      194.21719      197.49281      198.64959      101.52139    
   1264000   700.25856     -5480995        194.21719      197.49281      198.64959      163.50094    
   1265000   699.37115     -5481222.6      194.21719      197.49281      198.64959      63.990065    
   1266000   701.05942     -5481065.6      194.21719      197.49281      198.64959      131.72008    
   1267000   699.07288     -5481194.3      194.21719      197.49281      198.64959      104.88508    
   1268000   699.62783     -5481234.7      194.21719      197.49281      198.64959      104.64372    
   1269000   701.23913     -5480996.8      194.21719      197.49281      198.64959      178.31872    
   1270000   700.86288     -5481092.6      194.21719      197.49281      198.64959      221.8112     
   1271000   700.17774     -5481101.1      194.21719      197.49281      198.64959      137.29796    
   1272000   701.27815     -5481083.3      194.21719      197.49281      198.64959     -33.105922    
   1273000   699.77788     -5481159.5      194.21719      197.49281      198.64959     -8.1526858    
   1274000   699.82523     -5481075.9      194.21719      197.49281      198.64959      94.624805    
   1275000   699.4909      -5481220.9      194.21719      197.49281      198.64959      71.240683    
   1276000   699.45843     -5481237        194.21719      197.49281      198.64959      35.989964    
   1277000   698.98508     -5481136        194.21719      197.49281      198.64959      189.93406    
   1278000   700.09973     -5481127.8      194.21719      197.49281      198.64959      28.696372    
   1279000   700.88328     -5481011.5      194.21719      197.49281      198.64959      36.086681    
   1280000   699.99252     -5481084.4      194.21719      197.49281      198.64959      129.31236    
   1281000   699.3085      -5481123.7      194.21719      197.49281      198.64959      5.5176842    
   1282000   699.49047     -5481081.9      194.21719      197.49281      198.64959     -16.074899    
   1283000   700.28707     -5481093.5      194.21719      197.49281      198.64959      61.266066    
   1284000   701.35469     -5481116.9      194.21719      197.49281      198.64959      3.604185     
   1285000   701.23618     -5481018.2      194.21719      197.49281      198.64959     -0.90324866   
   1286000   700.42129     -5481073.5      194.21719      197.49281      198.64959     -121.30044    
   1287000   698.81635     -5481168.9      194.21719      197.49281      198.64959      23.347683    
   1288000   698.30472     -5481214.1      194.21719      197.49281      198.64959     -17.666825    
   1289000   698.2581      -5481303.3      194.21719      197.49281      198.64959      102.86146    
   1290000   701.30809     -5481045.4      194.21719      197.49281      198.64959      125.17978    
   1291000   700.45471     -5481125.4      194.21719      197.49281      198.64959      1.8933316    
   1292000   700.86951     -5481025.2      194.21719      197.49281      198.64959      111.5458     
   1293000   702.07338     -5480954.9      194.21719      197.49281      198.64959      114.72534    
   1294000   699.91872     -5481187.7      194.21719      197.49281      198.64959     -13.007335    
   1295000   701.6754      -5480937.1      194.21719      197.49281      198.64959      140.13328    
   1296000   700.35544     -5481052.7      194.21719      197.49281      198.64959      33.207336    
   1297000   699.68866     -5481068.5      194.21719      197.49281      198.64959      92.529607    
   1298000   698.94754     -5481223.2      194.21719      197.49281      198.64959      45.643826    
   1299000   699.04476     -5481159.4      194.21719      197.49281      198.64959      152.21017    
   1300000   700.9318      -5481137.2      194.21719      197.49281      198.64959     -38.529111    
   1301000   698.81883     -5481109.9      194.21719      197.49281      198.64959      219.13643    
   1302000   700.40688     -5481094.7      194.21719      197.49281      198.64959      64.995423    
   1303000   699.60977     -5481155        194.21719      197.49281      198.64959      165.396      
   1304000   699.22588     -5481142.7      194.21719      197.49281      198.64959      153.5592     
   1305000   700.13549     -5481181.8      194.21719      197.49281      198.64959      243.44838    
   1306000   701.58815     -5481066.2      194.21719      197.49281      198.64959      57.128709    
   1307000   699.32336     -5481176.8      194.21719      197.49281      198.64959     -13.679583    
   1308000   699.24013     -5481163        194.21719      197.49281      198.64959      18.126382    
   1309000   700.03342     -5481128.9      194.21719      197.49281      198.64959      26.948388    
   1310000   699.43165     -5481203.6      194.21719      197.49281      198.64959      86.386266    
   1311000   700.55945     -5481121.1      194.21719      197.49281      198.64959      153.0185     
   1312000   699.65032     -5481143.8      194.21719      197.49281      198.64959      117.52052    
   1313000   701.34485     -5481071        194.21719      197.49281      198.64959      128.43126    
   1314000   701.54386     -5480934.3      194.21719      197.49281      198.64959      58.590077    
   1315000   700.13036     -5481093.3      194.21719      197.49281      198.64959      31.080496    
   1316000   699.40152     -5481190.7      194.21719      197.49281      198.64959     -110.12217    
   1317000   700.57453     -5481107.2      194.21719      197.49281      198.64959      3.990793     
   1318000   700.26753     -5481134.1      194.21719      197.49281      198.64959      23.315243    
   1319000   700.35114     -5481148.9      194.21719      197.49281      198.64959      52.693905    
   1320000   700.50533     -5481046.3      194.21719      197.49281      198.64959      79.009024    
   1321000   700.47852     -5481113.7      194.21719      197.49281      198.64959     -24.859805    
   1322000   699.97064     -5481170        194.21719      197.49281      198.64959     -16.414592    
   1323000   700.05367     -5480979.1      194.21719      197.49281      198.64959      139.93025    
   1324000   700.35501     -5481164.5      194.21719      197.49281      198.64959      125.10639    
   1325000   699.20806     -5481072.8      194.21719      197.49281      198.64959      222.94813    
   1326000   699.43619     -5481140.7      194.21719      197.49281      198.64959     -26.08141     
   1327000   699.33001     -5481197.5      194.21719      197.49281      198.64959      109.65286    
   1328000   699.91243     -5481109.5      194.21719      197.49281      198.64959      125.37169    
   1329000   699.46339     -5481157.7      194.21719      197.49281      198.64959      190.407      
   1330000   698.44483     -5481231.9      194.21719      197.49281      198.64959      2.5480215    
   1331000   700.59077     -5481076.5      194.21719      197.49281      198.64959      174.94444    
   1332000   698.72651     -5481190.3      194.21719      197.49281      198.64959      129.89297    
   1333000   699.64106     -5481161.1      194.21719      197.49281      198.64959      201.20442    
   1334000   699.89431     -5481123.8      194.21719      197.49281      198.64959      249.05258    
   1335000   700.26756     -5481152.5      194.21719      197.49281      198.64959      297.26806    
   1336000   699.75252     -5481224.7      194.21719      197.49281      198.64959      121.0411     
   1337000   700.17992     -5481200.6      194.21719      197.49281      198.64959      23.167817    
   1338000   699.86185     -5481024.8      194.21719      197.49281      198.64959      100.72515    
   1339000   698.55128     -5481241.9      194.21719      197.49281      198.64959      87.727456    
   1340000   700.57619     -5481021.2      194.21719      197.49281      198.64959      96.302851    
   1341000   698.9952      -5481129.8      194.21719      197.49281      198.64959      219.19831    
   1342000   700.41436     -5481105.1      194.21719      197.49281      198.64959      123.32314    
   1343000   699.03687     -5481165.5      194.21719      197.49281      198.64959      53.286514    
   1344000   700.88534     -5481051        194.21719      197.49281      198.64959      33.586451    
   1345000   701.20312     -5480987.5      194.21719      197.49281      198.64959      140.53361    
   1346000   699.87925     -5481087.1      194.21719      197.49281      198.64959      71.450962    
   1347000   701.12791     -5481129.1      194.21719      197.49281      198.64959      71.027846    
   1348000   701.32434     -5481171.5      194.21719      197.49281      198.64959      39.74743     
   1349000   699.47876     -5481196.5      194.21719      197.49281      198.64959      51.069806    
   1350000   699.8323      -5481105.6      194.21719      197.49281      198.64959     -100.11636    
   1351000   701.58979     -5481031.3      194.21719      197.49281      198.64959      130.11554    
   1352000   700.33441     -5481026.6      194.21719      197.49281      198.64959      78.473672    
   1353000   700.43533     -5481109.1      194.21719      197.49281      198.64959      132.42482    
   1354000   699.33362     -5481127.2      194.21719      197.49281      198.64959      141.89566    
   1355000   700.51485     -5481028.8      194.21719      197.49281      198.64959      196.61973    
   1356000   699.70822     -5481208.6      194.21719      197.49281      198.64959      130.98795    
   1357000   699.31216     -5481145.3      194.21719      197.49281      198.64959      211.5599     
   1358000   698.75476     -5481260.2      194.21719      197.49281      198.64959      74.52605     
   1359000   700.45093     -5481095.2      194.21719      197.49281      198.64959      107.75113    
   1360000   700.12371     -5481087.8      194.21719      197.49281      198.64959      81.805112    
   1361000   701.301       -5480985.8      194.21719      197.49281      198.64959      119.75995    
   1362000   699.29466     -5481145.3      194.21719      197.49281      198.64959     -39.660069    
   1363000   700.84844     -5481063.9      194.21719      197.49281      198.64959     -1.6076756    
   1364000   698.45202     -5481126.5      194.21719      197.49281      198.64959      153.28845    
   1365000   700.6389      -5481062.1      194.21719      197.49281      198.64959     -0.65214464   
   1366000   701.22322     -5481000.4      194.21719      197.49281      198.64959      70.474177    
   1367000   699.54012     -5481136.8      194.21719      197.49281      198.64959      34.524305    
   1368000   700.12027     -5481200.2      194.21719      197.49281      198.64959      128.41025    
   1369000   699.42364     -5481209.3      194.21719      197.49281      198.64959      190.94723    
   1370000   700.0066      -5481082.2      194.21719      197.49281      198.64959      44.25064     
   1371000   700.28008     -5481131.1      194.21719      197.49281      198.64959      88.322586    
   1372000   698.66483     -5481163.4      194.21719      197.49281      198.64959      31.028164    
   1373000   700.01946     -5481216        194.21719      197.49281      198.64959      148.87052    
   1374000   700.16996     -5481129        194.21719      197.49281      198.64959      60.373888    
   1375000   698.12047     -5481199.8      194.21719      197.49281      198.64959      44.599095    
   1376000   700.31885     -5481015.6      194.21719      197.49281      198.64959      98.501071    
   1377000   699.12778     -5481292.2      194.21719      197.49281      198.64959      85.546554    
   1378000   698.81799     -5481268.3      194.21719      197.49281      198.64959      68.983333    
   1379000   698.816       -5481131.1      194.21719      197.49281      198.64959      116.39371    
   1380000   700.19225     -5481171.1      194.21719      197.49281      198.64959      88.11933     
   1381000   698.72666     -5481242.8      194.21719      197.49281      198.64959      69.764091    
   1382000   700.20027     -5481153.3      194.21719      197.49281      198.64959      29.433045    
   1383000   700.34375     -5481139.8      194.21719      197.49281      198.64959      181.4211     
   1384000   698.17559     -5481277.4      194.21719      197.49281      198.64959      111.53291    
   1385000   700.19966     -5481099.8      194.21719      197.49281      198.64959      133.96391    
   1386000   702.03158     -5481010.1      194.21719      197.49281      198.64959      44.532454    
   1387000   699.96363     -5481029.3      194.21719      197.49281      198.64959     -56.833413    
   1388000   699.77123     -5481193.9      194.21719      197.49281      198.64959      122.16665    
   1389000   700.18145     -5481093.2      194.21719      197.49281      198.64959      33.811386    
   1390000   699.16771     -5481140.7      194.21719      197.49281      198.64959      52.984089    
   1391000   700.9264      -5480937.2      194.21719      197.49281      198.64959      80.657833    
   1392000   699.5743      -5481128.4      194.21719      197.49281      198.64959      151.71601    
   1393000   699.59461     -5481189.6      194.21719      197.49281      198.64959      280.2952     
   1394000   699.84788     -5481102.3      194.21719      197.49281      198.64959      233.07737    
   1395000   700.18123     -5481178.4      194.21719      197.49281      198.64959      104.45544    
   1396000   700.96564     -5481044.5      194.21719      197.49281      198.64959      139.44883    
   1397000   699.85479     -5481229.7      194.21719      197.49281      198.64959      122.43616    
   1398000   699.21016     -5481327.7      194.21719      197.49281      198.64959      209.05199    
   1399000   700.41        -5481087.8      194.21719      197.49281      198.64959      217.75563    
   1400000   699.06985     -5481193.8      194.21719      197.49281      198.64959      122.07417    
   1401000   700.41635     -5481041.9      194.21719      197.49281      198.64959      186.11863    
   1402000   701.39814     -5480986.5      194.21719      197.49281      198.64959      143.10564    
   1403000   702.30306     -5480967.7      194.21719      197.49281      198.64959      114.14181    
   1404000   700.41205     -5481127.1      194.21719      197.49281      198.64959     -49.505853    
   1405000   699.86043     -5481053.5      194.21719      197.49281      198.64959      183.24823    
   1406000   699.15891     -5481079.8      194.21719      197.49281      198.64959      145.80183    
   1407000   700.44645     -5481071.9      194.21719      197.49281      198.64959      143.27762    
   1408000   699.41754     -5481110.1      194.21719      197.49281      198.64959      85.106747    
   1409000   701.27635     -5481088.1      194.21719      197.49281      198.64959     -64.70546     
   1410000   699.16686     -5481228.3      194.21719      197.49281      198.64959      153.11724    
   1411000   698.6647      -5481260.4      194.21719      197.49281      198.64959      9.6730583    
   1412000   700.67263     -5481146.7      194.21719      197.49281      198.64959      94.111358    
   1413000   699.52931     -5481216.2      194.21719      197.49281      198.64959      55.584109    
   1414000   699.06967     -5481231.2      194.21719      197.49281      198.64959      37.253491    
   1415000   700.35559     -5481105.7      194.21719      197.49281      198.64959     -105.55121    
   1416000   699.1591      -5481152.6      194.21719      197.49281      198.64959      33.357537    
   1417000   698.95329     -5481185.6      194.21719      197.49281      198.64959      42.479349    
   1418000   701.20732     -5480952.4      194.21719      197.49281      198.64959     -18.885066    
   1419000   698.09301     -5481323.5      194.21719      197.49281      198.64959     -55.65979     
   1420000   698.98809     -5481091.6      194.21719      197.49281      198.64959      151.32703    
   1421000   699.45293     -5481239.3      194.21719      197.49281      198.64959      90.648256    
   1422000   701.07876     -5481136.7      194.21719      197.49281      198.64959     -145.62104    
   1423000   699.84241     -5481151.1      194.21719      197.49281      198.64959      67.476872    
   1424000   699.17715     -5481116.5      194.21719      197.49281      198.64959      131.2244     
   1425000   699.91348     -5481123.5      194.21719      197.49281      198.64959     -36.384781    
   1426000   699.42793     -5481235.9      194.21719      197.49281      198.64959      88.568191    
   1427000   699.78047     -5481181.6      194.21719      197.49281      198.64959      10.695692    
   1428000   701.37893     -5481125.5      194.21719      197.49281      198.64959      10.029598    
   1429000   699.28715     -5481220        194.21719      197.49281      198.64959     -41.272239    
   1430000   698.84523     -5481156.3      194.21719      197.49281      198.64959      155.28568    
   1431000   701.09128     -5481062.8      194.21719      197.49281      198.64959      53.949414    
   1432000   700.06443     -5481142.2      194.21719      197.49281      198.64959      63.528819    
   1433000   700.21823     -5481025.5      194.21719      197.49281      198.64959     -7.9575058    
   1434000   698.82469     -5481190.6      194.21719      197.49281      198.64959      125.55042    
   1435000   699.16693     -5481082.8      194.21719      197.49281      198.64959      184.16404    
   1436000   699.12982     -5481259        194.21719      197.49281      198.64959      52.504117    
   1437000   699.80347     -5481075.4      194.21719      197.49281      198.64959      224.56648    
   1438000   699.9939      -5481177.5      194.21719      197.49281      198.64959      26.911325    
   1439000   700.7012      -5481083.8      194.21719      197.49281      198.64959      160.94418    
   1440000   700.24062     -5481145.8      194.21719      197.49281      198.64959      158.68067    
   1441000   699.30448     -5481090.4      194.21719      197.49281      198.64959      197.56209    
   1442000   698.73518     -5481167.9      194.21719      197.49281      198.64959      86.476055    
   1443000   700.75846     -5481184.2      194.21719      197.49281      198.64959      58.273442    
   1444000   700.03857     -5481150.6      194.21719      197.49281      198.64959      91.567124    
   1445000   699.94722     -5481061.6      194.21719      197.49281      198.64959      131.28674    
   1446000   700.19017     -5481050.9      194.21719      197.49281      198.64959      1.3401781    
   1447000   699.67614     -5481175        194.21719      197.49281      198.64959     -9.8140267    
   1448000   701.33627     -5481073.6      194.21719      197.49281      198.64959      84.939419    
   1449000   700.34951     -5481086.4      194.21719      197.49281      198.64959      61.290097    
   1450000   699.38092     -5481101.8      194.21719      197.49281      198.64959      44.347658    
   1451000   701.16518     -5481029.9      194.21719      197.49281      198.64959      72.708916    
   1452000   700.46055     -5481032.5      194.21719      197.49281      198.64959      109.00788    
   1453000   700.30241     -5481149.3      194.21719      197.49281      198.64959      166.27224    
   1454000   699.70581     -5481121.8      194.21719      197.49281      198.64959      127.81957    
   1455000   700.95007     -5481175.1      194.21719      197.49281      198.64959      85.439956    
   1456000   698.8579      -5481225.5      194.21719      197.49281      198.64959      155.14617    
   1457000   701.08408     -5481094.6      194.21719      197.49281      198.64959      233.68918    
   1458000   699.53842     -5481144.7      194.21719      197.49281      198.64959      268.8901     
   1459000   700.74411     -5481106.1      194.21719      197.49281      198.64959      265.05761    
   1460000   700.20843     -5481152.1      194.21719      197.49281      198.64959      278.87852    
   1461000   701.00764     -5481104        194.21719      197.49281      198.64959      143.68991    
   1462000   699.61328     -5481174.4      194.21719      197.49281      198.64959      214.87779    
   1463000   699.01869     -5481168.7      194.21719      197.49281      198.64959      61.439025    
   1464000   700.23661     -5481230.2      194.21719      197.49281      198.64959      57.309733    
   1465000   701.12971     -5481141.8      194.21719      197.49281      198.64959     -56.276929    
   1466000   698.6974      -5481154.5      194.21719      197.49281      198.64959      64.249575    
   1467000   699.81825     -5481082        194.21719      197.49281      198.64959      106.87996    
   1468000   700.74039     -5481165.8      194.21719      197.49281      198.64959      170.86033    
   1469000   699.42041     -5481161.6      194.21719      197.49281      198.64959      128.41041    
   1470000   700.95097     -5481126.5      194.21719      197.49281      198.64959      85.786778    
   1471000   700.4986      -5480975.8      194.21719      197.49281      198.64959      48.438295    
   1472000   700.22171     -5481086.8      194.21719      197.49281      198.64959      75.537519    
   1473000   700.80815     -5481135        194.21719      197.49281      198.64959      35.774981    
   1474000   700.49946     -5481078.3      194.21719      197.49281      198.64959      172.01487    
   1475000   701.03276     -5481069.4      194.21719      197.49281      198.64959      163.75366    
   1476000   699.97519     -5481230.5      194.21719      197.49281      198.64959      11.95642     
   1477000   700.06706     -5481148.7      194.21719      197.49281      198.64959      111.35016    
   1478000   700.12955     -5481145.2      194.21719      197.49281      198.64959      167.8736     
   1479000   700.05371     -5481150.7      194.21719      197.49281      198.64959      132.30316    
   1480000   700.87741     -5481111.7      194.21719      197.49281      198.64959      127.17723    
   1481000   701.59132     -5481003.5      194.21719      197.49281      198.64959      101.97444    
   1482000   699.71502     -5481242.5      194.21719      197.49281      198.64959      160.6431     
   1483000   701.22252     -5481073.8      194.21719      197.49281      198.64959      257.2889     
   1484000   700.05352     -5481165.2      194.21719      197.49281      198.64959      120.20142    
   1485000   700.3362      -5481138.5      194.21719      197.49281      198.64959      192.2936     
   1486000   700.62398     -5481147.6      194.21719      197.49281      198.64959      211.14683    
   1487000   700.06159     -5481154.4      194.21719      197.49281      198.64959      44.71319     
   1488000   699.0421      -5481234.4      194.21719      197.49281      198.64959      41.123621    
   1489000   700.63272     -5481020.4      194.21719      197.49281      198.64959      116.91662    
   1490000   699.77701     -5481190.4      194.21719      197.49281      198.64959      71.814495    
   1491000   698.72041     -5481244.4      194.21719      197.49281      198.64959     -17.591299    
   1492000   699.2316      -5481230.6      194.21719      197.49281      198.64959      189.27243    
   1493000   700.20275     -5481197.1      194.21719      197.49281      198.64959      261.56745    
   1494000   700.01066     -5481057.9      194.21719      197.49281      198.64959     -0.70548513   
   1495000   699.90404     -5481177        194.21719      197.49281      198.64959     -42.210025    
   1496000   699.43355     -5481189.9      194.21719      197.49281      198.64959     -125.50786    
   1497000   700.0921      -5481216.2      194.21719      197.49281      198.64959      73.513295    
   1498000   700.22173     -5481247.2      194.21719      197.49281      198.64959     -52.853956    
   1499000   699.48241     -5481105        194.21719      197.49281      198.64959      6.2435625    
   1500000   699.08317     -5481230.2      194.21719      197.49281      198.64959      35.262623    
   1501000   701.67877     -5481021.7      194.21719      197.49281      198.64959     -52.556648    
   1502000   700.45459     -5481051.3      194.21719      197.49281      198.64959      4.6291436    
   1503000   699.21377     -5481167.4      194.21719      197.49281      198.64959      5.6519927    
   1504000   699.77829     -5481104.9      194.21719      197.49281      198.64959      113.19333    
   1505000   699.91601     -5481231.8      194.21719      197.49281      198.64959     -42.059617    
   1506000   699.62215     -5481100.5      194.21719      197.49281      198.64959      37.133096    
   1507000   700.0627      -5481120.3      194.21719      197.49281      198.64959      114.55468    
   1508000   698.56553     -5481224.1      194.21719      197.49281      198.64959     -6.1980657    
   1509000   699.80656     -5481051.6      194.21719      197.49281      198.64959      135.69718    
   1510000   700.90299     -5481174.2      194.21719      197.49281      198.64959      163.31796    
   1511000   700.13273     -5481191.5      194.21719      197.49281      198.64959      159.21553    
   1512000   699.50014     -5481216.9      194.21719      197.49281      198.64959      8.4119736    
   1513000   702.17926     -5480985.2      194.21719      197.49281      198.64959     -71.101982    
   1514000   700.04151     -5481146.7      194.21719      197.49281      198.64959      13.393802    
   1515000   699.62748     -5481153.4      194.21719      197.49281      198.64959      162.89619    
   1516000   700.95593     -5481081.5      194.21719      197.49281      198.64959      224.41367    
   1517000   700.61011     -5481131.2      194.21719      197.49281      198.64959      84.635345    
   1518000   700.16618     -5481191.7      194.21719      197.49281      198.64959      108.91446    
   1519000   698.59766     -5481257.5      194.21719      197.49281      198.64959      136.22002    
   1520000   701.12726     -5481043.5      194.21719      197.49281      198.64959      307.48027    
   1521000   699.36813     -5481295.6      194.21719      197.49281      198.64959      171.53454    
   1522000   700.9065      -5481068.9      194.21719      197.49281      198.64959     -65.696221    
   1523000   702.10699     -5481068        194.21719      197.49281      198.64959      200.05782    
   1524000   700.22678     -5481238.4      194.21719      197.49281      198.64959     -17.285146    
   1525000   700.00505     -5481103.5      194.21719      197.49281      198.64959      247.18929    
   1526000   700.56853     -5481072.7      194.21719      197.49281      198.64959      172.51579    
   1527000   699.33085     -5481132.6      194.21719      197.49281      198.64959      182.6659     
   1528000   699.20248     -5481179.6      194.21719      197.49281      198.64959      141.39458    
   1529000   700.28118     -5481121.3      194.21719      197.49281      198.64959      212.07422    
   1530000   700.17872     -5481135        194.21719      197.49281      198.64959      18.089794    
   1531000   699.27685     -5481257.7      194.21719      197.49281      198.64959      154.84481    
   1532000   700.04955     -5481194.4      194.21719      197.49281      198.64959      257.06369    
   1533000   701.2513      -5481041.6      194.21719      197.49281      198.64959      77.277871    
   1534000   698.69355     -5481146.9      194.21719      197.49281      198.64959      158.83312    
   1535000   699.39198     -5481183.8      194.21719      197.49281      198.64959      110.30393    
   1536000   700.43635     -5481219.2      194.21719      197.49281      198.64959      82.72511     
   1537000   700.1407      -5481193.1      194.21719      197.49281      198.64959      158.80091    
   1538000   701.54817     -5481094.3      194.21719      197.49281      198.64959      84.517635    
   1539000   701.55577     -5481149.6      194.21719      197.49281      198.64959      171.37631    
   1540000   699.26685     -5481163.1      194.21719      197.49281      198.64959      100.34136    
   1541000   699.76294     -5481199.3      194.21719      197.49281      198.64959      139.05876    
   1542000   700.43475     -5481191.2      194.21719      197.49281      198.64959     -13.543714    
   1543000   700.36494     -5481062.2      194.21719      197.49281      198.64959      129.82027    
   1544000   699.57383     -5481248.3      194.21719      197.49281      198.64959      21.239918    
   1545000   699.18735     -5481192.9      194.21719      197.49281      198.64959      55.661921    
   1546000   698.25885     -5481236.8      194.21719      197.49281      198.64959      113.72253    
   1547000   698.72422     -5481260.7      194.21719      197.49281      198.64959      68.420577    
   1548000   700.31668     -5481127.2      194.21719      197.49281      198.64959      91.935296    
   1549000   699.58908     -5481131.2      194.21719      197.49281      198.64959      193.62806    
   1550000   698.78075     -5481100.1      194.21719      197.49281      198.64959      111.50687    
   1551000   700.42734     -5481072.6      194.21719      197.49281      198.64959      127.90529    
   1552000   700.69824     -5481074.2      194.21719      197.49281      198.64959      175.00138    
   1553000   699.76906     -5481087.1      194.21719      197.49281      198.64959      140.61996    
   1554000   699.84598     -5481155.3      194.21719      197.49281      198.64959      126.68283    
   1555000   700.66034     -5481071.6      194.21719      197.49281      198.64959      45.692906    
   1556000   700.68453     -5481064.6      194.21719      197.49281      198.64959      94.362905    
   1557000   699.7071      -5481218.2      194.21719      197.49281      198.64959      143.87381    
   1558000   699.03707     -5481221.9      194.21719      197.49281      198.64959      21.251757    
   1559000   699.89464     -5481068.8      194.21719      197.49281      198.64959      61.170415    
   1560000   698.33884     -5481091.9      194.21719      197.49281      198.64959      131.7934     
   1561000   700.46052     -5481095.4      194.21719      197.49281      198.64959      48.615785    
   1562000   699.52921     -5481166.9      194.21719      197.49281      198.64959      41.879894    
   1563000   701.09064     -5481064.4      194.21719      197.49281      198.64959      219.58342    
   1564000   700.86301     -5481142.3      194.21719      197.49281      198.64959      190.20423    
   1565000   700.30972     -5481076.1      194.21719      197.49281      198.64959      219.18712    
   1566000   700.92126     -5481130.9      194.21719      197.49281      198.64959      204.72732    
   1567000   699.54591     -5481196.1      194.21719      197.49281      198.64959      231.27262    
   1568000   700.50544     -5481127.6      194.21719      197.49281      198.64959      224.04845    
   1569000   701.18672     -5481221.1      194.21719      197.49281      198.64959      206.8907     
   1570000   700.26008     -5481164.4      194.21719      197.49281      198.64959      181.03874    
   1571000   700.27397     -5481103.4      194.21719      197.49281      198.64959      87.230239    
   1572000   700.22474     -5481174.5      194.21719      197.49281      198.64959      202.56651    
   1573000   699.83366     -5481205.9      194.21719      197.49281      198.64959      146.81847    
   1574000   699.18111     -5481232.9      194.21719      197.49281      198.64959      103.6967     
   1575000   700.83709     -5481034.1      194.21719      197.49281      198.64959      109.3815     
   1576000   701.43066     -5481093.6      194.21719      197.49281      198.64959      220.68258    
   1577000   700.77344     -5481177.7      194.21719      197.49281      198.64959      148.54197    
   1578000   700.39584     -5481091.9      194.21719      197.49281      198.64959      142.67106    
   1579000   702.08737     -5480990.7      194.21719      197.49281      198.64959      143.80988    
   1580000   700.47222     -5481026        194.21719      197.49281      198.64959      45.068364    
   1581000   700.31109     -5481057.6      194.21719      197.49281      198.64959      166.0833     
   1582000   699.55813     -5481153.1      194.21719      197.49281      198.64959      205.07384    
   1583000   701.07495     -5481131.8      194.21719      197.49281      198.64959      85.261556    
   1584000   700.79609     -5481093.4      194.21719      197.49281      198.64959      137.58558    
   1585000   700.39973     -5481130.7      194.21719      197.49281      198.64959     -22.73149     
   1586000   699.56382     -5481097.4      194.21719      197.49281      198.64959      197.445      
   1587000   699.94263     -5481130.9      194.21719      197.49281      198.64959     -53.159617    
   1588000   700.43622     -5481106.6      194.21719      197.49281      198.64959     -21.209313    
   1589000   700.17995     -5481138.5      194.21719      197.49281      198.64959      139.17363    
   1590000   698.7701      -5481222.6      194.21719      197.49281      198.64959      60.607864    
   1591000   699.99647     -5481182.7      194.21719      197.49281      198.64959     -84.26414     
   1592000   700.18872     -5481087.4      194.21719      197.49281      198.64959      91.948975    
   1593000   699.54358     -5481233.6      194.21719      197.49281      198.64959      40.112854    
   1594000   699.49338     -5481181.4      194.21719      197.49281      198.64959      82.484727    
   1595000   701.04622     -5481053.4      194.21719      197.49281      198.64959      2.8281065    
   1596000   700.48014     -5481094.8      194.21719      197.49281      198.64959      121.75123    
   1597000   698.65409     -5481344.3      194.21719      197.49281      198.64959     -43.471602    
   1598000   699.76213     -5481147.3      194.21719      197.49281      198.64959     -15.714377    
   1599000   700.03838     -5481175.9      194.21719      197.49281      198.64959     -10.860698    
   1600000   699.49784     -5481182.9      194.21719      197.49281      198.64959      53.720662    
   1601000   700.59501     -5481157.5      194.21719      197.49281      198.64959     -46.725194    
   1602000   698.47304     -5481224.9      194.21719      197.49281      198.64959      27.664902    
   1603000   700.52349     -5481088        194.21719      197.49281      198.64959      103.62743    
   1604000   699.74752     -5481126.8      194.21719      197.49281      198.64959      22.087847    
   1605000   699.93591     -5481076.2      194.21719      197.49281      198.64959      72.31747     
   1606000   699.5633      -5481244.1      194.21719      197.49281      198.64959      62.420441    
   1607000   700.05913     -5481180.8      194.21719      197.49281      198.64959      48.327244    
   1608000   700.93187     -5481084.7      194.21719      197.49281      198.64959      95.334547    
   1609000   699.97085     -5481020.2      194.21719      197.49281      198.64959      135.60278    
   1610000   701.12343     -5481122.4      194.21719      197.49281      198.64959      161.10197    
   1611000   698.33263     -5481265.6      194.21719      197.49281      198.64959      147.68943    
   1612000   700.89545     -5481157.9      194.21719      197.49281      198.64959      136.11782    
   1613000   699.1042      -5481219.4      194.21719      197.49281      198.64959      87.810923    
   1614000   700.7435      -5481190.3      194.21719      197.49281      198.64959     -33.178973    
   1615000   700.04863     -5481182.7      194.21719      197.49281      198.64959      69.657144    
   1616000   699.20212     -5481241.2      194.21719      197.49281      198.64959      319.52005    
   1617000   699.50897     -5481183.2      194.21719      197.49281      198.64959      100.40901    
   1618000   701.83239     -5481062.6      194.21719      197.49281      198.64959      57.997427    
   1619000   699.53474     -5481160.6      194.21719      197.49281      198.64959      142.54855    
   1620000   702.27443     -5481064.7      194.21719      197.49281      198.64959      82.535347    
   1621000   699.80742     -5481241.4      194.21719      197.49281      198.64959      161.26151    
   1622000   698.89406     -5481189.9      194.21719      197.49281      198.64959      140.81816    
   1623000   698.99559     -5481348.4      194.21719      197.49281      198.64959      62.501729    
   1624000   700.14399     -5481169.8      194.21719      197.49281      198.64959      75.320019    
   1625000   698.45499     -5481233.8      194.21719      197.49281      198.64959      157.9156     
   1626000   700.96641     -5481084.6      194.21719      197.49281      198.64959      75.180259    
   1627000   700.60069     -5481132.2      194.21719      197.49281      198.64959      145.35854    
   1628000   700.31973     -5481144        194.21719      197.49281      198.64959      77.912915    
   1629000   701.40916     -5481081.2      194.21719      197.49281      198.64959      14.11942     
   1630000   698.95577     -5481290.4      194.21719      197.49281      198.64959      122.39135    
   1631000   700.17642     -5481157.3      194.21719      197.49281      198.64959      230.72994    
   1632000   699.84314     -5481170.8      194.21719      197.49281      198.64959      210.99226    
   1633000   700.52264     -5481225.1      194.21719      197.49281      198.64959      57.692377    
   1634000   700.23347     -5481252.6      194.21719      197.49281      198.64959      2.8990219    
   1635000   700.04525     -5481055.4      194.21719      197.49281      198.64959      412.09975    
   1636000   699.54151     -5481231        194.21719      197.49281      198.64959      61.234242    
   1637000   700.74352     -5481188.9      194.21719      197.49281      198.64959      67.945226    
   1638000   701.60589     -5481019.6      194.21719      197.49281      198.64959      208.48827    
   1639000   699.75931     -5481082.6      194.21719      197.49281      198.64959      207.99477    
   1640000   700.13852     -5481191.3      194.21719      197.49281      198.64959      101.23828    
   1641000   699.25168     -5481202.9      194.21719      197.49281      198.64959      236.09668    
   1642000   698.98995     -5481225.9      194.21719      197.49281      198.64959      47.809138    
   1643000   698.92623     -5481267.9      194.21719      197.49281      198.64959      127.76268    
   1644000   700.75732     -5481092.9      194.21719      197.49281      198.64959      189.02929    
   1645000   699.94434     -5481153        194.21719      197.49281      198.64959      80.548278    
   1646000   700.11277     -5481174.3      194.21719      197.49281      198.64959      12.992774    
   1647000   701.03432     -5481172.8      194.21719      197.49281      198.64959      155.84021    
   1648000   700.71567     -5481110.5      194.21719      197.49281      198.64959     -116.77612    
   1649000   699.00329     -5481190.2      194.21719      197.49281      198.64959      55.350439    
   1650000   699.00136     -5481274.7      194.21719      197.49281      198.64959      95.243179    
   1651000   698.83138     -5481319.3      194.21719      197.49281      198.64959      10.665786    
   1652000   700.19679     -5481241.6      194.21719      197.49281      198.64959     -43.546388    
   1653000   699.63207     -5481137.1      194.21719      197.49281      198.64959     -23.454364    
   1654000   700.3346      -5481164        194.21719      197.49281      198.64959      3.2845777    
   1655000   698.78436     -5481088        194.21719      197.49281      198.64959      176.96923    
   1656000   699.31991     -5481130.5      194.21719      197.49281      198.64959      176.8417     
   1657000   700.22521     -5481207.7      194.21719      197.49281      198.64959      12.693652    
   1658000   699.97469     -5481156.7      194.21719      197.49281      198.64959      144.72093    
   1659000   700.64661     -5481199.3      194.21719      197.49281      198.64959      212.12694    
   1660000   699.93959     -5481190.4      194.21719      197.49281      198.64959      118.73905    
   1661000   700.10233     -5481197.8      194.21719      197.49281      198.64959      111.61633    
   1662000   699.84612     -5481164.3      194.21719      197.49281      198.64959      274.53922    
   1663000   699.26331     -5481269.2      194.21719      197.49281      198.64959      215.13222    
   1664000   700.22999     -5481199.6      194.21719      197.49281      198.64959      41.38701     
   1665000   699.45492     -5481299.9      194.21719      197.49281      198.64959      44.730356    
   1666000   701.24109     -5481068.3      194.21719      197.49281      198.64959      122.05641    
   1667000   700.07939     -5481064.2      194.21719      197.49281      198.64959      28.523321    
   1668000   700.62387     -5481089.5      194.21719      197.49281      198.64959      220.69356    
   1669000   699.26021     -5481165.1      194.21719      197.49281      198.64959      15.045043    
   1670000   699.72381     -5481199.3      194.21719      197.49281      198.64959      30.422032    
   1671000   699.30525     -5481192.9      194.21719      197.49281      198.64959      110.78982    
   1672000   699.24116     -5481199.7      194.21719      197.49281      198.64959      193.76013    
   1673000   699.70687     -5481227.9      194.21719      197.49281      198.64959      217.8351     
   1674000   700.7013      -5481044.1      194.21719      197.49281      198.64959      205.25168    
   1675000   699.35394     -5481155.4      194.21719      197.49281      198.64959      131.50129    
   1676000   701.54859     -5481064.4      194.21719      197.49281      198.64959      106.70169    
   1677000   700.51541     -5481117.2      194.21719      197.49281      198.64959      185.55648    
   1678000   699.45446     -5481211.4      194.21719      197.49281      198.64959      216.03686    
   1679000   700.81433     -5481159.3      194.21719      197.49281      198.64959      50.489692    
   1680000   700.97452     -5481118.9      194.21719      197.49281      198.64959      137.18009    
   1681000   699.506       -5481227.2      194.21719      197.49281      198.64959     -17.41531     
   1682000   700.06212     -5481196.3      194.21719      197.49281      198.64959      103.8147     
   1683000   701.41263     -5481088.6      194.21719      197.49281      198.64959      76.33054     
   1684000   699.52046     -5481190        194.21719      197.49281      198.64959      0.20622293   
   1685000   699.68079     -5481198.4      194.21719      197.49281      198.64959      0.052486681  
   1686000   699.22411     -5481215.7      194.21719      197.49281      198.64959      72.32608     
   1687000   698.18043     -5481325.8      194.21719      197.49281      198.64959      36.394796    
   1688000   699.73869     -5481165.7      194.21719      197.49281      198.64959      238.36719    
   1689000   699.86004     -5481180.5      194.21719      197.49281      198.64959      96.215158    
   1690000   699.05378     -5481166.9      194.21719      197.49281      198.64959      66.812599    
   1691000   699.41843     -5481211.2      194.21719      197.49281      198.64959      121.80949    
   1692000   700.94544     -5481074.9      194.21719      197.49281      198.64959      142.75097    
   1693000   701.25404     -5481090.6      194.21719      197.49281      198.64959      65.778165    
   1694000   700.77548     -5481175.5      194.21719      197.49281      198.64959      90.397954    
   1695000   699.51052     -5481132.2      194.21719      197.49281      198.64959      72.09862     
   1696000   698.86556     -5481338.1      194.21719      197.49281      198.64959      115.20433    
   1697000   699.13917     -5481235.9      194.21719      197.49281      198.64959      143.10266    
   1698000   699.1484      -5481197.8      194.21719      197.49281      198.64959      140.15897    
   1699000   702.18574     -5481110.7      194.21719      197.49281      198.64959      50.032262    
   1700000   699.23607     -5481265.3      194.21719      197.49281      198.64959      40.824037    
   1701000   700.3571      -5481221        194.21719      197.49281      198.64959      37.479452    
   1702000   700.74568     -5481226.5      194.21719      197.49281      198.64959      196.33176    
   1703000   699.13664     -5481176.2      194.21719      197.49281      198.64959      188.95697    
   1704000   699.83914     -5481112.1      194.21719      197.49281      198.64959      83.97983     
   1705000   700.47337     -5481217        194.21719      197.49281      198.64959      53.359723    
   1706000   700.23232     -5481256.8      194.21719      197.49281      198.64959     -2.5374411    
   1707000   700.61982     -5481105.8      194.21719      197.49281      198.64959      171.95174    
   1708000   699.62735     -5481217.3      194.21719      197.49281      198.64959      128.04845    
   1709000   700.60703     -5481164.9      194.21719      197.49281      198.64959      183.29261    
   1710000   698.50012     -5481349        194.21719      197.49281      198.64959     -27.36636     
   1711000   700.32259     -5481134.9      194.21719      197.49281      198.64959     -6.6855789    
   1712000   700.27942     -5481140.7      194.21719      197.49281      198.64959      173.8721     
   1713000   700.15419     -5481212.6      194.21719      197.49281      198.64959      0.3102645    
   1714000   699.54187     -5481187.2      194.21719      197.49281      198.64959      8.6149936    
   1715000   700.92474     -5481079.3      194.21719      197.49281      198.64959      98.054845    
   1716000   699.2302      -5481244.2      194.21719      197.49281      198.64959      17.717255    
   1717000   698.99916     -5481179.5      194.21719      197.49281      198.64959      156.0248     
   1718000   699.98412     -5481171.9      194.21719      197.49281      198.64959      29.95523     
   1719000   699.69708     -5481148.9      194.21719      197.49281      198.64959      119.05635    
   1720000   698.47948     -5481270.1      194.21719      197.49281      198.64959     -26.797385    
   1721000   699.7203      -5481184.8      194.21719      197.49281      198.64959     -73.333525    
   1722000   700.02716     -5481269.1      194.21719      197.49281      198.64959     -32.580736    
   1723000   700.52119     -5481083.1      194.21719      197.49281      198.64959      44.212206    
   1724000   701.6165      -5481125.5      194.21719      197.49281      198.64959      12.80681     
   1725000   698.71186     -5481195.7      194.21719      197.49281      198.64959      32.027097    
   1726000   699.9719      -5481158.7      194.21719      197.49281      198.64959      62.585161    
   1727000   700.58365     -5481122.5      194.21719      197.49281      198.64959     -133.15618    
   1728000   700.22386     -5481211.3      194.21719      197.49281      198.64959      80.792354    
   1729000   699.7293      -5481113.8      194.21719      197.49281      198.64959      150.82558    
   1730000   698.12841     -5481264.7      194.21719      197.49281      198.64959      16.390673    
   1731000   700.71812     -5481032.7      194.21719      197.49281      198.64959      137.36313    
   1732000   699.15306     -5481148.9      194.21719      197.49281      198.64959      130.77287    
   1733000   700.34305     -5481058.7      194.21719      197.49281      198.64959      73.83501     
   1734000   700.66155     -5481216.3      194.21719      197.49281      198.64959      166.79403    
   1735000   700.15358     -5481160.2      194.21719      197.49281      198.64959      72.796964    
   1736000   698.36658     -5481289.7      194.21719      197.49281      198.64959      143.99045    
   1737000   700.32886     -5481214.4      194.21719      197.49281      198.64959      61.712719    
   1738000   699.5262      -5481140.6      194.21719      197.49281      198.64959      206.37117    
   1739000   699.18979     -5481313        194.21719      197.49281      198.64959      47.668337    
   1740000   699.58119     -5481229.2      194.21719      197.49281      198.64959      79.696668    
   1741000   699.85911     -5481159.9      194.21719      197.49281      198.64959      177.75723    
   1742000   698.3467      -5481190.8      194.21719      197.49281      198.64959     -24.113846    
   1743000   701.24017     -5481173.2      194.21719      197.49281      198.64959     -39.143293    
   1744000   700.49927     -5481031.7      194.21719      197.49281      198.64959      216.56246    
   1745000   700.05187     -5481092.2      194.21719      197.49281      198.64959     -31.328549    
   1746000   699.57253     -5481202.9      194.21719      197.49281      198.64959      32.023072    
   1747000   700.97575     -5481065.5      194.21719      197.49281      198.64959      117.50241    
   1748000   700.43884     -5481018.7      194.21719      197.49281      198.64959      107.03492    
   1749000   700.6808      -5481054.7      194.21719      197.49281      198.64959      70.942999    
   1750000   700.23974     -5481147.7      194.21719      197.49281      198.64959     -75.673945    
   1751000   699.32983     -5481270.1      194.21719      197.49281      198.64959      9.0914215    
   1752000   700.12881     -5481211.7      194.21719      197.49281      198.64959      48.298697    
   1753000   699.23479     -5481170.7      194.21719      197.49281      198.64959      91.207215    
   1754000   700.00288     -5481041.9      194.21719      197.49281      198.64959      210.88629    
   1755000   699.58653     -5481186.8      194.21719      197.49281      198.64959      32.886602    
   1756000   700.63828     -5481067.6      194.21719      197.49281      198.64959     -40.419473    
   1757000   699.41849     -5481154.4      194.21719      197.49281      198.64959      35.327163    
   1758000   700.31398     -5481214.2      194.21719      197.49281      198.64959      105.45726    
   1759000   699.21111     -5481228.6      194.21719      197.49281      198.64959      71.607957    
   1760000   699.33769     -5481240.7      194.21719      197.49281      198.64959      98.946306    
   1761000   700.78503     -5481106.4      194.21719      197.49281      198.64959      145.67607    
   1762000   699.74262     -5481165.5      194.21719      197.49281      198.64959      255.90455    
   1763000   699.63401     -5481229.5      194.21719      197.49281      198.64959      95.730785    
   1764000   698.45382     -5481269        194.21719      197.49281      198.64959      50.546717    
   1765000   698.87615     -5481151        194.21719      197.49281      198.64959      166.62812    
   1766000   700.44188     -5481146.9      194.21719      197.49281      198.64959      125.08148    
   1767000   700.72131     -5481145        194.21719      197.49281      198.64959      91.901726    
   1768000   699.48986     -5481197.6      194.21719      197.49281      198.64959      126.79591    
   1769000   700.29914     -5481015.1      194.21719      197.49281      198.64959     -38.723188    
   1770000   699.86912     -5481200.1      194.21719      197.49281      198.64959      3.4726521    
   1771000   700.55322     -5481066.3      194.21719      197.49281      198.64959      119.16906    
   1772000   699.22657     -5481192.7      194.21719      197.49281      198.64959     -36.64118     
   1773000   701.11759     -5481118.4      194.21719      197.49281      198.64959      32.825986    
   1774000   701.19598     -5481029.7      194.21719      197.49281      198.64959      8.9194321    
   1775000   700.71195     -5481165.9      194.21719      197.49281      198.64959      176.39508    
   1776000   700.08096     -5481218.8      194.21719      197.49281      198.64959      252.49287    
   1777000   700.58273     -5481105.6      194.21719      197.49281      198.64959      102.85142    
   1778000   699.78194     -5481241.5      194.21719      197.49281      198.64959      137.93372    
   1779000   699.59262     -5481300.9      194.21719      197.49281      198.64959      119.57949    
   1780000   699.71456     -5481108.6      194.21719      197.49281      198.64959      107.35374    
   1781000   699.62051     -5481227.7      194.21719      197.49281      198.64959      89.558646    
   1782000   700.9075      -5481185.5      194.21719      197.49281      198.64959      150.92755    
   1783000   699.70842     -5481214.8      194.21719      197.49281      198.64959      79.022254    
   1784000   701.4512      -5480982.5      194.21719      197.49281      198.64959      91.434881    
   1785000   700.24502     -5481196.2      194.21719      197.49281      198.64959      196.28846    
   1786000   699.89902     -5481229.6      194.21719      197.49281      198.64959      173.38054    
   1787000   700.81663     -5481179.4      194.21719      197.49281      198.64959      130.65166    
   1788000   700.44218     -5481175.4      194.21719      197.49281      198.64959      35.308299    
   1789000   698.6746      -5481295.9      194.21719      197.49281      198.64959     -14.389952    
   1790000   698.57158     -5481206.4      194.21719      197.49281      198.64959      78.05301     
   1791000   698.84364     -5481305        194.21719      197.49281      198.64959      240.27038    
   1792000   697.95535     -5481371.9      194.21719      197.49281      198.64959      182.42257    
   1793000   700.48262     -5481097.7      194.21719      197.49281      198.64959      39.002729    
   1794000   699.99486     -5481200.8      194.21719      197.49281      198.64959      43.92401     
   1795000   698.98501     -5481194.8      194.21719      197.49281      198.64959      47.288349    
   1796000   699.6964      -5481145.7      194.21719      197.49281      198.64959     -44.442025    
   1797000   700.00558     -5481119.2      194.21719      197.49281      198.64959      184.45574    
   1798000   699.74437     -5481212.7      194.21719      197.49281      198.64959     -34.633134    
   1799000   699.25554     -5481231.5      194.21719      197.49281      198.64959      17.94302     
   1800000   701.00358     -5481188.1      194.21719      197.49281      198.64959     -94.091972    
   1801000   701.1391      -5481037.7      194.21719      197.49281      198.64959      9.8401256    
   1802000   699.81817     -5481096.8      194.21719      197.49281      198.64959      54.182716    
   1803000   698.65085     -5481298.3      194.21719      197.49281      198.64959      78.998051    
   1804000   700.39528     -5481125.6      194.21719      197.49281      198.64959     -10.141546    
   1805000   698.93672     -5481354.9      194.21719      197.49281      198.64959      119.05518    
   1806000   699.06371     -5481261.8      194.21719      197.49281      198.64959      168.3884     
   1807000   701.03938     -5481136.5      194.21719      197.49281      198.64959      108.33508    
   1808000   698.53964     -5481331.3      194.21719      197.49281      198.64959      186.88874    
   1809000   700.91307     -5481103.3      194.21719      197.49281      198.64959      38.560573    
   1810000   699.56883     -5481307.3      194.21719      197.49281      198.64959      80.711215    
   1811000   699.56953     -5481210.5      194.21719      197.49281      198.64959      11.682852    
   1812000   700.08826     -5481111        194.21719      197.49281      198.64959      210.19521    
   1813000   700.32994     -5481126.4      194.21719      197.49281      198.64959      92.402381    
   1814000   699.33908     -5481278.9      194.21719      197.49281      198.64959     -56.412076    
   1815000   699.0641      -5481232.7      194.21719      197.49281      198.64959      98.001752    
   1816000   700.21808     -5481078.4      194.21719      197.49281      198.64959      33.875922    
   1817000   700.13247     -5481144.3      194.21719      197.49281      198.64959      91.433999    
   1818000   700.03377     -5481163.3      194.21719      197.49281      198.64959      175.79911    
   1819000   700.93882     -5481096.3      194.21719      197.49281      198.64959      90.776658    
   1820000   699.22372     -5481286.5      194.21719      197.49281      198.64959     -97.804375    
   1821000   698.80588     -5481356.6      194.21719      197.49281      198.64959      153.75652    
   1822000   698.43897     -5481276.7      194.21719      197.49281      198.64959      140.4772     
   1823000   699.52806     -5481210.1      194.21719      197.49281      198.64959      122.54641    
   1824000   699.47587     -5481265.9      194.21719      197.49281      198.64959      148.93471    
   1825000   698.29245     -5481318.7      194.21719      197.49281      198.64959      177.56104    
   1826000   699.02541     -5481329.2      194.21719      197.49281      198.64959      107.43674    
   1827000   699.74344     -5481166.3      194.21719      197.49281      198.64959      220.12368    
   1828000   698.09345     -5481234        194.21719      197.49281      198.64959     -33.475595    
   1829000   700.29594     -5481188.3      194.21719      197.49281      198.64959      12.448883    
   1830000   700.20026     -5481214.7      194.21719      197.49281      198.64959      92.360388    
   1831000   699.97418     -5481169.7      194.21719      197.49281      198.64959      64.343346    
   1832000   700.50315     -5481120.1      194.21719      197.49281      198.64959      300.34467    
   1833000   700.55216     -5481163.6      194.21719      197.49281      198.64959      190.59577    
   1834000   699.75371     -5481190.8      194.21719      197.49281      198.64959      219.10132    
   1835000   701.21736     -5481157.8      194.21719      197.49281      198.64959      168.60588    
   1836000   700.08002     -5481155.1      194.21719      197.49281      198.64959      212.83065    
   1837000   700.81441     -5481145.6      194.21719      197.49281      198.64959     -5.4759933    
   1838000   699.68078     -5481241.5      194.21719      197.49281      198.64959      145.20496    
   1839000   700.31003     -5481235.3      194.21719      197.49281      198.64959      110.69714    
   1840000   700.16021     -5481167.5      194.21719      197.49281      198.64959      156.92964    
   1841000   699.93558     -5481135.8      194.21719      197.49281      198.64959      169.97174    
   1842000   700.50919     -5481148.1      194.21719      197.49281      198.64959      242.91603    
   1843000   700.82774     -5481158.4      194.21719      197.49281      198.64959      74.562954    
   1844000   700.07643     -5481103.5      194.21719      197.49281      198.64959      251.27799    
   1845000   699.09094     -5481241.9      194.21719      197.49281      198.64959      230.83993    
   1846000   699.15595     -5481177.8      194.21719      197.49281      198.64959      45.763725    
   1847000   699.61874     -5481181.1      194.21719      197.49281      198.64959      248.82045    
   1848000   700.26028     -5481115.8      194.21719      197.49281      198.64959      359.86879    
   1849000   701.5342      -5481213.2      194.21719      197.49281      198.64959      117.60533    
   1850000   699.01167     -5481216.3      194.21719      197.49281      198.64959      164.90309    
   1851000   699.68502     -5481253.7      194.21719      197.49281      198.64959      179.06613    
   1852000   699.8132      -5481180.4      194.21719      197.49281      198.64959      140.41136    
   1853000   699.08743     -5481210.6      194.21719      197.49281      198.64959      94.925653    
   1854000   700.51869     -5481102        194.21719      197.49281      198.64959      225.42845    
   1855000   699.95178     -5481172.2      194.21719      197.49281      198.64959     -4.0461741    
   1856000   700.89855     -5481081.7      194.21719      197.49281      198.64959      141.59222    
   1857000   699.2528      -5481226.2      194.21719      197.49281      198.64959      56.578745    
   1858000   700.81114     -5481151        194.21719      197.49281      198.64959      165.14521    
   1859000   700.45967     -5481173.5      194.21719      197.49281      198.64959      97.105612    
   1860000   699.65632     -5481192.3      194.21719      197.49281      198.64959      171.77486    
   1861000   699.68548     -5481136.9      194.21719      197.49281      198.64959      173.85661    
   1862000   699.67696     -5481146.7      194.21719      197.49281      198.64959      162.326      
   1863000   699.7325      -5481201.3      194.21719      197.49281      198.64959      172.64351    
   1864000   699.35794     -5481283.9      194.21719      197.49281      198.64959      48.259331    
   1865000   698.64801     -5481277.8      194.21719      197.49281      198.64959      124.18089    
   1866000   700.39561     -5481185        194.21719      197.49281      198.64959      180.16936    
   1867000   699.89352     -5481298.3      194.21719      197.49281      198.64959      127.10536    
   1868000   699.71437     -5481198.2      194.21719      197.49281      198.64959      121.337      
   1869000   698.22969     -5481339        194.21719      197.49281      198.64959     -13.528767    
   1870000   700.58137     -5481095.2      194.21719      197.49281      198.64959      190.46952    
   1871000   700.92948     -5481126.6      194.21719      197.49281      198.64959     -18.433465    
   1872000   700.38516     -5481072.4      194.21719      197.49281      198.64959      116.69205    
   1873000   699.54331     -5481263.1      194.21719      197.49281      198.64959     -73.54704     
   1874000   699.0133      -5481287.1      194.21719      197.49281      198.64959     -4.5209787    
   1875000   699.86063     -5481198.8      194.21719      197.49281      198.64959      20.182468    
   1876000   700.79465     -5481117.8      194.21719      197.49281      198.64959      80.981664    
   1877000   699.33802     -5481265.7      194.21719      197.49281      198.64959      159.60447    
   1878000   700.14976     -5481193.9      194.21719      197.49281      198.64959      99.702949    
   1879000   699.08227     -5481190.6      194.21719      197.49281      198.64959      170.4317     
   1880000   699.76601     -5481242.6      194.21719      197.49281      198.64959      215.53248    
   1881000   700.48588     -5481153        194.21719      197.49281      198.64959      122.88072    
   1882000   700.41288     -5481159.4      194.21719      197.49281      198.64959      58.385018    
   1883000   700.43568     -5481242        194.21719      197.49281      198.64959      58.228346    
   1884000   701.2509      -5481134        194.21719      197.49281      198.64959      55.125277    
   1885000   699.53257     -5481239        194.21719      197.49281      198.64959      90.4779      
   1886000   699.06721     -5481112.2      194.21719      197.49281      198.64959      75.805155    
   1887000   701.10384     -5481214.5      194.21719      197.49281      198.64959      43.867331    
   1888000   698.8985      -5481239.1      194.21719      197.49281      198.64959      105.60653    
   1889000   699.64521     -5481238.1      194.21719      197.49281      198.64959      154.85966    
   1890000   700.10167     -5481162.5      194.21719      197.49281      198.64959      65.286878    
   1891000   700.41217     -5481136.3      194.21719      197.49281      198.64959      128.25484    
   1892000   700.75321     -5481043.3      194.21719      197.49281      198.64959      22.292693    
   1893000   701.40315     -5481082.9      194.21719      197.49281      198.64959      5.1311917    
   1894000   699.99313     -5481204.3      194.21719      197.49281      198.64959      115.26322    
   1895000   700.30814     -5481126.2      194.21719      197.49281      198.64959      147.88569    
   1896000   699.29623     -5481206.7      194.21719      197.49281      198.64959      120.7471     
   1897000   700.14348     -5481133        194.21719      197.49281      198.64959      15.007424    
   1898000   700.12883     -5481148.5      194.21719      197.49281      198.64959     -2.5344499    
   1899000   700.22309     -5481213.5      194.21719      197.49281      198.64959     -39.432853    
   1900000   702.37463     -5481099.1      194.21719      197.49281      198.64959     -10.88077     
   1901000   699.51104     -5481124.6      194.21719      197.49281      198.64959      56.610797    
   1902000   699.53049     -5481276.1      194.21719      197.49281      198.64959     -26.073362    
   1903000   699.90767     -5481116.7      194.21719      197.49281      198.64959      150.26058    
   1904000   699.70857     -5481274.3      194.21719      197.49281      198.64959      39.531165    
   1905000   699.63494     -5481222.6      194.21719      197.49281      198.64959      43.234237    
   1906000   699.95153     -5481067.1      194.21719      197.49281      198.64959      130.43721    
   1907000   701.09568     -5481172.5      194.21719      197.49281      198.64959      116.31955    
   1908000   699.46107     -5481151.9      194.21719      197.49281      198.64959     -11.881157    
   1909000   699.18961     -5481272        194.21719      197.49281      198.64959     -37.378089    
   1910000   700.91475     -5481162.4      194.21719      197.49281      198.64959      17.776094    
   1911000   699.47349     -5481283.1      194.21719      197.49281      198.64959      39.484748    
   1912000   699.71038     -5481301.5      194.21719      197.49281      198.64959      23.289299    
   1913000   700.32062     -5481090        194.21719      197.49281      198.64959      78.271485    
   1914000   697.46655     -5481302.9      194.21719      197.49281      198.64959      60.320889    
   1915000   699.13654     -5481309.1      194.21719      197.49281      198.64959      28.602544    
   1916000   700.52458     -5481094.7      194.21719      197.49281      198.64959      134.84065    
   1917000   699.16253     -5481310        194.21719      197.49281      198.64959      125.94245    
   1918000   699.20505     -5481199.7      194.21719      197.49281      198.64959      40.023564    
   1919000   699.98669     -5481189.7      194.21719      197.49281      198.64959      224.85231    
   1920000   699.6536      -5481249.4      194.21719      197.49281      198.64959     -41.008036    
   1921000   699.45579     -5481172.3      194.21719      197.49281      198.64959      93.5845      
   1922000   698.53377     -5481234.9      194.21719      197.49281      198.64959      91.948335    
   1923000   700.02349     -5481116.4      194.21719      197.49281      198.64959      153.88085    
   1924000   699.13317     -5481263.2      194.21719      197.49281      198.64959     -8.8743763    
   1925000   699.78285     -5481183.6      194.21719      197.49281      198.64959      155.80153    
   1926000   700.59575     -5481152.8      194.21719      197.49281      198.64959      9.0485997    
   1927000   699.91013     -5481174.2      194.21719      197.49281      198.64959      70.129517    
   1928000   699.16314     -5481375.1      194.21719      197.49281      198.64959      36.956483    
   1929000   699.46752     -5481205.2      194.21719      197.49281      198.64959     -6.3834801    
   1930000   698.95661     -5481261.1      194.21719      197.49281      198.64959      146.3735     
   1931000   700.44758     -5481213.1      194.21719      197.49281      198.64959      10.369648    
   1932000   699.73001     -5481217.4      194.21719      197.49281      198.64959      145.7893     
   1933000   700.2362      -5481098.2      194.21719      197.49281      198.64959      275.36471    
   1934000   698.97397     -5481187.6      194.21719      197.49281      198.64959      118.39134    
   1935000   700.37629     -5481179.4      194.21719      197.49281      198.64959      149.79186    
   1936000   699.98459     -5481102.8      194.21719      197.49281      198.64959      104.95651    
   1937000   700.63491     -5481171.5      194.21719      197.49281      198.64959      108.86997    
   1938000   700.37334     -5481167.4      194.21719      197.49281      198.64959      124.23938    
   1939000   699.01043     -5481310.5      194.21719      197.49281      198.64959      93.798698    
   1940000   699.90474     -5481213.2      194.21719      197.49281      198.64959      185.25773    
   1941000   699.54989     -5481207.9      194.21719      197.49281      198.64959      171.32534    
   1942000   699.34552     -5481191.4      194.21719      197.49281      198.64959      181.57774    
   1943000   698.90194     -5481245.3      194.21719      197.49281      198.64959      66.891411    
   1944000   700.00672     -5481219.5      194.21719      197.49281      198.64959      102.23961    
   1945000   699.36774     -5481155.9      194.21719      197.49281      198.64959      83.382281    
   1946000   700.52396     -5481201.8      194.21719      197.49281      198.64959      69.784788    
   1947000   701.1913      -5481155        194.21719      197.49281      198.64959      117.78764    
   1948000   698.88003     -5481188.4      194.21719      197.49281      198.64959      153.15165    
   1949000   700.74095     -5481180.5      194.21719      197.49281      198.64959      112.12863    
   1950000   700.10831     -5481138.9      194.21719      197.49281      198.64959      108.99726    
   1951000   700.01647     -5481185.8      194.21719      197.49281      198.64959      28.949285    
   1952000   699.77518     -5481198.7      194.21719      197.49281      198.64959      111.63498    
   1953000   699.96236     -5481174        194.21719      197.49281      198.64959      78.786218    
   1954000   699.38716     -5481257.7      194.21719      197.49281      198.64959      29.939974    
   1955000   700.004       -5481202        194.21719      197.49281      198.64959      116.94717    
   1956000   700.61809     -5481160        194.21719      197.49281      198.64959     -7.2665251    
   1957000   700.48197     -5481173.1      194.21719      197.49281      198.64959      53.613728    
   1958000   700.24084     -5481198.9      194.21719      197.49281      198.64959      82.962676    
   1959000   700.63742     -5481147.9      194.21719      197.49281      198.64959      89.788264    
   1960000   700.62726     -5481335.1      194.21719      197.49281      198.64959      218.73664    
   1961000   700.21177     -5481229.1      194.21719      197.49281      198.64959      195.37882    
   1962000   700.54047     -5481172.4      194.21719      197.49281      198.64959      109.76849    
   1963000   699.68353     -5481312.8      194.21719      197.49281      198.64959      95.329192    
   1964000   699.72122     -5481212.6      194.21719      197.49281      198.64959      93.673631    
   1965000   699.24723     -5481206.3      194.21719      197.49281      198.64959      183.97786    
   1966000   699.66094     -5481273.2      194.21719      197.49281      198.64959      94.558703    
   1967000   698.89142     -5481282.6      194.21719      197.49281      198.64959     -47.438452    
   1968000   701.66012     -5481117.1      194.21719      197.49281      198.64959      252.81403    
   1969000   700.99823     -5481135.8      194.21719      197.49281      198.64959      98.817357    
   1970000   700.07128     -5481240.3      194.21719      197.49281      198.64959      204.87909    
   1971000   700.44935     -5481153.4      194.21719      197.49281      198.64959      50.711718    
   1972000   700.15279     -5481099.5      194.21719      197.49281      198.64959      71.834025    
   1973000   699.49496     -5481236.2      194.21719      197.49281      198.64959      122.17531    
   1974000   700.17685     -5481233.7      194.21719      197.49281      198.64959      157.42311    
   1975000   699.26303     -5481337.3      194.21719      197.49281      198.64959      238.91613    
   1976000   699.81623     -5481142.5      194.21719      197.49281      198.64959      266.79584    
   1977000   699.90101     -5481224.1      194.21719      197.49281      198.64959      7.8169952    
   1978000   699.72931     -5481241.9      194.21719      197.49281      198.64959      177.67568    
   1979000   699.54796     -5481208.3      194.21719      197.49281      198.64959      139.95794    
   1980000   700.27528     -5481028.4      194.21719      197.49281      198.64959      107.12785    
   1981000   699.74496     -5481123.4      194.21719      197.49281      198.64959      114.91146    
   1982000   699.3155      -5481212.6      194.21719      197.49281      198.64959      93.398214    
   1983000   698.2867      -5481411.9      194.21719      197.49281      198.64959      179.90895    
   1984000   700.11563     -5481178.4      194.21719      197.49281      198.64959     -9.3943194    
   1985000   699.1939      -5481259        194.21719      197.49281      198.64959      119.37129    
   1986000   699.65695     -5481244.7      194.21719      197.49281      198.64959      106.07413    
   1987000   700.58154     -5481192.6      194.21719      197.49281      198.64959      96.323401    
   1988000   699.93242     -5481199.6      194.21719      197.49281      198.64959     -44.168844    
   1989000   698.92482     -5481208.1      194.21719      197.49281      198.64959      27.877626    
   1990000   700.87655     -5481139.1      194.21719      197.49281      198.64959      4.4636975    
   1991000   699.44583     -5481197.5      194.21719      197.49281      198.64959      152.85633    
   1992000   699.87458     -5481120.5      194.21719      197.49281      198.64959      138.69096    
   1993000   699.63487     -5481304.4      194.21719      197.49281      198.64959     -55.055794    
   1994000   698.58135     -5481365.3      194.21719      197.49281      198.64959      12.381869    
   1995000   700.47538     -5481208.7      194.21719      197.49281      198.64959      274.23111    
   1996000   699.29669     -5481293.7      194.21719      197.49281      198.64959      186.18032    
   1997000   701.09858     -5481201.9      194.21719      197.49281      198.64959      22.08727     
   1998000   699.54947     -5481192.1      194.21719      197.49281      198.64959      130.05824    
   1999000   698.61067     -5481278.4      194.21719      197.49281      198.64959      149.75964    
   2000000   700.64998     -5481287.1      194.21719      197.49281      198.64959      59.501891    
   2001000   699.57616     -5481245.6      194.21719      197.49281      198.64959     -10.825757    
   2002000   700.64726     -5481142.3      194.21719      197.49281      198.64959      119.35827    
   2003000   699.72852     -5481166.1      194.21719      197.49281      198.64959      145.47637    
   2004000   700.34531     -5481230.1      194.21719      197.49281      198.64959     -23.175981    
   2005000   700.32599     -5481086.7      194.21719      197.49281      198.64959      92.947035    
   2006000   699.46298     -5481231.6      194.21719      197.49281      198.64959      24.56156     
   2007000   700.03385     -5481260.6      194.21719      197.49281      198.64959      171.26581    
   2008000   699.49671     -5481179.8      194.21719      197.49281      198.64959      278.94354    
   2009000   700.59538     -5481170.1      194.21719      197.49281      198.64959      69.07426     
   2010000   700.80054     -5481052.3      194.21719      197.49281      198.64959      24.228741    
   2011000   700.70377     -5481086.2      194.21719      197.49281      198.64959      44.905563    
   2012000   700.40385     -5481099.3      194.21719      197.49281      198.64959      3.5963218    
   2013000   699.83831     -5481177.9      194.21719      197.49281      198.64959      110.2356     
   2014000   699.97548     -5481186.8      194.21719      197.49281      198.64959      105.38412    
   2015000   700.57026     -5481252.6      194.21719      197.49281      198.64959      76.923487    
   2016000   700.15355     -5481085.2      194.21719      197.49281      198.64959      162.89752    
   2017000   700.27192     -5481130.5      194.21719      197.49281      198.64959     -48.22147     
   2018000   700.42076     -5481146.2      194.21719      197.49281      198.64959      139.26937    
   2019000   699.25516     -5481293        194.21719      197.49281      198.64959      84.554653    
   2020000   700.16116     -5481158.8      194.21719      197.49281      198.64959      250.15841    
   2021000   699.3325      -5481193.5      194.21719      197.49281      198.64959      128.18012    
   2022000   699.70079     -5481276        194.21719      197.49281      198.64959      164.10605    
   2023000   699.70546     -5481162.7      194.21719      197.49281      198.64959      52.099431    
   2024000   700.14824     -5481191.5      194.21719      197.49281      198.64959      215.9091     
   2025000   700.51512     -5481104.1      194.21719      197.49281      198.64959      215.05251    
   2026000   700.01498     -5481143.1      194.21719      197.49281      198.64959      298.83738    
   2027000   699.5634      -5481209.9      194.21719      197.49281      198.64959      51.763385    
   2028000   699.46763     -5481280.8      194.21719      197.49281      198.64959      155.68734    
   2029000   699.55398     -5481272.5      194.21719      197.49281      198.64959      144.47659    
   2030000   700.54109     -5481241.3      194.21719      197.49281      198.64959      136.6261     
   2031000   700.4621      -5481123.2      194.21719      197.49281      198.64959      179.14652    
   2032000   700.81752     -5481134.8      194.21719      197.49281      198.64959      237.28909    
   2033000   699.36462     -5481154.1      194.21719      197.49281      198.64959      106.29572    
   2034000   700.335       -5481135        194.21719      197.49281      198.64959      55.517707    
   2035000   699.52368     -5481219.9      194.21719      197.49281      198.64959     -134.84021    
   2036000   700.99337     -5481104.4      194.21719      197.49281      198.64959      96.744201    
   2037000   700.07974     -5481196        194.21719      197.49281      198.64959      146.22402    
   2038000   699.82488     -5481151.3      194.21719      197.49281      198.64959      50.07913     
   2039000   699.139       -5481222.3      194.21719      197.49281      198.64959      42.127535    
   2040000   700.4852      -5481184.3      194.21719      197.49281      198.64959      76.341315    
   2041000   700.71134     -5481100.7      194.21719      197.49281      198.64959      79.43912     
   2042000   698.72774     -5481357        194.21719      197.49281      198.64959     -3.7537882    
   2043000   698.51679     -5481320.3      194.21719      197.49281      198.64959     -29.932311    
   2044000   698.86429     -5481225.3      194.21719      197.49281      198.64959      88.671287    
   2045000   700.51937     -5481150.1      194.21719      197.49281      198.64959      182.4501     
   2046000   701.03126     -5481085.7      194.21719      197.49281      198.64959      158.51843    
   2047000   699.82731     -5481206.1      194.21719      197.49281      198.64959     -50.500102    
   2048000   699.57136     -5481215.3      194.21719      197.49281      198.64959      67.946149    
   2049000   699.3344      -5481293.1      194.21719      197.49281      198.64959      29.092152    
   2050000   700.66485     -5481095.5      194.21719      197.49281      198.64959      20.066255    
   2051000   700.85191     -5481069.7      194.21719      197.49281      198.64959      110.81896    
   2052000   699.55459     -5481166.7      194.21719      197.49281      198.64959      294.61889    
   2053000   700.0305      -5481274.5      194.21719      197.49281      198.64959     -22.294685    
   2054000   700.45035     -5481066.7      194.21719      197.49281      198.64959      113.28942    
   2055000   697.91813     -5481267.5      194.21719      197.49281      198.64959      1.2209903    
   2056000   699.37272     -5481239.3      194.21719      197.49281      198.64959      8.90915      
   2057000   700.13261     -5481259.6      194.21719      197.49281      198.64959      212.71283    
   2058000   700.2969      -5481225.6      194.21719      197.49281      198.64959      31.597887    
   2059000   700.68262     -5481140.2      194.21719      197.49281      198.64959     -63.146983    
   2060000   700.45842     -5481111.3      194.21719      197.49281      198.64959      64.810986    
   2061000   699.82018     -5481123.3      194.21719      197.49281      198.64959      72.004898    
   2062000   701.75789     -5481077.6      194.21719      197.49281      198.64959      56.056271    
   2063000   700.82456     -5481206.5      194.21719      197.49281      198.64959      28.914376    
   2064000   701.18432     -5481185.8      194.21719      197.49281      198.64959     -23.763001    
   2065000   700.6556      -5481286.7      194.21719      197.49281      198.64959      34.0451      
   2066000   699.44097     -5481177.9      194.21719      197.49281      198.64959     -5.4444534    
   2067000   699.3742      -5481179.2      194.21719      197.49281      198.64959      134.54754    
   2068000   699.74002     -5481194.9      194.21719      197.49281      198.64959      61.056937    
   2069000   699.54638     -5481263.1      194.21719      197.49281      198.64959      118.8169     
   2070000   700.20139     -5481184.2      194.21719      197.49281      198.64959      99.397823    
   2071000   700.50082     -5481300.9      194.21719      197.49281      198.64959      96.729034    
   2072000   700.80503     -5481204.2      194.21719      197.49281      198.64959     -54.710667    
   2073000   700.89868     -5481176.7      194.21719      197.49281      198.64959      3.8802934    
   2074000   701.13813     -5480994.8      194.21719      197.49281      198.64959      214.73962    
   2075000   699.758       -5481249.9      194.21719      197.49281      198.64959      268.07789    
   2076000   699.09691     -5481363.9      194.21719      197.49281      198.64959      81.454905    
   2077000   700.08434     -5481171.5      194.21719      197.49281      198.64959      187.075      
   2078000   699.70034     -5481257.5      194.21719      197.49281      198.64959      234.33624    
   2079000   699.90612     -5481087.5      194.21719      197.49281      198.64959      171.31383    
   2080000   700.38301     -5481072.9      194.21719      197.49281      198.64959     -33.140569    
   2081000   699.02928     -5481229.6      194.21719      197.49281      198.64959      124.29908    
   2082000   700.19782     -5481172.9      194.21719      197.49281      198.64959     -12.833186    
   2083000   700.75623     -5481096.2      194.21719      197.49281      198.64959      134.1809     
   2084000   699.66983     -5481224        194.21719      197.49281      198.64959      65.796125    
   2085000   700.98226     -5481099.9      194.21719      197.49281      198.64959     -15.35844     
   2086000   699.69916     -5481160.4      194.21719      197.49281      198.64959      84.458505    
   2087000   699.28718     -5481232.2      194.21719      197.49281      198.64959     -32.611029    
   2088000   699.41781     -5481249.6      194.21719      197.49281      198.64959      181.03181    
   2089000   699.60743     -5481213.6      194.21719      197.49281      198.64959      69.269498    
   2090000   698.98798     -5481249.2      194.21719      197.49281      198.64959     -7.6582252    
   2091000   700.23123     -5481223.2      194.21719      197.49281      198.64959     -28.494412    
   2092000   699.56649     -5481293.2      194.21719      197.49281      198.64959      100.59116    
   2093000   699.59377     -5481236.2      194.21719      197.49281      198.64959      113.11101    
   2094000   699.29225     -5481207.9      194.21719      197.49281      198.64959     -51.185723    
   2095000   698.73713     -5481227.8      194.21719      197.49281      198.64959     -129.59085    
   2096000   698.11938     -5481307.9      194.21719      197.49281      198.64959      95.780886    
   2097000   700.30775     -5481151        194.21719      197.49281      198.64959      179.30873    
   2098000   700.82078     -5481126.8      194.21719      197.49281      198.64959      26.830356    
   2099000   701.14335     -5481009.5      194.21719      197.49281      198.64959      7.1327447    
   2100000   699.8262      -5481264.9      194.21719      197.49281      198.64959     -36.698004    
   2101000   698.5072      -5481282.3      194.21719      197.49281      198.64959      138.42065    
   2102000   698.95339     -5481292.9      194.21719      197.49281      198.64959      249.56743    
   2103000   698.81614     -5481330.5      194.21719      197.49281      198.64959     -52.942212    
   2104000   698.70248     -5481273.2      194.21719      197.49281      198.64959      4.6239979    
   2105000   700.56599     -5481191.2      194.21719      197.49281      198.64959     -17.877522    
   2106000   699.53448     -5481309.5      194.21719      197.49281      198.64959      25.218542    
   2107000   700.29137     -5481074.2      194.21719      197.49281      198.64959     -162.45918    
   2108000   701.03034     -5481070.2      194.21719      197.49281      198.64959      114.47157    
   2109000   702.70734     -5481032.7      194.21719      197.49281      198.64959      4.6419239    
   2110000   700.47193     -5481120.9      194.21719      197.49281      198.64959      7.6814899    
   2111000   700.34542     -5481187.7      194.21719      197.49281      198.64959      27.288766    
   2112000   700.34672     -5481145.8      194.21719      197.49281      198.64959     -48.12746     
   2113000   700.07524     -5481148.5      194.21719      197.49281      198.64959     -75.585373    
   2114000   699.44535     -5481232.9      194.21719      197.49281      198.64959      15.786487    
   2115000   699.75378     -5481216.1      194.21719      197.49281      198.64959      32.874848    
   2116000   699.69849     -5481207        194.21719      197.49281      198.64959     -52.58412     
   2117000   699.34966     -5481319.8      194.21719      197.49281      198.64959      42.718477    
   2118000   698.91571     -5481276.5      194.21719      197.49281      198.64959     -9.9071213    
   2119000   700.0139      -5481151.2      194.21719      197.49281      198.64959      27.530833    
   2120000   700.78362     -5481187.7      194.21719      197.49281      198.64959      87.425581    
   2121000   699.00486     -5481256.4      194.21719      197.49281      198.64959     -71.186578    
   2122000   698.81634     -5481251.1      194.21719      197.49281      198.64959      178.10474    
   2123000   699.95683     -5481171.5      194.21719      197.49281      198.64959      203.6219     
   2124000   700.48437     -5481201.1      194.21719      197.49281      198.64959      133.35946    
   2125000   699.62964     -5481223.6      194.21719      197.49281      198.64959      156.15561    
   2126000   699.14835     -5481199.8      194.21719      197.49281      198.64959      5.4621273    
   2127000   700.18193     -5481155.9      194.21719      197.49281      198.64959      39.202119    
   2128000   699.93304     -5481246.5      194.21719      197.49281      198.64959      3.6795648    
   2129000   699.97184     -5481122        194.21719      197.49281      198.64959      83.789674    
   2130000   699.15644     -5481195.9      194.21719      197.49281      198.64959      177.24375    
   2131000   700.00556     -5481183.4      194.21719      197.49281      198.64959      118.32623    
   2132000   700.986       -5481107.4      194.21719      197.49281      198.64959      133.08377    
   2133000   700.75751     -5481207.2      194.21719      197.49281      198.64959      69.167718    
   2134000   699.19614     -5481230.6      194.21719      197.49281      198.64959      5.0549858    
   2135000   699.16175     -5481203        194.21719      197.49281      198.64959     -16.26685     
   2136000   698.66863     -5481287.3      194.21719      197.49281      198.64959      90.439541    
   2137000   699.29888     -5481104.4      194.21719      197.49281      198.64959      56.747189    
   2138000   699.62483     -5481280.1      194.21719      197.49281      198.64959      30.082848    
   2139000   698.24652     -5481373        194.21719      197.49281      198.64959      9.9601571    
   2140000   698.20797     -5481356.3      194.21719      197.49281      198.64959      103.99319    
   2141000   698.84553     -5481238.8      194.21719      197.49281      198.64959      166.66531    
   2142000   699.83313     -5481165.4      194.21719      197.49281      198.64959      164.24532    
   2143000   700.61439     -5481158.5      194.21719      197.49281      198.64959      104.87239    
   2144000   698.96403     -5481232.8      194.21719      197.49281      198.64959      173.27974    
   2145000   701.22996     -5481205.3      194.21719      197.49281      198.64959      61.752922    
   2146000   700.33046     -5481115.2      194.21719      197.49281      198.64959      125.44636    
   2147000   700.99044     -5481107.3      194.21719      197.49281      198.64959      68.385846    
   2148000   699.74265     -5481133.4      194.21719      197.49281      198.64959      246.53355    
   2149000   700.70613     -5481210        194.21719      197.49281      198.64959      205.87827    
   2150000   698.6602      -5481340.1      194.21719      197.49281      198.64959      88.929142    
   2151000   699.40048     -5481231.3      194.21719      197.49281      198.64959      37.061643    
   2152000   699.51456     -5481130.8      194.21719      197.49281      198.64959      40.242387    
   2153000   701.21343     -5481159.2      194.21719      197.49281      198.64959      122.56846    
   2154000   699.52771     -5481205.2      194.21719      197.49281      198.64959      117.43235    
   2155000   700.18426     -5481122.7      194.21719      197.49281      198.64959     -29.32242     
   2156000   700.87358     -5481183.7      194.21719      197.49281      198.64959      86.809729    
   2157000   699.47479     -5481182.3      194.21719      197.49281      198.64959     -10.69824     
   2158000   699.79434     -5481205.6      194.21719      197.49281      198.64959     -42.929373    
   2159000   700.68268     -5481138.3      194.21719      197.49281      198.64959      85.348604    
   2160000   700.45237     -5481137.3      194.21719      197.49281      198.64959      189.31027    
   2161000   698.53049     -5481192        194.21719      197.49281      198.64959      67.623087    
   2162000   699.3545      -5481238.3      194.21719      197.49281      198.64959      41.670161    
   2163000   698.84662     -5481186        194.21719      197.49281      198.64959      78.882345    
   2164000   700.0458      -5481073.5      194.21719      197.49281      198.64959      109.39762    
   2165000   701.19765     -5481149.2      194.21719      197.49281      198.64959      75.366132    
   2166000   697.60108     -5481236.7      194.21719      197.49281      198.64959      106.97116    
   2167000   699.88781     -5481183.3      194.21719      197.49281      198.64959      205.05415    
   2168000   699.73107     -5481137.5      194.21719      197.49281      198.64959      60.830193    
   2169000   699.38825     -5481211.2      194.21719      197.49281      198.64959      63.542678    
   2170000   701.44822     -5481172.4      194.21719      197.49281      198.64959      79.530536    
   2171000   699.5894      -5481278.7      194.21719      197.49281      198.64959      41.071213    
   2172000   699.66593     -5481270.7      194.21719      197.49281      198.64959      80.059616    
   2173000   701.03128     -5481080.7      194.21719      197.49281      198.64959      36.580046    
   2174000   700.12201     -5481286.2      194.21719      197.49281      198.64959     -0.0068824804 
   2175000   699.46922     -5481160.2      194.21719      197.49281      198.64959      40.766615    
   2176000   700.69355     -5481159.8      194.21719      197.49281      198.64959      81.256453    
   2177000   700.74944     -5481213.7      194.21719      197.49281      198.64959      41.092682    
   2178000   698.80867     -5481283.1      194.21719      197.49281      198.64959      97.263068    
   2179000   698.86554     -5481248.6      194.21719      197.49281      198.64959     -64.451769    
   2180000   698.49957     -5481243.8      194.21719      197.49281      198.64959     -70.550358    
   2181000   700.72245     -5481100        194.21719      197.49281      198.64959      58.305034    
   2182000   699.63562     -5481208.6      194.21719      197.49281      198.64959     -30.794026    
   2183000   698.52055     -5481227.2      194.21719      197.49281      198.64959      32.426267    
   2184000   699.62368     -5481180        194.21719      197.49281      198.64959     -65.460765    
   2185000   700.01723     -5481115.8      194.21719      197.49281      198.64959     -17.396872    
   2186000   699.2029      -5481285.3      194.21719      197.49281      198.64959     -12.908751    
   2187000   700.3228      -5481200.3      194.21719      197.49281      198.64959      145.52333    
   2188000   700.23275     -5481132.8      194.21719      197.49281      198.64959      186.81908    
   2189000   700.66574     -5481222.7      194.21719      197.49281      198.64959      42.759813    
   2190000   700.78084     -5481157.8      194.21719      197.49281      198.64959      137.96587    
   2191000   699.17017     -5481276.4      194.21719      197.49281      198.64959      94.054761    
   2192000   699.94862     -5481229.9      194.21719      197.49281      198.64959      48.711745    
   2193000   701.12339     -5481078.5      194.21719      197.49281      198.64959      322.48903    
   2194000   699.6454      -5481203.8      194.21719      197.49281      198.64959      132.66618    
   2195000   699.91141     -5481124.2      194.21719      197.49281      198.64959      165.70533    
   2196000   700.38143     -5481144.3      194.21719      197.49281      198.64959      75.11819     
   2197000   699.35618     -5481279.3      194.21719      197.49281      198.64959      227.01302    
   2198000   700.01887     -5481156.4      194.21719      197.49281      198.64959      261.24252    
   2199000   699.34379     -5481152.3      194.21719      197.49281      198.64959      71.028404    
   2200000   700.24153     -5481179.7      194.21719      197.49281      198.64959      23.824724    
   2201000   700.98765     -5481152.2      194.21719      197.49281      198.64959      190.15584    
   2202000   699.5531      -5481226.4      194.21719      197.49281      198.64959      177.67607    
   2203000   700.62129     -5481143.7      194.21719      197.49281      198.64959      169.11527    
   2204000   698.81144     -5481335.9      194.21719      197.49281      198.64959      228.17156    
   2205000   698.72732     -5481211.4      194.21719      197.49281      198.64959      154.36954    
   2206000   699.30046     -5481316.7      194.21719      197.49281      198.64959      165.17759    
   2207000   699.68433     -5481207.6      194.21719      197.49281      198.64959      31.100445    
   2208000   699.45046     -5481218.2      194.21719      197.49281      198.64959      194.14088    
   2209000   699.08132     -5481277.5      194.21719      197.49281      198.64959     -118.59683    
   2210000   700.33925     -5481237.2      194.21719      197.49281      198.64959     -76.600797    
   2211000   700.49896     -5481084.5      194.21719      197.49281      198.64959      198.59498    
   2212000   698.45318     -5481211.2      194.21719      197.49281      198.64959      18.755076    
   2213000   699.35674     -5481276.2      194.21719      197.49281      198.64959      111.15614    
   2214000   700.04075     -5481185.1      194.21719      197.49281      198.64959      159.46959    
   2215000   700.66213     -5481204.9      194.21719      197.49281      198.64959      229.6884     
   2216000   701.14196     -5481107.1      194.21719      197.49281      198.64959      259.42917    
   2217000   700.89306     -5481228.7      194.21719      197.49281      198.64959      85.017169    
   2218000   699.96453     -5481179.4      194.21719      197.49281      198.64959      171.81814    
   2219000   701.20451     -5481108.7      194.21719      197.49281      198.64959      154.91291    
   2220000   699.9026      -5481238.9      194.21719      197.49281      198.64959      35.018223    
   2221000   700.83655     -5481157.7      194.21719      197.49281      198.64959      77.69783     
   2222000   700.83347     -5481161.5      194.21719      197.49281      198.64959      212.33694    
   2223000   701.04644     -5481106        194.21719      197.49281      198.64959      110.09513    
   2224000   700.03682     -5481206.7      194.21719      197.49281      198.64959      15.091627    
   2225000   699.6561      -5481184.3      194.21719      197.49281      198.64959      83.785994    
   2226000   700.26707     -5481104.6      194.21719      197.49281      198.64959      122.60674    
   2227000   700.59284     -5481128.6      194.21719      197.49281      198.64959      79.091133    
   2228000   699.61446     -5481216.6      194.21719      197.49281      198.64959      100.72768    
   2229000   700.10756     -5481131.3      194.21719      197.49281      198.64959      132.09054    
   2230000   699.96969     -5481179.9      194.21719      197.49281      198.64959      67.899044    
   2231000   699.19226     -5481262.3      194.21719      197.49281      198.64959      158.54487    
   2232000   699.37412     -5481227.2      194.21719      197.49281      198.64959      43.504089    
   2233000   700.12075     -5481168.1      194.21719      197.49281      198.64959      38.244376    
   2234000   700.03217     -5481107.1      194.21719      197.49281      198.64959      74.237551    
   2235000   699.5295      -5481257.2      194.21719      197.49281      198.64959      19.792554    
   2236000   700.07688     -5481191.1      194.21719      197.49281      198.64959      110.42026    
   2237000   700.88384     -5481201.2      194.21719      197.49281      198.64959      158.27477    
   2238000   700.96072     -5481079        194.21719      197.49281      198.64959      176.84582    
   2239000   700.3982      -5481195.4      194.21719      197.49281      198.64959      31.786276    
   2240000   700.6721      -5481197.6      194.21719      197.49281      198.64959      71.921191    
   2241000   700.57206     -5481125.4      194.21719      197.49281      198.64959      87.053304    
   2242000   699.36622     -5481303.5      194.21719      197.49281      198.64959      4.4191505    
   2243000   699.52525     -5481299.2      194.21719      197.49281      198.64959      34.558854    
   2244000   699.52093     -5481285.2      194.21719      197.49281      198.64959      39.628474    
   2245000   700.89416     -5481144.7      194.21719      197.49281      198.64959     -72.002765    
   2246000   699.78739     -5481193.4      194.21719      197.49281      198.64959      2.2360694    
   2247000   699.74659     -5481239.5      194.21719      197.49281      198.64959      43.973585    
   2248000   699.05676     -5481244.4      194.21719      197.49281      198.64959      83.051557    
   2249000   701.51085     -5481110        194.21719      197.49281      198.64959      90.340028    
   2250000   700.23716     -5481164.9      194.21719      197.49281      198.64959      88.507398    
   2251000   700.47615     -5481139.6      194.21719      197.49281      198.64959      81.361593    
   2252000   700.49891     -5481172        194.21719      197.49281      198.64959      163.95318    
   2253000   700.13428     -5481104        194.21719      197.49281      198.64959      185.93468    
   2254000   699.55559     -5481230        194.21719      197.49281      198.64959     -30.550148    
   2255000   698.60393     -5481311.3      194.21719      197.49281      198.64959     -16.185964    
   2256000   699.68526     -5481236.2      194.21719      197.49281      198.64959      41.080444    
   2257000   700.42353     -5481211        194.21719      197.49281      198.64959      222.51482    
   2258000   700.01211     -5481335.7      194.21719      197.49281      198.64959     -54.485551    
   2259000   700.76437     -5481179.8      194.21719      197.49281      198.64959      148.25672    
   2260000   699.19046     -5481356.4      194.21719      197.49281      198.64959     -16.511655    
   2261000   698.43655     -5481309.3      194.21719      197.49281      198.64959     -72.78886     
   2262000   699.02847     -5481274.3      194.21719      197.49281      198.64959      103.4774     
   2263000   700.56196     -5481107.8      194.21719      197.49281      198.64959      51.337482    
   2264000   701.16732     -5481132.9      194.21719      197.49281      198.64959     -13.808455    
   2265000   698.96037     -5481346.2      194.21719      197.49281      198.64959     -35.461511    
   2266000   699.42472     -5481186.4      194.21719      197.49281      198.64959      109.10005    
   2267000   700.43008     -5481188.7      194.21719      197.49281      198.64959      8.7594602    
   2268000   700.25        -5481095.3      194.21719      197.49281      198.64959      108.85528    
   2269000   699.88976     -5481253.3      194.21719      197.49281      198.64959     -98.677583    
   2270000   700.08289     -5481243.5      194.21719      197.49281      198.64959      66.191301    
   2271000   701.50456     -5481054.9      194.21719      197.49281      198.64959      142.05728    
   2272000   699.95481     -5481194        194.21719      197.49281      198.64959     -8.2323628    
   2273000   700.21565     -5481154.4      194.21719      197.49281      198.64959      264.01716    
   2274000   699.93882     -5481168.8      194.21719      197.49281      198.64959      103.82704    
   2275000   701.20535     -5481072.1      194.21719      197.49281      198.64959      46.623541    
   2276000   699.33451     -5481320        194.21719      197.49281      198.64959      89.99066     
   2277000   700.8216      -5481102.1      194.21719      197.49281      198.64959      218.06041    
   2278000   700.065       -5481253.8      194.21719      197.49281      198.64959      56.126617    
   2279000   700.26176     -5481198.2      194.21719      197.49281      198.64959      75.224253    
   2280000   698.14778     -5481385.4      194.21719      197.49281      198.64959     -14.691241    
   2281000   701.36622     -5481157.6      194.21719      197.49281      198.64959      30.461159    
   2282000   699.63872     -5481258.7      194.21719      197.49281      198.64959      50.802846    
   2283000   700.24692     -5481150.1      194.21719      197.49281      198.64959      119.60129    
   2284000   699.48088     -5481160.4      194.21719      197.49281      198.64959     -7.8303177    
   2285000   698.90985     -5481281.9      194.21719      197.49281      198.64959      36.808007    
   2286000   697.3718      -5481345.4      194.21719      197.49281      198.64959     -10.141162    
   2287000   699.90327     -5481155.4      194.21719      197.49281      198.64959      124.21882    
   2288000   700.38017     -5481146.3      194.21719      197.49281      198.64959      2.5813833    
   2289000   700.59575     -5481211.3      194.21719      197.49281      198.64959     -55.879846    
   2290000   700.90072     -5481029.4      194.21719      197.49281      198.64959      247.25666    
   2291000   700.75418     -5481226.7      194.21719      197.49281      198.64959      68.120486    
   2292000   699.1758      -5481291.5      194.21719      197.49281      198.64959     -89.458095    
   2293000   700.23196     -5481147.4      194.21719      197.49281      198.64959      1.9879315    
   2294000   698.97776     -5481316        194.21719      197.49281      198.64959     -46.588663    
   2295000   699.31533     -5481265.9      194.21719      197.49281      198.64959     -47.602656    
   2296000   700.63453     -5481167.7      194.21719      197.49281      198.64959      63.548349    
   2297000   698.94985     -5481296        194.21719      197.49281      198.64959     -69.179941    
   2298000   700.23718     -5481173.8      194.21719      197.49281      198.64959      35.028064    
   2299000   699.89614     -5481304.4      194.21719      197.49281      198.64959      42.708629    
   2300000   700.853       -5481178.4      194.21719      197.49281      198.64959      121.02818    
   2301000   700.62741     -5481185.8      194.21719      197.49281      198.64959      95.755783    
   2302000   700.76646     -5481223.7      194.21719      197.49281      198.64959      183.0462     
   2303000   700.63016     -5481131.8      194.21719      197.49281      198.64959      150.77479    
   2304000   699.97598     -5481225.3      194.21719      197.49281      198.64959      221.66331    
   2305000   699.41777     -5481323        194.21719      197.49281      198.64959      202.74883    
   2306000   699.26327     -5481151.3      194.21719      197.49281      198.64959      242.46422    
   2307000   699.40915     -5481323.8      194.21719      197.49281      198.64959      157.96009    
   2308000   700.78847     -5481149.3      194.21719      197.49281      198.64959      112.0167     
   2309000   700.87235     -5481127.4      194.21719      197.49281      198.64959     -8.0816733    
   2310000   699.65313     -5481091.6      194.21719      197.49281      198.64959      216.33939    
   2311000   701.37961     -5481187.6      194.21719      197.49281      198.64959      23.530059    
   2312000   699.59509     -5481223.7      194.21719      197.49281      198.64959      60.64929     
   2313000   699.1178      -5481277.8      194.21719      197.49281      198.64959      55.323821    
   2314000   699.56843     -5481230.6      194.21719      197.49281      198.64959      112.93508    
   2315000   699.28923     -5481159.7      194.21719      197.49281      198.64959      145.41342    
   2316000   699.41642     -5481267.4      194.21719      197.49281      198.64959      27.578527    
   2317000   700.62988     -5481176.8      194.21719      197.49281      198.64959      118.85572    
   2318000   701.36096     -5481173        194.21719      197.49281      198.64959      86.71398     
   2319000   700.62483     -5481175.3      194.21719      197.49281      198.64959      113.61291    
   2320000   700.54363     -5481145.6      194.21719      197.49281      198.64959      153.80802    
   2321000   699.92911     -5481226.5      194.21719      197.49281      198.64959     -33.78665     
   2322000   700.04173     -5481195.7      194.21719      197.49281      198.64959      101.65685    
   2323000   699.65769     -5481267.2      194.21719      197.49281      198.64959      74.359952    
   2324000   699.69479     -5481209.6      194.21719      197.49281      198.64959      181.91731    
   2325000   701.65885     -5481067.4      194.21719      197.49281      198.64959      121.35352    
   2326000   699.48998     -5481280        194.21719      197.49281      198.64959      112.39828    
   2327000   699.34173     -5481255.4      194.21719      197.49281      198.64959      210.07057    
   2328000   700.14441     -5481252.1      194.21719      197.49281      198.64959      91.224161    
   2329000   700.37862     -5481283        194.21719      197.49281      198.64959      117.99521    
   2330000   700.51905     -5481216.1      194.21719      197.49281      198.64959      65.75175     
   2331000   699.21567     -5481259.2      194.21719      197.49281      198.64959      117.37729    
   2332000   700.92628     -5481099.2      194.21719      197.49281      198.64959      21.538753    
   2333000   701.05042     -5481092        194.21719      197.49281      198.64959      117.49709    
   2334000   699.60505     -5481188.2      194.21719      197.49281      198.64959      151.83507    
   2335000   700.32106     -5481155.7      194.21719      197.49281      198.64959      194.89657    
   2336000   700.35448     -5481178.3      194.21719      197.49281      198.64959      116.37272    
   2337000   701.03326     -5481143.4      194.21719      197.49281      198.64959     -7.317097     
   2338000   699.82805     -5481188.5      194.21719      197.49281      198.64959      100.40082    
   2339000   700.34042     -5481164.5      194.21719      197.49281      198.64959      43.995065    
   2340000   700.21698     -5481197.9      194.21719      197.49281      198.64959      26.731071    
   2341000   700.72256     -5481154        194.21719      197.49281      198.64959      73.21211     
   2342000   701.08303     -5481166.7      194.21719      197.49281      198.64959     -38.18261     
   2343000   699.53899     -5481285.4      194.21719      197.49281      198.64959      55.441686    
   2344000   700.16473     -5481157        194.21719      197.49281      198.64959      68.690476    
   2345000   699.77732     -5481162        194.21719      197.49281      198.64959      101.36797    
   2346000   698.34008     -5481215.6      194.21719      197.49281      198.64959      188.44391    
   2347000   699.25336     -5481309.6      194.21719      197.49281      198.64959     -0.31183134   
   2348000   700.67306     -5481095.3      194.21719      197.49281      198.64959      278.23805    
   2349000   699.8639      -5481196.5      194.21719      197.49281      198.64959      182.6041     
   2350000   699.40889     -5481366.6      194.21719      197.49281      198.64959      195.37117    
   2351000   700.15782     -5481195.7      194.21719      197.49281      198.64959      226.7713     
   2352000   700.29152     -5481241.2      194.21719      197.49281      198.64959      174.88395    
   2353000   700.68837     -5481243.6      194.21719      197.49281      198.64959      140.42282    
   2354000   698.34346     -5481348.8      194.21719      197.49281      198.64959      139.01055    
   2355000   700.65792     -5481160.3      194.21719      197.49281      198.64959      116.11629    
   2356000   699.42515     -5481193.6      194.21719      197.49281      198.64959      212.24525    
   2357000   699.30632     -5481218.6      194.21719      197.49281      198.64959      116.09433    
   2358000   699.00325     -5481296.1      194.21719      197.49281      198.64959     -45.253823    
   2359000   702.19731     -5481001.3      194.21719      197.49281      198.64959      142.94207    
   2360000   698.83873     -5481272.1      194.21719      197.49281      198.64959     -32.941787    
   2361000   700.58977     -5481196.2      194.21719      197.49281      198.64959      96.998783    
   2362000   699.84986     -5481255.2      194.21719      197.49281      198.64959      164.31161    
   2363000   700.76379     -5481071.7      194.21719      197.49281      198.64959      157.92384    
   2364000   700.9761      -5481131.8      194.21719      197.49281      198.64959      141.34785    
   2365000   699.77231     -5481170.7      194.21719      197.49281      198.64959      101.37813    
   2366000   699.11015     -5481207.9      194.21719      197.49281      198.64959     -138.33532    
   2367000   699.33335     -5481350.3      194.21719      197.49281      198.64959      119.66814    
   2368000   699.56698     -5481328.1      194.21719      197.49281      198.64959      124.989      
   2369000   701.36553     -5481133.2      194.21719      197.49281      198.64959      149.73307    
   2370000   702.04122     -5481132.7      194.21719      197.49281      198.64959      151.22275    
   2371000   701.0403      -5481051        194.21719      197.49281      198.64959      131.50272    
   2372000   700.58927     -5481207.5      194.21719      197.49281      198.64959      23.486424    
   2373000   699.48396     -5481265        194.21719      197.49281      198.64959      31.343751    
   2374000   699.7725      -5481239.1      194.21719      197.49281      198.64959      53.740839    
   2375000   699.08797     -5481309.4      194.21719      197.49281      198.64959      134.67167    
   2376000   699.22108     -5481303        194.21719      197.49281      198.64959      205.08317    
   2377000   699.75071     -5481179.4      194.21719      197.49281      198.64959      129.40029    
   2378000   700.67252     -5481118.4      194.21719      197.49281      198.64959      230.74722    
   2379000   698.84494     -5481308.4      194.21719      197.49281      198.64959      170.42902    
   2380000   699.32997     -5481303.7      194.21719      197.49281      198.64959      165.30041    
   2381000   700.85638     -5481188.5      194.21719      197.49281      198.64959      241.19729    
   2382000   699.3541      -5481289.4      194.21719      197.49281      198.64959      126.13619    
   2383000   699.03346     -5481259.7      194.21719      197.49281      198.64959      110.23878    
   2384000   700.22559     -5481224        194.21719      197.49281      198.64959      67.848645    
   2385000   701.11977     -5481172.8      194.21719      197.49281      198.64959      146.45116    
   2386000   698.88894     -5481244.3      194.21719      197.49281      198.64959      162.73967    
   2387000   700.21317     -5481179.2      194.21719      197.49281      198.64959      91.873493    
   2388000   699.3007      -5481304.8      194.21719      197.49281      198.64959      129.22732    
   2389000   699.19775     -5481213.2      194.21719      197.49281      198.64959      74.723388    
   2390000   698.20379     -5481408.9      194.21719      197.49281      198.64959      55.166623    
   2391000   698.84879     -5481289.7      194.21719      197.49281      198.64959      123.76477    
   2392000   700.36124     -5481157.7      194.21719      197.49281      198.64959      279.66609    
   2393000   699.30726     -5481259.3      194.21719      197.49281      198.64959      94.091043    
   2394000   699.53293     -5481321.7      194.21719      197.49281      198.64959      101.55803    
   2395000   700.09335     -5481108.8      194.21719      197.49281      198.64959      156.87236    
   2396000   701.56958     -5481177.1      194.21719      197.49281      198.64959      104.13282    
   2397000   700.34814     -5481167.6      194.21719      197.49281      198.64959      3.0361305    
   2398000   698.45002     -5481350.6      194.21719      197.49281      198.64959     -8.3722732    
   2399000   700.95983     -5481154.7      194.21719      197.49281      198.64959      174.38696    
   2400000   700.20456     -5481345.3      194.21719      197.49281      198.64959     -64.602402    
   2401000   698.45262     -5481310.4      194.21719      197.49281      198.64959      166.575      
   2402000   700.41345     -5481277.1      194.21719      197.49281      198.64959     -72.803625    
   2403000   699.67506     -5481234.7      194.21719      197.49281      198.64959      57.936269    
   2404000   699.24733     -5481262.5      194.21719      197.49281      198.64959      109.05139    
   2405000   699.82356     -5481231.1      194.21719      197.49281      198.64959      214.02498    
   2406000   699.98317     -5481189        194.21719      197.49281      198.64959      45.044505    
   2407000   699.88396     -5481249.8      194.21719      197.49281      198.64959      24.208613    
   2408000   698.77728     -5481217.8      194.21719      197.49281      198.64959      168.44024    
   2409000   699.76748     -5481262.3      194.21719      197.49281      198.64959      33.229219    
   2410000   701.1911      -5481180.6      194.21719      197.49281      198.64959      25.670676    
   2411000   699.74134     -5481321.8      194.21719      197.49281      198.64959     -162.90142    
   2412000   700.37241     -5481190.7      194.21719      197.49281      198.64959      102.79584    
   2413000   700.07713     -5481169        194.21719      197.49281      198.64959      235.67786    
   2414000   700.114       -5481248.2      194.21719      197.49281      198.64959      265.17675    
   2415000   701.42878     -5481163.2      194.21719      197.49281      198.64959      176.15149    
   2416000   699.41569     -5481241.8      194.21719      197.49281      198.64959      160.36628    
   2417000   698.42515     -5481286.1      194.21719      197.49281      198.64959      208.70045    
   2418000   699.41926     -5481340        194.21719      197.49281      198.64959      263.75711    
   2419000   699.18158     -5481270        194.21719      197.49281      198.64959      204.91512    
   2420000   699.80567     -5481245.7      194.21719      197.49281      198.64959      135.47311    
   2421000   699.46282     -5481189.1      194.21719      197.49281      198.64959      325.9356     
   2422000   700.27858     -5481275.7      194.21719      197.49281      198.64959      81.130915    
   2423000   700.4732      -5481108.7      194.21719      197.49281      198.64959      149.74265    
   2424000   700.32662     -5481100.3      194.21719      197.49281      198.64959      123.14378    
   2425000   699.10805     -5481234.2      194.21719      197.49281      198.64959      112.53084    
   2426000   700.39861     -5481233.8      194.21719      197.49281      198.64959      30.183975    
   2427000   701.29738     -5481117.6      194.21719      197.49281      198.64959      36.287599    
   2428000   698.75368     -5481388.3      194.21719      197.49281      198.64959     -92.715471    
   2429000   699.82703     -5481155.8      194.21719      197.49281      198.64959     -11.010296    
   2430000   700.92745     -5481134.8      194.21719      197.49281      198.64959      154.77068    
   2431000   700.03949     -5481267.3      194.21719      197.49281      198.64959     -17.488546    
   2432000   700.44909     -5481287.5      194.21719      197.49281      198.64959      143.57861    
   2433000   698.125       -5481365.5      194.21719      197.49281      198.64959      73.881534    
   2434000   699.65001     -5481327.4      194.21719      197.49281      198.64959      233.40921    
   2435000   700.34848     -5481256.7      194.21719      197.49281      198.64959      92.937945    
   2436000   699.66099     -5481237.9      194.21719      197.49281      198.64959      36.004393    
   2437000   701.34469     -5481106.2      194.21719      197.49281      198.64959      62.388986    
   2438000   700.0674      -5481235.3      194.21719      197.49281      198.64959      52.994196    
   2439000   699.47918     -5481250.5      194.21719      197.49281      198.64959      181.39502    
   2440000   699.44495     -5481231        194.21719      197.49281      198.64959      156.71644    
   2441000   699.25593     -5481374.6      194.21719      197.49281      198.64959      0.37287886   
   2442000   700.69252     -5481138.9      194.21719      197.49281      198.64959      153.59621    
   2443000   700.35854     -5481224        194.21719      197.49281      198.64959      214.28665    
   2444000   699.56686     -5481200.6      194.21719      197.49281      198.64959      170.9731     
   2445000   699.4239      -5481225.4      194.21719      197.49281      198.64959      77.446182    
   2446000   700.16662     -5481089.5      194.21719      197.49281      198.64959      89.199177    
   2447000   699.6044      -5481323.1      194.21719      197.49281      198.64959      42.121088    
   2448000   698.31117     -5481320.1      194.21719      197.49281      198.64959      81.362623    
   2449000   700.24816     -5481111.9      194.21719      197.49281      198.64959      130.97965    
   2450000   700.33114     -5481140.9      194.21719      197.49281      198.64959      174.95407    
   2451000   700.09121     -5481216.5      194.21719      197.49281      198.64959      40.304418    
   2452000   698.89597     -5481436        194.21719      197.49281      198.64959      88.760403    
   2453000   699.07889     -5481297.1      194.21719      197.49281      198.64959      113.13828    
   2454000   700.20301     -5481170.3      194.21719      197.49281      198.64959      180.58596    
   2455000   698.72191     -5481342.6      194.21719      197.49281      198.64959      380.03284    
   2456000   699.94513     -5481174.1      194.21719      197.49281      198.64959      80.688903    
   2457000   701.43962     -5481090        194.21719      197.49281      198.64959      216.02948    
   2458000   699.53353     -5481222.8      194.21719      197.49281      198.64959      129.21414    
   2459000   700.10841     -5481197.9      194.21719      197.49281      198.64959      129.00696    
   2460000   699.96532     -5481222.8      194.21719      197.49281      198.64959      61.595309    
   2461000   699.98067     -5481154.3      194.21719      197.49281      198.64959      197.44604    
   2462000   700.99166     -5481064.5      194.21719      197.49281      198.64959      129.88866    
   2463000   698.35939     -5481386.7      194.21719      197.49281      198.64959     -73.658865    
   2464000   700.8449      -5481196.2      194.21719      197.49281      198.64959      186.33505    
   2465000   699.32421     -5481250        194.21719      197.49281      198.64959      10.835612    
   2466000   699.29247     -5481365.6      194.21719      197.49281      198.64959      35.275097    
   2467000   699.28193     -5481177.9      194.21719      197.49281      198.64959      4.539925     
   2468000   699.53027     -5481198.4      194.21719      197.49281      198.64959      125.495      
   2469000   699.19317     -5481187.9      194.21719      197.49281      198.64959     -44.664858    
   2470000   700.45136     -5481212.4      194.21719      197.49281      198.64959      46.971196    
   2471000   700.72137     -5481055.8      194.21719      197.49281      198.64959      66.348094    
   2472000   700.72337     -5481206.5      194.21719      197.49281      198.64959      88.139631    
   2473000   698.64501     -5481329.6      194.21719      197.49281      198.64959      118.16361    
   2474000   699.3514      -5481201.3      194.21719      197.49281      198.64959      152.52325    
   2475000   700.12927     -5481304.3      194.21719      197.49281      198.64959      171.98412    
   2476000   701.87495     -5481031.1      194.21719      197.49281      198.64959      11.088221    
   2477000   700.51185     -5481170.5      194.21719      197.49281      198.64959      1.5580389    
   2478000   698.90893     -5481272.3      194.21719      197.49281      198.64959     -18.023404    
   2479000   699.2805      -5481358.4      194.21719      197.49281      198.64959      9.8012724    
   2480000   700.82106     -5481080.1      194.21719      197.49281      198.64959      155.91747    
   2481000   700.29887     -5481148.6      194.21719      197.49281      198.64959      192.14874    
   2482000   700.66103     -5481076.5      194.21719      197.49281      198.64959      265.72746    
   2483000   699.62753     -5481233.3      194.21719      197.49281      198.64959      167.70018    
   2484000   700.63784     -5481177.5      194.21719      197.49281      198.64959      135.41354    
   2485000   699.77034     -5481268.3      194.21719      197.49281      198.64959      224.32826    
   2486000   698.95827     -5481355.8      194.21719      197.49281      198.64959      12.956583    
   2487000   699.77173     -5481238.2      194.21719      197.49281      198.64959      189.09359    
   2488000   699.30599     -5481311.7      194.21719      197.49281      198.64959      94.94834     
   2489000   700.80038     -5481110.3      194.21719      197.49281      198.64959      96.986714    
   2490000   700.05772     -5481060.5      194.21719      197.49281      198.64959     -17.481207    
   2491000   700.02736     -5481246.8      194.21719      197.49281      198.64959      84.364536    
   2492000   700.45338     -5481164.6      194.21719      197.49281      198.64959      153.69656    
   2493000   699.09539     -5481163.2      194.21719      197.49281      198.64959      114.64252    
   2494000   700.10014     -5481257.6      194.21719      197.49281      198.64959      83.844499    
   2495000   699.93411     -5481277.6      194.21719      197.49281      198.64959      117.71534    
   2496000   701.18405     -5481066.2      194.21719      197.49281      198.64959      184.74134    
   2497000   699.0312      -5481343.8      194.21719      197.49281      198.64959      150.66593    
   2498000   700.65246     -5481148.6      194.21719      197.49281      198.64959      224.06988    
   2499000   700.07327     -5481209.6      194.21719      197.49281      198.64959      141.12468    
   2500000   699.68255     -5481208.2      194.21719      197.49281      198.64959      139.70841    
   2501000   700.36812     -5481201.6      194.21719      197.49281      198.64959      78.249601    
   2502000   698.96203     -5481294.8      194.21719      197.49281      198.64959     -14.121668    
   2503000   700.26221     -5481129.5      194.21719      197.49281      198.64959      205.99151    
   2504000   700.40285     -5481164.5      194.21719      197.49281      198.64959      91.494186    
   2505000   701.09162     -5481115.8      194.21719      197.49281      198.64959      57.963868    
   2506000   700.56394     -5481136.7      194.21719      197.49281      198.64959      32.943519    
   2507000   702.07154     -5481177.6      194.21719      197.49281      198.64959      161.60033    
   2508000   701.80411     -5481122.8      194.21719      197.49281      198.64959     -7.638512     
   2509000   699.23841     -5481250.9      194.21719      197.49281      198.64959      81.036637    
   2510000   699.24957     -5481260.3      194.21719      197.49281      198.64959      124.52563    
Loop time of 185205 on 16384 procs for 2500000 steps with 483733 atoms

Performance: 2.333 ns/day, 10.289 hours/ns, 13.499 timesteps/s, 6.530 Matom-step/s
80.0% CPU use with 128 MPI tasks x 128 OpenMP threads

MPI task timing breakdown:
Section |  min time  |  avg time  |  max time  |%varavg| %total
---------------------------------------------------------------
Pair    | 70190      | 97814      | 1.2627e+05 |7103.0 | 52.81
Bond    | 0.24449    | 0.53887    | 0.89446    |  17.2 |  0.00
Kspace  | 32101      | 65672      | 97702      |10126.5 | 35.46
Neigh   | 10751      | 15531      | 20597      |3161.3 |  8.39
Comm    | 4369.5     | 4877.1     | 5323.4     | 332.6 |  2.63
Output  | 0.40754    | 0.4527     | 0.46074    |   1.0 |  0.00
Modify  | 498.72     | 916.33     | 1376.6     | 985.2 |  0.49
Other   |            | 393.4      |            |       |  0.21

Nlocal:        3779.16 ave        4627 max        2950 min
Histogram: 64 0 0 0 0 0 0 0 0 64
Nghost:        11784.1 ave       13124 max       10446 min
Histogram: 64 0 0 0 0 0 0 0 0 64
Neighs:         900020 ave 1.17095e+06 max      638175 min
Histogram: 38 26 0 0 0 0 0 8 24 32

Total # of neighbors = 1.1520261e+08
Ave neighs/atom = 238.1533
Ave special neighs/atom = 0
Neighbor list builds = 514372
Dangerous builds = 0
Total wall time: 51:40:54
